*SPEF "ieee 1481-1999"
*DESIGN "gcd"
*DATE "06:11:07 Friday October 09, 2026"
*VENDOR "The OpenROAD Project"
*PROGRAM "OpenROAD"
*VERSION "unknown"
*DESIGN_FLOW "NAME_SCOPE LOCAL" "PIN_CAP NONE"
*DIVIDER /
*DELIMITER :
*BUS_DELIMITER []
*T_UNIT 1 NS
*C_UNIT 1 PF
*R_UNIT 1 OHM
*L_UNIT 1 HENRY

*NAME_MAP
*2 _001_
*3 _002_
*4 _003_
*5 _004_
*6 _005_
*7 _006_
*8 _007_
*9 _008_
*10 _009_
*11 _010_
*12 _011_
*13 _012_
*14 _013_
*15 _014_
*16 _015_
*17 _016_
*18 _017_
*19 _018_
*20 _019_
*21 _020_
*22 _021_
*23 _022_
*24 _023_
*25 _024_
*26 _025_
*27 _026_
*28 _027_
*29 _028_
*30 _029_
*31 _030_
*32 _031_
*33 _032_
*34 _033_
*35 _034_
*36 _035_
*37 _036_
*38 _037_
*39 _038_
*40 _039_
*41 _040_
*42 _041_
*43 _042_
*44 _043_
*45 _044_
*46 _045_
*47 _046_
*48 _047_
*49 _048_
*50 _049_
*51 _050_
*52 _051_
*53 _052_
*54 _053_
*55 _054_
*56 _055_
*57 _056_
*58 _057_
*59 _058_
*60 _059_
*61 _060_
*62 _061_
*63 _062_
*64 _063_
*65 _064_
*66 _065_
*67 _066_
*68 _067_
*69 _068_
*70 _069_
*71 _070_
*72 _071_
*73 _072_
*74 _073_
*75 _074_
*76 _075_
*77 _076_
*78 _077_
*79 _078_
*80 _079_
*81 _080_
*82 _081_
*83 _082_
*84 _083_
*85 _084_
*86 _085_
*87 _086_
*88 _087_
*89 _088_
*90 _089_
*91 _090_
*92 _091_
*93 _092_
*94 _093_
*95 _094_
*96 _095_
*97 _096_
*98 _097_
*99 _098_
*100 _099_
*101 _100_
*102 _101_
*103 _102_
*104 _103_
*105 _104_
*106 _105_
*107 _106_
*108 _107_
*109 _108_
*110 _109_
*111 _110_
*112 _111_
*113 _112_
*114 _113_
*115 _114_
*116 _115_
*117 _116_
*118 _117_
*119 _118_
*255 _119_/_000_
*252 _119_/_001_
*247 _119_/_002_
*242 _119_/_003_
*240 _119_/_004_
*239 _119_/_005_
*237 _119_/_006_
*235 _119_/_007_
*233 _119_/_008_
*231 _119_/_009_
*229 _119_/_010_
*228 _119_/_011_
*227 _119_/_012_
*224 _119_/_013_
*222 _119_/_014_
*221 _119_/_015_
*220 _119_/_016_
*219 _119_/_017_
*218 _119_/_018_
*216 _119_/_019_
*214 _119_/_020_
*213 _119_/_021_
*211 _119_/_022_
*209 _119_/_023_
*208 _119_/_024_
*207 _119_/_025_
*206 _119_/_026_
*204 _119_/_027_
*202 _119_/_028_
*200 _119_/_029_
*198 _119_/_030_
*196 _119_/_031_
*195 _119_/_032_
*194 _119_/_033_
*193 _119_/_034_
*199 _119_/_035_
*191 _119_/_036_
*190 _119_/_037_
*189 _119_/_038_
*187 _119_/_039_
*185 _119_/_040_
*184 _119_/_041_
*182 _119_/_042_
*180 _119_/_043_
*179 _119_/_044_
*178 _119_/_045_
*176 _119_/_046_
*174 _119_/_047_
*1 _119_/_048_
*262 _119_/_049_
*264 _119_/_050_
*265 _119_/_051_
*266 _119_/_052_
*267 _119_/_053_
*269 _119_/_054_
*246 _119_/_055_
*272 _119_/_056_
*256 _119_/_057_
*258 _119_/_058_
*274 _119_/_059_
*276 _119_/_060_
*257 _119_/_061_
*278 _119_/_062_
*280 _119_/_063_
*282 _119_/_064_
*283 _119_/_065_
*284 _119_/_066_
*285 _119_/_067_
*286 _119_/_068_
*287 _119_/_069_
*288 _119_/_070_
*289 _119_/_071_
*290 _119_/_072_
*291 _119_/_073_
*292 _119_/_074_
*293 _119_/_075_
*299 _119_/_076_
*300 _119_/_077_
*301 _119_/_078_
*304 _119_/_079_
*305 _119_/_080_
*306 _119_/_081_
*307 _119_/_082_
*308 _119_/_083_
*310 _119_/_084_
*197 _119_/_085_
*311 _119_/_086_
*313 _119_/_087_
*314 _119_/_088_
*315 _119_/_089_
*316 _119_/_090_
*251 _119_/_091_
*319 _119_/_092_
*320 _119_/_093_
*321 _119_/_094_
*322 _119_/_095_
*323 _119_/_096_
*324 _119_/_097_
*325 _119_/_098_
*326 _119_/_099_
*328 _119_/_100_
*329 _119_/_101_
*225 _119_/_102_
*331 _119_/_103_
*332 _119_/_104_
*334 _119_/_105_
*223 _119_/_106_
*335 _119_/_107_
*336 _119_/_108_
*337 _119_/_109_
*250 _119_/_110_
*338 _119_/_111_
*340 _119_/_112_
*341 _119_/_113_
*254 _119_/_114_
*343 _119_/_115_
*344 _119_/_116_
*345 _119_/_117_
*346 _119_/_118_
*238 _119_/_119_
*347 _119_/_120_
*349 _119_/_121_
*350 _119_/_122_
*351 _119_/_123_
*352 _119_/_124_
*253 _119_/_125_
*249 _119_/_126_
*248 _119_/_127_
*362 _119_/net157
*364 _119_/net158
*365 _119_/net159
*366 _119_/net161
*368 _119_/net164
*440 _119_/net166
*370 _119_/net167
*371 _119_/net168
*372 _119_/net169
*373 _119_/net170
*374 _119_/net171
*375 _119_/net172
*376 _119_/net173
*377 _119_/net174
*441 _119_/net175
*378 _119_/net176
*379 _119_/net177
*380 _119_/net178
*381 _119_/net179
*384 _119_/net180
*383 _119_/net181
*388 _119_/net183
*386 _119_/net184
*389 _119_/net185
*395 _119_/net192
*393 _119_/net193
*397 _119_/net194
*396 _119_/net195
*391 _119_/net196
*399 _119_/net198
*401 _119_/net199
*402 _119_/net200
*400 _119_/net201
*444 _119_/net222
*451 _119_/net238
*453 _119_/net240
*455 _119_/net242
*456 _119_/net243
*460 _119_/net248
*461 _119_/net249
*462 _119_/net250
*463 _119_/net251
*464 _119_/net252
*465 _119_/net253
*467 _119_/net255
*470 _119_/net258
*387 _119_/net261
*473 _119_/net262
*367 _119_/net270
*359 _119_/net273
*476 _119_/net278
*477 _119_/net287
*480 _119_/net290
*438 _119_/net294
*493 _119_/net332
*494 _119_/net333
*495 _119_/net335
*361 _119_/net336
*457 _119_/net352
*496 _119_/net355
*437 _119_/net356
*497 _119_/net359
*498 _119_/net360
*499 _119_/net361
*500 _119_/net362
*501 _119_/net363
*502 _119_/net364
*475 _119_/net367
*504 _119_/net384
*120 clk
*434 clknet_0_clk
*431 clknet_2_0__leaf_clk
*448 clknet_2_1__leaf_clk
*449 clknet_2_2__leaf_clk
*450 clknet_2_3__leaf_clk
*128 net10
*129 net11
*130 net12
*131 net13
*132 net14
*435 net149
*133 net15
*436 net150
*439 net155
*363 net156
*134 net16
*369 net165
*135 net17
*136 net18
*390 net186
*385 net187
*382 net188
*442 net189
*137 net19
*392 net190
*394 net191
*138 net20
*443 net202
*403 net203
*404 net204
*405 net205
*406 net206
*407 net207
*408 net208
*409 net209
*139 net21
*411 net210
*412 net211
*413 net212
*414 net213
*415 net214
*416 net215
*410 net216
*417 net217
*418 net218
*419 net219
*140 net22
*420 net220
*422 net223
*423 net224
*424 net225
*425 net226
*426 net227
*427 net228
*428 net229
*141 net23
*429 net230
*445 net232
*446 net234
*447 net235
*432 net236
*433 net237
*452 net239
*142 net24
*454 net241
*458 net245
*459 net247
*143 net25
*466 net254
*468 net256
*469 net257
*471 net259
*144 net26
*472 net260
*474 net263
*145 net27
*146 net28
*478 net288
*479 net289
*147 net29
*481 net295
*482 net298
*121 net3
*148 net30
*483 net300
*484 net302
*485 net304
*487 net306
*149 net31
*490 net312
*491 net314
*150 net32
*151 net33
*152 net34
*154 net35
*358 net353
*155 net36
*503 net369
*172 net37
*398 net379
*153 net38
*360 net380
*486 net381
*492 net383
*156 net39
*489 net399
*122 net4
*157 net40
*158 net41
*159 net42
*160 net43
*161 net44
*162 net45
*163 net46
*164 net47
*165 net48
*166 net49
*123 net5
*167 net50
*168 net51
*169 net52
*170 net53
*171 net54
*173 net55
*124 net6
*125 net7
*126 net8
*127 net9
*259 net_1
*260 net_2
*342 req_msg[0]
*339 req_msg[10]
*333 req_msg[11]
*330 req_msg[12]
*327 req_msg[13]
*318 req_msg[14]
*317 req_msg[15]
*312 req_msg[16]
*309 req_msg[17]
*303 req_msg[18]
*302 req_msg[19]
*298 req_msg[1]
*297 req_msg[20]
*296 req_msg[21]
*295 req_msg[22]
*294 req_msg[23]
*281 req_msg[24]
*279 req_msg[25]
*277 req_msg[26]
*275 req_msg[27]
*273 req_msg[28]
*271 req_msg[29]
*270 req_msg[2]
*268 req_msg[30]
*263 req_msg[31]
*261 req_msg[3]
*245 req_msg[4]
*244 req_msg[5]
*243 req_msg[6]
*241 req_msg[7]
*236 req_msg[8]
*234 req_msg[9]
*217 req_rdy
*232 req_val
*230 reset
*215 resp_msg[0]
*212 resp_msg[10]
*210 resp_msg[11]
*205 resp_msg[12]
*203 resp_msg[13]
*201 resp_msg[14]
*192 resp_msg[15]
*188 resp_msg[1]
*186 resp_msg[2]
*183 resp_msg[3]
*181 resp_msg[4]
*177 resp_msg[5]
*175 resp_msg[6]
*354 resp_msg[7]
*355 resp_msg[8]
*356 resp_msg[9]
*226 resp_rdy
*357 resp_val
*1032 ANTENNA_1
*971 FILLER_0_0
*1053 FILLER_0_119
*1054 FILLER_0_121
*1055 FILLER_0_125
*1056 FILLER_0_151
*1057 FILLER_0_159
*1058 FILLER_0_167
*1059 FILLER_0_171
*962 FILLER_0_37
*1049 FILLER_0_51
*1050 FILLER_0_85
*1051 FILLER_0_89
*1052 FILLER_0_94
*1153 FILLER_10_105
*1154 FILLER_10_128
*1155 FILLER_10_139
*1156 FILLER_10_151
*1157 FILLER_10_158
*1158 FILLER_10_166
*1159 FILLER_10_170
*1160 FILLER_10_172
*1150 FILLER_10_28
*1151 FILLER_10_31
*1152 FILLER_10_33
*1162 FILLER_11_102
*1163 FILLER_11_130
*1164 FILLER_11_134
*1165 FILLER_11_159
*1166 FILLER_11_169
*1161 FILLER_11_42
*1167 FILLER_12_0
*1172 FILLER_12_132
*1173 FILLER_12_149
*1174 FILLER_12_151
*1175 FILLER_12_164
*1176 FILLER_12_172
*1169 FILLER_12_31
*1168 FILLER_12_4
*1170 FILLER_12_68
*1171 FILLER_12_94
*1177 FILLER_13_0
*1179 FILLER_13_136
*1180 FILLER_13_138
*1181 FILLER_13_165
*1178 FILLER_13_49
*1183 FILLER_14_10
*1190 FILLER_14_149
*1191 FILLER_14_172
*1184 FILLER_14_23
*1185 FILLER_14_44
*1186 FILLER_14_66
*1187 FILLER_14_77
*1182 FILLER_14_8
*1188 FILLER_14_85
*1189 FILLER_14_97
*1192 FILLER_15_0
*1197 FILLER_15_111
*1198 FILLER_15_146
*1199 FILLER_15_148
*1193 FILLER_15_2
*1194 FILLER_15_30
*1195 FILLER_15_50
*1196 FILLER_15_67
*1205 FILLER_16_100
*1206 FILLER_16_111
*1207 FILLER_16_151
*1208 FILLER_16_155
*1200 FILLER_16_16
*1209 FILLER_16_168
*1210 FILLER_16_172
*1201 FILLER_16_37
*1202 FILLER_16_52
*1203 FILLER_16_63
*1204 FILLER_16_80
*1211 FILLER_17_0
*1216 FILLER_17_107
*1212 FILLER_17_12
*1213 FILLER_17_14
*1214 FILLER_17_76
*1215 FILLER_17_80
*1220 FILLER_18_104
*1221 FILLER_18_134
*1222 FILLER_18_141
*1223 FILLER_18_149
*1224 FILLER_18_154
*1225 FILLER_18_156
*1226 FILLER_18_169
*1217 FILLER_18_50
*1218 FILLER_18_85
*1219 FILLER_18_89
*1228 FILLER_19_119
*1229 FILLER_19_148
*1230 FILLER_19_162
*1231 FILLER_19_171
*1227 FILLER_19_80
*1060 FILLER_1_0
*1061 FILLER_1_11
*1067 FILLER_1_117
*1068 FILLER_1_119
*1069 FILLER_1_121
*1070 FILLER_1_129
*1071 FILLER_1_134
*1072 FILLER_1_138
*1073 FILLER_1_147
*1062 FILLER_1_16
*1063 FILLER_1_20
*1064 FILLER_1_30
*1065 FILLER_1_54
*1066 FILLER_1_58
*1234 FILLER_20_102
*1235 FILLER_20_120
*1236 FILLER_20_141
*1237 FILLER_20_151
*1232 FILLER_20_31
*1233 FILLER_20_33
*1238 FILLER_21_0
*1241 FILLER_21_103
*1242 FILLER_21_112
*1243 FILLER_21_134
*1239 FILLER_21_18
*1240 FILLER_21_22
*1244 FILLER_22_0
*1249 FILLER_22_118
*1250 FILLER_22_125
*1251 FILLER_22_127
*1252 FILLER_22_147
*1253 FILLER_22_149
*1254 FILLER_22_167
*1255 FILLER_22_171
*1245 FILLER_22_67
*1246 FILLER_22_75
*1247 FILLER_22_91
*1248 FILLER_22_95
*1261 FILLER_23_103
*1262 FILLER_23_146
*1263 FILLER_23_148
*1256 FILLER_23_24
*1257 FILLER_23_37
*1258 FILLER_23_41
*1259 FILLER_23_43
*1260 FILLER_23_61
*1264 FILLER_24_0
*1269 FILLER_24_126
*1270 FILLER_24_134
*1271 FILLER_24_138
*1272 FILLER_24_169
*1265 FILLER_24_20
*1266 FILLER_24_47
*1267 FILLER_24_68
*1268 FILLER_24_91
*1276 FILLER_25_121
*1277 FILLER_25_158
*1278 FILLER_25_160
*1279 FILLER_25_171
*1273 FILLER_25_19
*1274 FILLER_25_23
*1275 FILLER_25_85
*1289 FILLER_26_103
*1290 FILLER_26_108
*1291 FILLER_26_110
*1292 FILLER_26_120
*1293 FILLER_26_133
*1294 FILLER_26_151
*1295 FILLER_26_164
*1296 FILLER_26_172
*1280 FILLER_26_31
*1281 FILLER_26_47
*1282 FILLER_26_56
*1283 FILLER_26_58
*1284 FILLER_26_77
*1285 FILLER_26_83
*1286 FILLER_26_87
*1287 FILLER_26_89
*1288 FILLER_26_91
*1297 FILLER_27_12
*1306 FILLER_27_145
*1307 FILLER_27_149
*1308 FILLER_27_151
*1309 FILLER_27_164
*1310 FILLER_27_172
*1298 FILLER_27_29
*1299 FILLER_27_47
*1300 FILLER_27_61
*1301 FILLER_27_71
*1302 FILLER_27_79
*1303 FILLER_27_81
*1304 FILLER_27_91
*1305 FILLER_27_95
*1075 FILLER_2_10
*1083 FILLER_2_144
*1084 FILLER_2_148
*1085 FILLER_2_151
*1086 FILLER_2_164
*1087 FILLER_2_172
*1076 FILLER_2_23
*1077 FILLER_2_28
*1078 FILLER_2_43
*1079 FILLER_2_50
*1080 FILLER_2_76
*1074 FILLER_2_8
*1081 FILLER_2_83
*1082 FILLER_2_95
*1093 FILLER_3_104
*1094 FILLER_3_121
*1095 FILLER_3_131
*1096 FILLER_3_133
*1097 FILLER_3_156
*1098 FILLER_3_160
*1099 FILLER_3_169
*1088 FILLER_3_59
*1089 FILLER_3_74
*1090 FILLER_3_78
*1091 FILLER_3_91
*1092 FILLER_3_95
*1105 FILLER_4_117
*1106 FILLER_4_132
*1107 FILLER_4_136
*1108 FILLER_4_171
*1100 FILLER_4_24
*1101 FILLER_4_28
*1102 FILLER_4_65
*1103 FILLER_4_67
*1104 FILLER_4_77
*1109 FILLER_5_0
*1112 FILLER_5_118
*1113 FILLER_5_130
*1114 FILLER_5_139
*1115 FILLER_5_141
*1116 FILLER_5_172
*1110 FILLER_5_4
*1111 FILLER_5_86
*1117 FILLER_6_0
*1123 FILLER_6_136
*1119 FILLER_6_14
*1118 FILLER_6_2
*1120 FILLER_6_23
*1121 FILLER_6_62
*1122 FILLER_6_89
*1124 FILLER_7_0
*1126 FILLER_7_119
*1125 FILLER_7_12
*1127 FILLER_7_134
*1128 FILLER_7_170
*1129 FILLER_7_172
*1130 FILLER_8_0
*1133 FILLER_8_126
*1134 FILLER_8_128
*1135 FILLER_8_161
*1136 FILLER_8_169
*1131 FILLER_8_91
*1132 FILLER_8_95
*1147 FILLER_9_103
*1137 FILLER_9_11
*1148 FILLER_9_157
*1149 FILLER_9_169
*1138 FILLER_9_22
*1139 FILLER_9_38
*1140 FILLER_9_42
*1141 FILLER_9_61
*1142 FILLER_9_65
*1143 FILLER_9_72
*1144 FILLER_9_84
*1145 FILLER_9_88
*1146 FILLER_9_95
*771 TAP_TAPCELL_ROW_0_0
*772 TAP_TAPCELL_ROW_0_1
*773 TAP_TAPCELL_ROW_0_2
*774 TAP_TAPCELL_ROW_0_3
*775 TAP_TAPCELL_ROW_0_4
*798 TAP_TAPCELL_ROW_10_27
*799 TAP_TAPCELL_ROW_10_28
*800 TAP_TAPCELL_ROW_10_29
*801 TAP_TAPCELL_ROW_11_30
*802 TAP_TAPCELL_ROW_11_31
*803 TAP_TAPCELL_ROW_12_32
*804 TAP_TAPCELL_ROW_12_33
*805 TAP_TAPCELL_ROW_12_34
*806 TAP_TAPCELL_ROW_13_35
*807 TAP_TAPCELL_ROW_13_36
*808 TAP_TAPCELL_ROW_14_37
*809 TAP_TAPCELL_ROW_14_38
*810 TAP_TAPCELL_ROW_14_39
*811 TAP_TAPCELL_ROW_15_40
*812 TAP_TAPCELL_ROW_15_41
*813 TAP_TAPCELL_ROW_16_42
*814 TAP_TAPCELL_ROW_16_43
*815 TAP_TAPCELL_ROW_16_44
*816 TAP_TAPCELL_ROW_17_45
*817 TAP_TAPCELL_ROW_17_46
*818 TAP_TAPCELL_ROW_18_47
*819 TAP_TAPCELL_ROW_18_48
*820 TAP_TAPCELL_ROW_18_49
*821 TAP_TAPCELL_ROW_19_50
*822 TAP_TAPCELL_ROW_19_51
*776 TAP_TAPCELL_ROW_1_5
*777 TAP_TAPCELL_ROW_1_6
*823 TAP_TAPCELL_ROW_20_52
*824 TAP_TAPCELL_ROW_20_53
*825 TAP_TAPCELL_ROW_20_54
*826 TAP_TAPCELL_ROW_21_55
*827 TAP_TAPCELL_ROW_21_56
*828 TAP_TAPCELL_ROW_22_57
*829 TAP_TAPCELL_ROW_22_58
*830 TAP_TAPCELL_ROW_22_59
*831 TAP_TAPCELL_ROW_23_60
*832 TAP_TAPCELL_ROW_23_61
*833 TAP_TAPCELL_ROW_24_62
*834 TAP_TAPCELL_ROW_24_63
*835 TAP_TAPCELL_ROW_24_64
*836 TAP_TAPCELL_ROW_25_65
*837 TAP_TAPCELL_ROW_25_66
*838 TAP_TAPCELL_ROW_26_67
*839 TAP_TAPCELL_ROW_26_68
*840 TAP_TAPCELL_ROW_26_69
*841 TAP_TAPCELL_ROW_27_70
*842 TAP_TAPCELL_ROW_27_71
*843 TAP_TAPCELL_ROW_27_72
*844 TAP_TAPCELL_ROW_27_73
*845 TAP_TAPCELL_ROW_27_74
*778 TAP_TAPCELL_ROW_2_7
*779 TAP_TAPCELL_ROW_2_8
*780 TAP_TAPCELL_ROW_2_9
*781 TAP_TAPCELL_ROW_3_10
*782 TAP_TAPCELL_ROW_3_11
*783 TAP_TAPCELL_ROW_4_12
*784 TAP_TAPCELL_ROW_4_13
*785 TAP_TAPCELL_ROW_4_14
*786 TAP_TAPCELL_ROW_5_15
*787 TAP_TAPCELL_ROW_5_16
*788 TAP_TAPCELL_ROW_6_17
*789 TAP_TAPCELL_ROW_6_18
*790 TAP_TAPCELL_ROW_6_19
*791 TAP_TAPCELL_ROW_7_20
*792 TAP_TAPCELL_ROW_7_21
*793 TAP_TAPCELL_ROW_8_22
*794 TAP_TAPCELL_ROW_8_23
*795 TAP_TAPCELL_ROW_8_24
*796 TAP_TAPCELL_ROW_9_25
*797 TAP_TAPCELL_ROW_9_26
*606 _119_/_128_
*605 _119_/_129_
*604 _119_/_130_
*603 _119_/_131_
*602 _119_/_132_
*601 _119_/_133_
*600 _119_/_134_
*599 _119_/_135_
*598 _119_/_136_
*597 _119_/_137_
*596 _119_/_138_
*595 _119_/_139_
*594 _119_/_140_
*593 _119_/_141_
*592 _119_/_142_
*591 _119_/_143_
*590 _119_/_144_
*589 _119_/_145_
*588 _119_/_146_
*587 _119_/_147_
*586 _119_/_148_
*585 _119_/_149_
*584 _119_/_150_
*583 _119_/_151_
*582 _119_/_152_
*581 _119_/_153_
*580 _119_/_154_
*579 _119_/_155_
*578 _119_/_156_
*577 _119_/_157_
*576 _119_/_158_
*575 _119_/_159_
*574 _119_/_160_
*573 _119_/_161_
*572 _119_/_162_
*571 _119_/_163_
*570 _119_/_164_
*569 _119_/_165_
*568 _119_/_166_
*567 _119_/_167_
*566 _119_/_168_
*565 _119_/_169_
*564 _119_/_170_
*563 _119_/_171_
*562 _119_/_172_
*561 _119_/_173_
*560 _119_/_174_
*559 _119_/_175_
*558 _119_/_176_
*557 _119_/_177_
*556 _119_/_178_
*555 _119_/_179_
*554 _119_/_180_
*553 _119_/_181_
*552 _119_/_182_
*551 _119_/_183_
*550 _119_/_184_
*549 _119_/_185_
*548 _119_/_186_
*547 _119_/_187_
*546 _119_/_188_
*545 _119_/_189_
*544 _119_/_190_
*543 _119_/_191_
*542 _119_/_192_
*541 _119_/_193_
*540 _119_/_194_
*539 _119_/_195_
*538 _119_/_196_
*537 _119_/_197_
*536 _119_/_198_
*535 _119_/_199_
*534 _119_/_200_
*533 _119_/_201_
*532 _119_/_202_
*531 _119_/_203_
*530 _119_/_204_
*529 _119_/_205_
*528 _119_/_206_
*527 _119_/_207_
*526 _119_/_208_
*525 _119_/_209_
*524 _119_/_210_
*523 _119_/_211_
*522 _119_/_212_
*521 _119_/_213_
*520 _119_/_214_
*519 _119_/_215_
*518 _119_/_216_
*517 _119_/_217_
*516 _119_/_218_
*515 _119_/_219_
*514 _119_/_220_
*513 _119_/_221_
*512 _119_/_222_
*511 _119_/_223_
*510 _119_/_224_
*509 _119_/_225_
*508 _119_/_226_
*507 _119_/_227_
*506 _119_/_228_
*505 _119_/_229_
*607 _119_/_230_
*729 _119_/_231_
*730 _119_/_232_
*731 _119_/_233_
*732 _119_/_234_
*733 _119_/_235_
*734 _119_/_236_
*735 _119_/_237_
*736 _119_/_238_
*737 _119_/_239_
*738 _119_/_240_
*739 _119_/_241_
*740 _119_/_242_
*741 _119_/_243_
*742 _119_/_244_
*743 _119_/_245_
*744 _119_/_246_
*745 _119_/_247_
*746 _119_/_248_
*747 _119_/_249_
*748 _119_/_250_
*749 _119_/_251_
*750 _119_/_252_
*751 _119_/_253_
*752 _119_/_254_
*753 _119_/_255_
*754 _119_/_256_
*755 _119_/_257_
*756 _119_/_258_
*757 _119_/_259_
*758 _119_/_260_
*759 _119_/_261_
*760 _119_/_262_
*761 _119_/_263_
*762 _119_/_264_
*763 _119_/_265_
*764 _119_/_266_
*765 _119_/_267_
*766 _119_/_268_
*767 _119_/_269_
*768 _119_/_270_
*769 _119_/_271_
*770 _119_/_272_
*903 _119_/place141
*905 _119_/place142
*906 _119_/place143
*907 _119_/place145
*909 _119_/place148
*981 _119_/place150
*911 _119_/place151
*912 _119_/place152
*913 _119_/place153
*914 _119_/place154
*915 _119_/place155
*916 _119_/place156
*917 _119_/place157
*918 _119_/place158
*982 _119_/place159
*919 _119_/place160
*920 _119_/place161
*921 _119_/place162
*922 _119_/place163
*925 _119_/place164
*924 _119_/place165
*929 _119_/place167
*927 _119_/place168
*930 _119_/place169
*936 _119_/place176
*934 _119_/place177
*938 _119_/place178
*937 _119_/place179
*932 _119_/place180
*940 _119_/place182
*942 _119_/place183
*943 _119_/place184
*941 _119_/place185
*985 _119_/place206
*995 _119_/rebuffer221
*997 _119_/rebuffer223
*999 _119_/rebuffer225
*1000 _119_/rebuffer226
*1004 _119_/rebuffer230
*1005 _119_/rebuffer231
*1006 _119_/rebuffer232
*1007 _119_/rebuffer233
*1008 _119_/rebuffer234
*1009 _119_/rebuffer235
*1011 _119_/rebuffer237
*1014 _119_/rebuffer240
*928 _119_/rebuffer243
*1017 _119_/rebuffer244
*908 _119_/rebuffer252
*900 _119_/rebuffer255
*1020 _119_/rebuffer260
*1021 _119_/rebuffer269
*1024 _119_/rebuffer272
*979 _119_/rebuffer276
*1037 _119_/rebuffer312
*1038 _119_/rebuffer313
*1039 _119_/rebuffer315
*902 _119_/rebuffer316
*1001 _119_/rebuffer332
*1040 _119_/rebuffer335
*978 _119_/rebuffer336
*1041 _119_/rebuffer339
*1042 _119_/rebuffer340
*1043 _119_/rebuffer341
*1044 _119_/rebuffer342
*1045 _119_/rebuffer343
*1046 _119_/rebuffer344
*1019 _119_/rebuffer347
*1048 _119_/rebuffer364
*727 _119__1
*728 _119__2
*608 _121_
*609 _122_
*610 _123_
*611 _124_
*612 _125_
*613 _126_
*614 _127_
*615 _128_
*616 _129_
*617 _130_
*618 _131_
*619 _132_
*620 _133_
*621 _134_
*622 _135_
*623 _136_
*624 _137_
*625 _138_
*626 _139_
*627 _140_
*628 _141_
*629 _142_
*630 _143_
*631 _144_
*632 _145_
*633 _146_
*634 _147_
*635 _148_
*636 _149_
*637 _150_
*638 _151_
*639 _152_
*640 _153_
*641 _154_
*642 _155_
*643 _156_
*644 _157_
*645 _158_
*646 _159_
*647 _160_
*648 _161_
*649 _162_
*650 _163_
*651 _164_
*652 _165_
*653 _166_
*654 _167_
*655 _168_
*656 _169_
*657 _170_
*658 _171_
*659 _172_
*660 _173_
*661 _174_
*662 _175_
*663 _176_
*664 _177_
*665 _178_
*666 _179_
*667 _180_
*668 _181_
*669 _182_
*670 _183_
*671 _184_
*672 _185_
*673 _186_
*674 _187_
*675 _188_
*676 _189_
*677 _190_
*678 _191_
*679 _192_
*680 _193_
*681 _194_
*682 _195_
*683 _196_
*684 _197_
*685 _198_
*686 _199_
*687 _200_
*688 _201_
*689 _202_
*690 _203_
*691 _204_
*975 clkbuf_0_clk
*972 clkbuf_2_0__f_clk
*989 clkbuf_2_1__f_clk
*990 clkbuf_2_2__f_clk
*991 clkbuf_2_3__f_clk
*992 clkload0
*993 clkload1
*994 clkload2
*692 ctrl\.state\.out\[0\]\$_DFF_P_
*693 ctrl\.state\.out\[1\]\$_DFF_P_
*694 ctrl\.state\.out\[2\]\$_DFF_P_
*695 dpath\.a_reg\.out\[0\]\$_DFFE_PP_
*696 dpath\.a_reg\.out\[10\]\$_DFFE_PP_
*697 dpath\.a_reg\.out\[11\]\$_DFFE_PP_
*698 dpath\.a_reg\.out\[12\]\$_DFFE_PP_
*699 dpath\.a_reg\.out\[13\]\$_DFFE_PP_
*700 dpath\.a_reg\.out\[14\]\$_DFFE_PP_
*701 dpath\.a_reg\.out\[15\]\$_DFFE_PP_
*702 dpath\.a_reg\.out\[1\]\$_DFFE_PP_
*703 dpath\.a_reg\.out\[2\]\$_DFFE_PP_
*704 dpath\.a_reg\.out\[3\]\$_DFFE_PP_
*705 dpath\.a_reg\.out\[4\]\$_DFFE_PP_
*706 dpath\.a_reg\.out\[5\]\$_DFFE_PP_
*707 dpath\.a_reg\.out\[6\]\$_DFFE_PP_
*708 dpath\.a_reg\.out\[7\]\$_DFFE_PP_
*709 dpath\.a_reg\.out\[8\]\$_DFFE_PP_
*710 dpath\.a_reg\.out\[9\]\$_DFFE_PP_
*711 dpath\.b_reg\.out\[0\]\$_DFFE_PP_
*712 dpath\.b_reg\.out\[10\]\$_DFFE_PP_
*713 dpath\.b_reg\.out\[11\]\$_DFFE_PP_
*714 dpath\.b_reg\.out\[12\]\$_DFFE_PP_
*715 dpath\.b_reg\.out\[13\]\$_DFFE_PP_
*716 dpath\.b_reg\.out\[14\]\$_DFFE_PP_
*717 dpath\.b_reg\.out\[15\]\$_DFFE_PP_
*718 dpath\.b_reg\.out\[1\]\$_DFFE_PP_
*719 dpath\.b_reg\.out\[2\]\$_DFFE_PP_
*720 dpath\.b_reg\.out\[3\]\$_DFFE_PP_
*721 dpath\.b_reg\.out\[4\]\$_DFFE_PP_
*722 dpath\.b_reg\.out\[5\]\$_DFFE_PP_
*723 dpath\.b_reg\.out\[6\]\$_DFFE_PP_
*724 dpath\.b_reg\.out\[7\]\$_DFFE_PP_
*725 dpath\.b_reg\.out\[8\]\$_DFFE_PP_
*726 dpath\.b_reg\.out\[9\]\$_DFFE_PP_
*853 input10
*854 input11
*855 input12
*856 input13
*857 input14
*858 input15
*859 input16
*860 input17
*861 input18
*862 input19
*863 input20
*864 input21
*865 input22
*866 input23
*867 input24
*868 input25
*869 input26
*870 input27
*871 input28
*872 input29
*846 input3
*873 input30
*874 input31
*875 input32
*876 input33
*877 input34
*878 input35
*879 input36
*880 input37
*847 input4
*848 input5
*849 input6
*850 input7
*851 input8
*852 input9
*881 output38
*882 output39
*883 output40
*884 output41
*885 output42
*886 output43
*887 output44
*888 output45
*889 output46
*890 output47
*891 output48
*892 output49
*893 output50
*894 output51
*895 output52
*896 output53
*897 output54
*898 output55
*976 place133
*977 place134
*980 place139
*904 place140
*910 place149
*931 place170
*926 place171
*923 place172
*983 place173
*933 place174
*935 place175
*984 place186
*944 place187
*945 place188
*946 place189
*947 place190
*948 place191
*949 place192
*950 place193
*952 place194
*953 place195
*954 place196
*955 place197
*956 place198
*957 place199
*951 place200
*958 place201
*959 place202
*960 place203
*961 place204
*963 place207
*964 place208
*965 place209
*966 place210
*967 place211
*968 place212
*969 place213
*970 place214
*986 place215
*987 place217
*988 place218
*973 place219
*974 place220
*996 rebuffer222
*998 rebuffer224
*1002 rebuffer228
*1003 rebuffer229
*1010 rebuffer236
*1012 rebuffer238
*1013 rebuffer239
*1015 rebuffer241
*1016 rebuffer242
*1018 rebuffer245
*1022 rebuffer270
*1023 rebuffer271
*1025 rebuffer277
*1026 rebuffer280
*1027 rebuffer282
*1028 rebuffer284
*1029 rebuffer286
*1031 rebuffer288
*1034 rebuffer294
*1035 rebuffer296
*899 rebuffer333
*1047 rebuffer349
*939 rebuffer359
*901 rebuffer360
*1030 rebuffer361
*1036 rebuffer363
*1033 rebuffer379

*PORTS
clk I
req_msg[0] I
req_msg[10] I
req_msg[11] I
req_msg[12] I
req_msg[13] I
req_msg[14] I
req_msg[15] I
req_msg[16] I
req_msg[17] I
req_msg[18] I
req_msg[19] I
req_msg[1] I
req_msg[20] I
req_msg[21] I
req_msg[22] I
req_msg[23] I
req_msg[24] I
req_msg[25] I
req_msg[26] I
req_msg[27] I
req_msg[28] I
req_msg[29] I
req_msg[2] I
req_msg[30] I
req_msg[31] I
req_msg[3] I
req_msg[4] I
req_msg[5] I
req_msg[6] I
req_msg[7] I
req_msg[8] I
req_msg[9] I
req_rdy O
req_val I
reset I
resp_msg[0] O
resp_msg[10] O
resp_msg[11] O
resp_msg[12] O
resp_msg[13] O
resp_msg[14] O
resp_msg[15] O
resp_msg[1] O
resp_msg[2] O
resp_msg[3] O
resp_msg[4] O
resp_msg[5] O
resp_msg[6] O
resp_msg[7] O
resp_msg[8] O
resp_msg[9] O
resp_rdy I
resp_val O

*D_NET *2 0.00174847
*CONN
*I *968:A I *D sky130_fd_sc_hd__buf_4
*I *550:A I *D sky130_fd_sc_hd__xnor2_2
*I *701:Q O *D sky130_fd_sc_hd__edfxtp_1
*CAP
1 *968:A 0
2 *550:A 0.000125497
3 *701:Q 0.000284606
4 *2:14 0.000410103
5 *550:A *546:A 6.08467e-05
6 *550:A *546:B 3.53886e-05
7 *550:A *550:B 0.000111802
8 *550:A *246:6 0.000297132
9 *2:14 *656:S 3.34802e-05
10 *2:14 *689:A0 8.18789e-05
11 *2:14 *690:A 2.73799e-06
12 *2:14 *691:B1 9.57557e-06
13 *2:14 *870:A 1.35179e-05
14 *2:14 *360:8 0
15 *2:14 *427:8 3.31733e-05
16 *2:14 *478:28 0.00024873
*RES
1 *701:Q *2:14 26.5124 
2 *2:14 *550:A 13.8548 
3 *2:14 *968:A 9.24915 
*END

*D_NET *3 0.00337176
*CONN
*I *986:A I *D sky130_fd_sc_hd__buf_4
*I *612:A I *D sky130_fd_sc_hd__or2_4
*I *694:Q O *D sky130_fd_sc_hd__dfxtp_1
*CAP
1 *986:A 0.000149747
2 *612:A 0.000451481
3 *694:Q 0.000303524
4 *3:6 0.000904751
5 *612:A *612:B 6.55124e-05
6 *612:A *633:B 5.13763e-06
7 *612:A *665:S 0.000183381
8 *612:A *693:CLK 0.000246006
9 *612:A *694:D 0.000208319
10 *612:A *449:57 6.06764e-05
11 *612:A *449:66 0.000193478
12 *986:A *633:B 1.35525e-05
13 *986:A *707:DE 2.65831e-05
14 *986:A *94:18 0.000340143
15 *986:A *382:16 8.01716e-05
16 *986:A *447:10 6.92705e-05
17 *3:6 *633:B 9.13754e-06
18 *3:6 *694:D 1.41976e-05
19 *3:6 *153:12 4.66889e-05
*RES
1 *694:Q *3:6 13.8548 
2 *3:6 *612:A 31.2237 
3 *3:6 *986:A 24.9571 
*END

*D_NET *4 0.00170315
*CONN
*I *683:B1 I *D sky130_fd_sc_hd__a21oi_2
*I *608:A I *D sky130_fd_sc_hd__clkinv_1
*I *693:Q O *D sky130_fd_sc_hd__dfxtp_1
*CAP
1 *683:B1 0.00013607
2 *608:A 0
3 *693:Q 0.0003373
4 *4:10 0.00047337
5 *683:B1 *674:A 8.96342e-05
6 *683:B1 *973:A 6.27718e-05
7 *683:B1 *392:12 3.02018e-05
8 *4:10 *686:B_N 6.66272e-05
9 *4:10 *688:A 0.000110458
10 *4:10 *973:A 0.000244793
11 *4:10 *432:16 0.00015192
*RES
1 *693:Q *4:10 19.449 
2 *4:10 *608:A 9.24915 
3 *4:10 *683:B1 22.0503 
*END

*D_NET *5 0.00287378
*CONN
*I *954:A I *D sky130_fd_sc_hd__buf_4
*I *549:B I *D sky130_fd_sc_hd__xor2_2
*I *716:Q O *D sky130_fd_sc_hd__edfxtp_1
*CAP
1 *954:A 0
2 *549:B 7.59627e-05
3 *716:Q 0.00111387
4 *5:8 0.00118983
5 *549:B *257:10 0.000166836
6 *549:B *448:103 7.07672e-05
7 *5:8 *716:D 0.000132971
8 *5:8 *413:14 2.58757e-05
9 *5:8 *435:75 4.2394e-05
10 *5:8 *448:93 9.94284e-06
11 *5:8 *448:103 4.5332e-05
*RES
1 *716:Q *5:8 26.6227 
2 *5:8 *549:B 12.0778 
3 *5:8 *954:A 9.24915 
*END

*D_NET *6 0.00319377
*CONN
*I *545:A I *D sky130_fd_sc_hd__xor2_2
*I *955:A I *D sky130_fd_sc_hd__buf_4
*I *715:Q O *D sky130_fd_sc_hd__edfxtp_1
*CAP
1 *545:A 0
2 *955:A 0.000241739
3 *715:Q 0.000998454
4 *6:16 0.00124019
5 *955:A *544:B 6.79171e-05
6 *955:A *545:B 0.000113211
7 *955:A *276:6 2.6437e-05
8 *955:A *414:10 0.00011818
9 *6:16 *672:A1 0.00021182
10 *6:16 *715:D 9.90116e-05
11 *6:16 *715:DE 0
12 *6:16 *276:6 7.68039e-05
13 *6:16 *360:18 0
*RES
1 *715:Q *6:16 38.4619 
2 *6:16 *955:A 16.8207 
3 *6:16 *545:A 9.24915 
*END

*D_NET *7 0.00224345
*CONN
*I *542:A I *D sky130_fd_sc_hd__xor2_1
*I *956:A I *D sky130_fd_sc_hd__buf_4
*I *714:Q O *D sky130_fd_sc_hd__edfxtp_1
*CAP
1 *542:A 0.000159253
2 *956:A 0.000149951
3 *714:Q 0.000531961
4 *7:10 0.000841165
5 *542:A *647:S 5.13671e-05
6 *542:A *280:10 8.62474e-06
7 *956:A *678:A 0.000107496
8 *956:A *678:D 0.00011899
9 *956:A *415:8 0.000107496
10 *7:10 *543:A 0
11 *7:10 *647:S 3.96026e-05
12 *7:10 *21:18 1.45089e-05
13 *7:10 *22:27 0
14 *7:10 *257:10 0
15 *7:10 *360:38 0.000113033
*RES
1 *714:Q *7:10 24.2013 
2 *7:10 *956:A 18.3548 
3 *7:10 *542:A 17.6574 
*END

*D_NET *8 0.000861585
*CONN
*I *957:A I *D sky130_fd_sc_hd__buf_4
*I *566:B I *D sky130_fd_sc_hd__xor2_2
*I *713:Q O *D sky130_fd_sc_hd__edfxtp_1
*CAP
1 *957:A 0
2 *566:B 6.89723e-05
3 *713:Q 8.19653e-05
4 *8:6 0.000150938
5 *566:B *670:A0 0.000163492
6 *566:B *931:A 0.000156648
7 *8:6 *259:196 0.00023957
*RES
1 *713:Q *8:6 11.9137 
2 *8:6 *566:B 12.0778 
3 *8:6 *957:A 9.24915 
*END

*D_NET *9 0.00389287
*CONN
*I *951:A I *D sky130_fd_sc_hd__buf_4
*I *563:A I *D sky130_fd_sc_hd__xor2_2
*I *712:Q O *D sky130_fd_sc_hd__edfxtp_1
*CAP
1 *951:A 3.60272e-05
2 *563:A 0.000188205
3 *712:Q 0.00110828
4 *9:10 0.00133251
5 *563:A *926:A 0.000402565
6 *563:A *171:12 1.9447e-05
7 *563:A *457:16 0.000146519
8 *9:10 *677:C 0.000207892
9 *9:10 *677:D 1.65872e-05
10 *9:10 *712:D 0.000128928
11 *9:10 *712:CLK 2.20457e-05
12 *9:10 *926:A 0.000283865
*RES
1 *712:Q *9:10 28.7447 
2 *9:10 *563:A 24.9627 
3 *9:10 *951:A 10.2378 
*END

*D_NET *10 0.00368688
*CONN
*I *984:A I *D sky130_fd_sc_hd__buf_4
*I *557:C I *D sky130_fd_sc_hd__xnor3_2
*I *726:Q O *D sky130_fd_sc_hd__edfxtp_1
*CAP
1 *984:A 3.40108e-05
2 *557:C 0.000329023
3 *726:Q 0.00116633
4 *10:8 0.00152936
5 *557:C *259:280 4.23874e-05
6 *557:C *259:290 0.000219242
7 *984:A *259:280 3.01683e-06
8 *10:8 *726:D 0.000203807
9 *10:8 *726:DE 1.88695e-05
10 *10:8 *259:280 6.11359e-06
11 *10:8 *443:8 6.12686e-06
12 *10:8 *450:56 0.000128596
*RES
1 *726:Q *10:8 27.4667 
2 *10:8 *557:C 18.171 
3 *10:8 *984:A 10.2378 
*END

*D_NET *11 0.00331138
*CONN
*I *944:A I *D sky130_fd_sc_hd__buf_4
*I *554:C I *D sky130_fd_sc_hd__xnor3_2
*I *725:Q O *D sky130_fd_sc_hd__edfxtp_1
*CAP
1 *944:A 4.36454e-05
2 *554:C 0.000319706
3 *725:Q 0.000570882
4 *11:10 0.000934234
5 *554:C *554:A 0.000587227
6 *554:C *725:DE 0
7 *554:C *403:52 2.54028e-05
8 *944:A *554:A 4.76794e-05
9 *944:A *960:A 0.000213449
10 *944:A *403:18 0.000112361
11 *944:A *450:44 6.27332e-05
12 *11:10 *554:A 2.86829e-05
13 *11:10 *26:14 0.000273935
14 *11:10 *392:207 9.14388e-05
*RES
1 *725:Q *11:10 25.3105 
2 *11:10 *554:C 24.3014 
3 *11:10 *944:A 16.691 
*END

*D_NET *12 0.000384893
*CONN
*I *945:A I *D sky130_fd_sc_hd__buf_4
*I *740:B I *D sky130_fd_sc_hd__xor2_2
*I *724:Q O *D sky130_fd_sc_hd__edfxtp_1
*CAP
1 *945:A 0
2 *740:B 0.000106983
3 *724:Q 4.5797e-05
4 *12:6 0.00015278
5 *740:B *708:CLK 7.93324e-05
*RES
1 *724:Q *12:6 10.2498 
2 *12:6 *740:B 12.0778 
3 *12:6 *945:A 9.24915 
*END

*D_NET *13 0.00155578
*CONN
*I *946:A I *D sky130_fd_sc_hd__buf_4
*I *602:B I *D sky130_fd_sc_hd__xor2_2
*I *723:Q O *D sky130_fd_sc_hd__edfxtp_1
*CAP
1 *946:A 0.000329482
2 *602:B 0.000414724
3 *723:Q 8.52423e-05
4 *602:B *598:A 0.000143645
5 *602:B *602:A 5.11335e-06
6 *602:B *259:126 3.00829e-05
7 *602:B *436:14 0.000385416
8 *946:A *610:A1 6.60052e-05
9 *946:A *610:A2 0
10 *946:A *632:A0 8.58309e-05
11 *946:A *632:S 1.02368e-05
12 *946:A *1016:A 0
13 *946:A *39:10 0
14 *946:A *109:20 0
*RES
1 *723:Q *602:B 14.0718 
2 *602:B *946:A 26.3964 
*END

*D_NET *14 0.00212185
*CONN
*I *1047:A I *D sky130_fd_sc_hd__buf_4
*I *598:B I *D sky130_fd_sc_hd__xor2_4
*I *722:Q O *D sky130_fd_sc_hd__edfxtp_1
*CAP
1 *1047:A 0
2 *598:B 0.000261117
3 *722:Q 0.000247886
4 *14:12 0.000509003
5 *598:B *594:B 6.3657e-05
6 *598:B *628:A1 0.000435929
7 *598:B *664:A0 9.20862e-05
8 *598:B *57:12 0.000111361
9 *598:B *503:20 0.000142062
10 *14:12 *594:B 3.38287e-05
11 *14:12 *947:A 0.000143467
12 *14:12 *28:18 5.27547e-06
13 *14:12 *56:16 3.31882e-05
14 *14:12 *109:20 4.29901e-05
*RES
1 *722:Q *14:12 23.5762 
2 *14:12 *598:B 20.3412 
3 *14:12 *1047:A 9.24915 
*END

*D_NET *15 0.0022439
*CONN
*I *589:A I *D sky130_fd_sc_hd__xnor3_2
*I *948:A I *D sky130_fd_sc_hd__buf_4
*I *721:Q O *D sky130_fd_sc_hd__edfxtp_1
*CAP
1 *589:A 0.000205123
2 *948:A 0.000246206
3 *721:Q 0.000163787
4 *15:8 0.000615116
5 *589:A *589:B 6.27782e-05
6 *589:A *589:C 0.000105196
7 *589:A *109:16 4.38171e-05
8 *948:A *892:A 5.68225e-06
9 *948:A *56:16 1.6989e-05
10 *948:A *407:12 0.000342373
11 *948:A *499:16 7.73683e-05
12 *15:8 *589:C 2.21837e-05
13 *15:8 *56:16 6.42705e-05
14 *15:8 *109:16 1.77588e-05
15 *15:8 *220:18 0.000255255
*RES
1 *721:Q *15:8 14.7108 
2 *15:8 *948:A 25.7876 
3 *15:8 *589:A 14.964 
*END

*D_NET *16 0.000705098
*CONN
*I *949:A I *D sky130_fd_sc_hd__buf_4
*I *584:B I *D sky130_fd_sc_hd__xnor3_2
*I *720:Q O *D sky130_fd_sc_hd__edfxtp_1
*CAP
1 *949:A 0
2 *584:B 0.000102909
3 *720:Q 0.000133539
4 *16:10 0.000236448
5 *584:B *259:73 3.3403e-05
6 *584:B *259:86 0.000162028
7 *584:B *447:44 0
8 *16:10 *892:A 0
9 *16:10 *259:86 3.67708e-05
10 *16:10 *447:44 0
*RES
1 *720:Q *16:10 16.8577 
2 *16:10 *584:B 17.2421 
3 *16:10 *949:A 13.7491 
*END

*D_NET *17 0.00254859
*CONN
*I *1002:A I *D sky130_fd_sc_hd__buf_4
*I *583:A I *D sky130_fd_sc_hd__xor2_2
*I *719:Q O *D sky130_fd_sc_hd__edfxtp_1
*CAP
1 *1002:A 0.000454841
2 *583:A 0.000210258
3 *719:Q 0
4 *17:4 0.000665099
5 *583:A resp_msg[2] 0.000214113
6 *583:A *583:B 0.000250843
7 *583:A *703:CLK 0.000235516
8 *583:A *382:90 9.90116e-05
9 *583:A *431:23 2.09495e-05
10 *583:A *431:50 6.08467e-05
11 *1002:A *580:B 0.000144531
12 *1002:A *855:A 5.69479e-06
13 *1002:A *966:A 4.6284e-05
14 *1002:A *1007:A 5.77383e-05
15 *1002:A *211:16 7.98425e-06
16 *1002:A *425:12 7.48797e-05
*RES
1 *719:Q *17:4 9.24915 
2 *17:4 *583:A 26.9304 
3 *17:4 *1002:A 26.9038 
*END

*D_NET *18 0.00414777
*CONN
*I *952:A I *D sky130_fd_sc_hd__buf_4
*I *572:C I *D sky130_fd_sc_hd__xor3_1
*I *718:Q O *D sky130_fd_sc_hd__edfxtp_1
*CAP
1 *952:A 0.000139634
2 *572:C 0.000591658
3 *718:Q 0.00034629
4 *18:12 0.00107758
5 *572:C *619:A2 6.27718e-05
6 *572:C *659:S 0.000191359
7 *572:C *661:S 0.000606237
8 *572:C *967:A 5.62864e-05
9 *572:C *34:6 7.08713e-05
10 *572:C *194:14 6.0497e-05
11 *952:A *577:A 1.02267e-05
12 *952:A *661:S 0.000503244
13 *952:A *426:14 9.0845e-05
14 *952:A *426:31 3.61024e-05
15 *18:12 *571:A2 0
16 *18:12 *576:A 5.65046e-05
17 *18:12 *259:60 2.59855e-05
18 *18:12 *259:73 7.56672e-05
19 *18:12 *391:18 0.000146006
*RES
1 *718:Q *18:12 27.5865 
2 *18:12 *572:C 37.054 
3 *18:12 *952:A 15.5427 
*END

*D_NET *19 0.000943701
*CONN
*I *576:B I *D sky130_fd_sc_hd__xnor2_2
*I *958:A I *D sky130_fd_sc_hd__buf_4
*I *711:Q O *D sky130_fd_sc_hd__edfxtp_1
*CAP
1 *576:B 8.59423e-05
2 *958:A 0.000181274
3 *711:Q 7.16907e-05
4 *19:8 0.000338907
5 *576:B *572:A 0
6 *576:B *576:A 3.28433e-06
7 *576:B *614:S 0
8 *576:B *967:A 6.65668e-05
9 *958:A *614:A0 1.32772e-05
10 *958:A *614:S 0
11 *958:A *679:A 3.40412e-05
12 *958:A *967:A 5.14448e-05
13 *958:A *199:10 6.64392e-05
14 *958:A *431:56 2.57847e-05
15 *19:8 *967:A 5.04829e-06
*RES
1 *711:Q *19:8 14.7498 
2 *19:8 *958:A 19.2113 
3 *19:8 *576:B 15.9964 
*END

*D_NET *20 0.00304226
*CONN
*I *673:A0 I *D sky130_fd_sc_hd__mux2_4
*I *547:B I *D sky130_fd_sc_hd__xnor2_2
*I *548:A I *D sky130_fd_sc_hd__nand2_1
*I *700:Q O *D sky130_fd_sc_hd__edfxtp_1
*CAP
1 *673:A0 0
2 *547:B 0.000246629
3 *548:A 0.000403717
4 *700:Q 0.000570791
5 *20:19 0.000312443
6 *20:6 0.00104032
7 *547:B *547:A 7.01935e-06
8 *547:B *715:DE 0.000188637
9 *547:B *258:10 9.45563e-05
10 *547:B *278:12 4.40966e-05
11 *548:A *548:B 2.30306e-05
12 *548:A *700:D 3.29631e-05
13 *548:A *700:DE 1.00937e-05
14 *20:19 *258:10 3.58185e-05
15 *20:19 *278:12 3.21432e-05
*RES
1 *700:Q *20:6 17.4597 
2 *20:6 *548:A 15.8079 
3 *20:6 *20:19 6.74725 
4 *20:19 *547:B 21.451 
5 *20:19 *673:A0 13.7491 
*END

*D_NET *21 0.00238018
*CONN
*I *672:A0 I *D sky130_fd_sc_hd__mux2_4
*I *543:A I *D sky130_fd_sc_hd__xnor2_2
*I *544:A I *D sky130_fd_sc_hd__nand2_1
*I *699:Q O *D sky130_fd_sc_hd__edfxtp_1
*CAP
1 *672:A0 0.000104676
2 *543:A 7.02166e-05
3 *544:A 0
4 *699:Q 0.00030645
5 *21:18 0.000355266
6 *21:12 0.000696175
7 *543:A *543:B 2.29838e-05
8 *543:A *545:B 0.000121019
9 *543:A *257:10 0.000122842
10 *672:A0 *360:38 0.000103022
11 *21:12 *448:93 0.00025389
12 *21:18 *545:B 1.07248e-05
13 *21:18 *360:38 0.000198406
14 *21:18 *448:93 0
15 *7:10 *543:A 0
16 *7:10 *21:18 1.45089e-05
*RES
1 *699:Q *21:12 25.2344 
2 *21:12 *21:18 12.5986 
3 *21:18 *544:A 13.7491 
4 *21:18 *543:A 16.8269 
5 *21:12 *672:A0 12.191 
*END

*D_NET *22 0.0046429
*CONN
*I *540:A I *D sky130_fd_sc_hd__xnor2_1
*I *541:A I *D sky130_fd_sc_hd__nand2_1
*I *671:A0 I *D sky130_fd_sc_hd__mux2_4
*I *698:Q O *D sky130_fd_sc_hd__edfxtp_1
*CAP
1 *540:A 0.000377026
2 *541:A 0
3 *671:A0 0.000179755
4 *698:Q 6.59931e-05
5 *22:27 0.00102559
6 *22:6 0.000894307
7 *540:A *564:B 1.51189e-05
8 *540:A *647:A0 0.00011815
9 *540:A *647:A1 0.000174205
10 *540:A *647:S 5.36567e-05
11 *540:A *678:A 4.19841e-05
12 *540:A *184:14 5.56461e-05
13 *540:A *185:10 2.65831e-05
14 *540:A *282:10 0
15 *540:A *283:14 0.000138211
16 *671:A0 *650:A0 3.40423e-05
17 *671:A0 *653:S 0.000460994
18 *671:A0 *670:S 0
19 *671:A0 *714:D 0.000149725
20 *671:A0 *360:38 0.000110597
21 *22:6 *448:56 2.09776e-05
22 *22:27 *647:S 0.000149996
23 *22:27 *678:A 0.00022431
24 *22:27 *714:D 2.74127e-05
25 *22:27 *714:DE 2.90638e-06
26 *22:27 *886:A 9.24241e-05
27 *22:27 *160:18 0.00016682
28 *22:27 *360:38 3.64685e-05
29 *7:10 *22:27 0
*RES
1 *698:Q *22:6 10.2498 
2 *22:6 *671:A0 25.8201 
3 *22:6 *22:27 18.9668 
4 *22:27 *541:A 13.7491 
5 *22:27 *540:A 25.7244 
*END

*D_NET *23 0.0030862
*CONN
*I *969:A I *D sky130_fd_sc_hd__buf_4
*I *564:A I *D sky130_fd_sc_hd__xnor2_2
*I *697:Q O *D sky130_fd_sc_hd__edfxtp_1
*CAP
1 *969:A 0.000375058
2 *564:A 3.88911e-05
3 *697:Q 0.000253449
4 *23:12 0.000667398
5 *564:A *565:B 0.000111722
6 *564:A *283:14 0.000160617
7 *969:A *565:A 3.32047e-06
8 *969:A *604:A3 0
9 *969:A *670:A0 0.000113374
10 *969:A *751:A 1.39717e-06
11 *969:A *756:B 0.000134287
12 *969:A *184:27 0.000217641
13 *969:A *184:40 2.43779e-05
14 *969:A *283:27 0.000351444
15 *969:A *344:20 9.92327e-05
16 *969:A *428:8 0.000153288
17 *23:12 *565:A 3.28433e-06
18 *23:12 *566:A 6.3657e-05
19 *23:12 *670:A0 0.000174175
20 *23:12 *76:22 0.000139587
*RES
1 *697:Q *23:12 21.7339 
2 *23:12 *564:A 15.5817 
3 *23:12 *969:A 27.2082 
*END

*D_NET *24 0.00424275
*CONN
*I *561:A I *D sky130_fd_sc_hd__xnor2_2
*I *970:A I *D sky130_fd_sc_hd__buf_4
*I *696:Q O *D sky130_fd_sc_hd__edfxtp_1
*CAP
1 *561:A 0.000224445
2 *970:A 0
3 *696:Q 0.000651661
4 *24:14 0.000876106
5 *561:A *561:B 0.000110458
6 *561:A *562:A 1.65872e-05
7 *561:A *746:B1 8.35465e-05
8 *561:A *938:A 0.000269033
9 *561:A *397:32 0.000958016
10 *24:14 *562:A 0.000107496
11 *24:14 *669:A0 6.08467e-05
12 *24:14 *717:DE 0.000258599
13 *24:14 *938:A 3.54295e-05
14 *24:14 *397:32 0.000212333
15 *24:14 *442:82 0.000188177
16 *24:14 *442:84 0.000190013
*RES
1 *696:Q *24:14 37.3257 
2 *24:14 *970:A 9.24915 
3 *24:14 *561:A 21.1128 
*END

*D_NET *25 0.00262327
*CONN
*I *959:A I *D sky130_fd_sc_hd__buf_4
*I *557:B I *D sky130_fd_sc_hd__xnor3_2
*I *710:Q O *D sky130_fd_sc_hd__edfxtp_1
*CAP
1 *959:A 0.000112279
2 *557:B 0.000357055
3 *710:Q 0.000557711
4 *25:12 0.00102705
5 *557:B *558:B 5.04829e-06
6 *557:B *559:B 0
7 *557:B *259:274 0
8 *557:B *392:213 0.000175581
9 *557:B *446:53 0.000109809
10 *959:A *558:A 9.9021e-05
11 *959:A *558:B 2.57986e-05
12 *959:A *174:10 6.33402e-05
13 *959:A *446:53 2.32625e-05
14 *25:12 *643:A2 6.73169e-05
*RES
1 *710:Q *25:12 27.319 
2 *25:12 *557:B 27.0417 
3 *25:12 *959:A 12.9385 
*END

*D_NET *26 0.00529548
*CONN
*I *554:A I *D sky130_fd_sc_hd__xnor3_2
*I *960:A I *D sky130_fd_sc_hd__buf_4
*I *709:Q O *D sky130_fd_sc_hd__edfxtp_1
*CAP
1 *554:A 0.000488787
2 *960:A 0.000176877
3 *709:Q 0.000661922
4 *26:14 0.00132759
5 *554:A *554:B 0.000107496
6 *554:A *392:213 0.000604095
7 *554:A *450:44 7.92757e-06
8 *554:A *466:33 0.00017052
9 *960:A *667:A1 0.000160942
10 *960:A *403:18 0.000267174
11 *26:14 *709:CLK 5.23996e-05
12 *26:14 *725:D 0.000118778
13 *26:14 *725:DE 0
14 *554:C *554:A 0.000587227
15 *944:A *554:A 4.76794e-05
16 *944:A *960:A 0.000213449
17 *11:10 *554:A 2.86829e-05
18 *11:10 *26:14 0.000273935
*RES
1 *709:Q *26:14 31.2373 
2 *26:14 *960:A 15.5427 
3 *26:14 *554:A 36.2095 
*END

*D_NET *27 0.00369779
*CONN
*I *592:A1 I *D sky130_fd_sc_hd__o211ai_1
*I *961:A I *D sky130_fd_sc_hd__buf_6
*I *760:A I *D sky130_fd_sc_hd__xnor2_2
*I *708:Q O *D sky130_fd_sc_hd__edfxtp_1
*CAP
1 *592:A1 0.000123086
2 *961:A 0
3 *760:A 0.000182864
4 *708:Q 0.000381924
5 *27:10 0.0003276
6 *27:8 0.000649747
7 *592:A1 *592:A2 0.000249355
8 *592:A1 *169:34 0
9 *760:A *507:A 0.000490067
10 *760:A *590:B1 0.000137071
11 *760:A *592:B1 2.54908e-05
12 *760:A *708:CLK 1.65872e-05
13 *760:A *731:B1 1.37531e-05
14 *760:A *760:B 0.000414735
15 *760:A *994:A 6.27782e-05
16 *760:A *225:16 7.39263e-05
17 *27:8 *477:10 0.000191397
18 *27:10 *592:A2 0.000139435
19 *27:10 *592:B1 8.92568e-06
20 *27:10 *708:CLK 0
21 *27:10 *225:16 0.000144167
22 *27:10 *420:10 6.48857e-05
*RES
1 *708:Q *27:8 19.1867 
2 *27:8 *27:10 5.56926 
3 *27:10 *760:A 23.3722 
4 *27:10 *961:A 13.7491 
5 *27:8 *592:A1 18.0727 
*END

*D_NET *28 0.0060739
*CONN
*I *1036:A I *D sky130_fd_sc_hd__buf_4
*I *985:A I *D sky130_fd_sc_hd__buf_4
*I *1048:A I *D sky130_fd_sc_hd__buf_4
*I *600:A I *D sky130_fd_sc_hd__xnor2_2
*I *707:Q O *D sky130_fd_sc_hd__edfxtp_1
*CAP
1 *1036:A 0
2 *985:A 0
3 *1048:A 6.94713e-05
4 *600:A 0
5 *707:Q 0.000236585
6 *28:24 0.000227666
7 *28:18 0.00188706
8 *28:10 0.00196545
9 *1048:A *508:A1 0.000459915
10 *1048:A *315:8 0.000464113
11 *28:10 *988:A 0
12 *28:10 *109:20 0
13 *28:10 *382:10 1.47085e-06
14 *28:10 *382:16 0
15 *28:10 *392:31 0.000216103
16 *28:10 *445:18 0
17 *28:10 *492:20 0
18 *28:18 *594:B 6.75453e-05
19 *28:18 *941:A 2.58757e-05
20 *28:18 *228:10 7.64637e-06
21 *28:18 *382:18 0
22 *28:18 *392:31 0.00031589
23 *28:18 *400:16 3.82176e-05
24 *28:18 *444:10 9.72261e-06
25 *28:18 *503:20 1.70164e-05
26 *28:24 *908:A 0
27 *28:24 *228:10 5.88838e-05
28 *28:24 *363:14 0
29 *14:12 *28:18 5.27547e-06
*RES
1 *707:Q *28:10 19.7645 
2 *28:10 *28:18 32.7169 
3 *28:18 *28:24 12.9083 
4 *28:24 *600:A 9.24915 
5 *28:24 *1048:A 14.4094 
6 *28:18 *985:A 9.24915 
7 *28:10 *1036:A 13.7491 
*END

*D_NET *29 0.000872014
*CONN
*I *963:A I *D sky130_fd_sc_hd__buf_6
*I *594:A I *D sky130_fd_sc_hd__xnor2_4
*I *706:Q O *D sky130_fd_sc_hd__edfxtp_1
*CAP
1 *963:A 3.07386e-05
2 *594:A 0.000254479
3 *706:Q 1.36837e-05
4 *29:6 0.000298902
5 *594:A *680:D 0
6 *594:A *943:A 6.39692e-05
7 *594:A *259:126 0
8 *594:A *422:14 5.39608e-05
9 *963:A *220:18 0.000106215
10 *963:A *422:14 7.34948e-06
11 *29:6 *220:18 4.27168e-05
*RES
1 *706:Q *29:6 9.69524 
2 *29:6 *594:A 25.0642 
3 *29:6 *963:A 10.5271 
*END

*D_NET *30 0.00372991
*CONN
*I *589:C I *D sky130_fd_sc_hd__xnor3_2
*I *964:A I *D sky130_fd_sc_hd__buf_4
*I *705:Q O *D sky130_fd_sc_hd__edfxtp_1
*CAP
1 *589:C 0.000462952
2 *964:A 0.000188416
3 *705:Q 0.000553721
4 *30:8 0.00120509
5 *589:C *623:A0 4.70104e-05
6 *589:C *626:A1 5.89129e-05
7 *589:C *892:A 0.000102567
8 *589:C *109:16 0.000303851
9 *589:C *259:97 8.07939e-05
10 *589:C *259:106 0.000135968
11 *589:C *259:126 1.53424e-05
12 *589:C *423:10 1.75625e-05
13 *964:A *585:B 2.1032e-05
14 *964:A *623:A0 0.000189817
15 *964:A *892:A 1.54809e-05
16 *964:A *423:10 7.17344e-05
17 *30:8 *259:86 2.42273e-05
18 *30:8 *408:6 9.14669e-05
19 *30:8 *408:29 1.65872e-05
20 *589:A *589:C 0.000105196
21 *15:8 *589:C 2.21837e-05
*RES
1 *705:Q *30:8 21.9597 
2 *30:8 *964:A 19.7337 
3 *30:8 *589:C 29.5193 
*END

*D_NET *31 0.00270873
*CONN
*I *584:C I *D sky130_fd_sc_hd__xnor3_2
*I *965:A I *D sky130_fd_sc_hd__buf_4
*I *704:Q O *D sky130_fd_sc_hd__edfxtp_1
*CAP
1 *584:C 0.000259194
2 *965:A 0.000557248
3 *704:Q 1.81468e-05
4 *31:6 0.000834589
5 *584:C *623:A0 0.000135787
6 *584:C *662:A0 1.04747e-05
7 *584:C *940:A 2.91598e-05
8 *584:C *424:18 0.000212883
9 *584:C *479:33 4.97549e-05
10 *584:C *479:44 3.67528e-06
11 *965:A resp_msg[4] 3.67622e-06
12 *965:A *165:22 0.000177064
13 *965:A *382:60 6.00736e-05
14 *965:A *436:39 0.000319017
15 *31:6 *165:22 3.79836e-05
*RES
1 *704:Q *31:6 9.69524 
2 *31:6 *965:A 29.9485 
3 *31:6 *584:C 25.8145 
*END

*D_NET *32 0.00250967
*CONN
*I *581:A I *D sky130_fd_sc_hd__xor3_1
*I *966:A I *D sky130_fd_sc_hd__buf_4
*I *703:Q O *D sky130_fd_sc_hd__edfxtp_1
*CAP
1 *581:A 0.000386167
2 *966:A 5.93719e-05
3 *703:Q 0.000272796
4 *32:10 0.000718335
5 *581:A *580:B 0.000375471
6 *581:A *581:C 0
7 *581:A *622:A1 5.64929e-05
8 *581:A *259:26 3.3403e-05
9 *581:A *377:20 8.2654e-05
10 *581:A *425:12 0
11 *966:A *855:A 4.56667e-05
12 *966:A *211:16 0.000213739
13 *966:A *425:12 0.000122378
14 *32:10 *580:B 8.62625e-06
15 *32:10 *622:A1 6.60052e-05
16 *32:10 *648:A 0
17 *32:10 *703:D 2.22788e-05
18 *32:10 *855:A 0
19 *32:10 *865:A 0
20 *1002:A *966:A 4.6284e-05
*RES
1 *703:Q *32:10 19.7645 
2 *32:10 *966:A 17.2456 
3 *32:10 *581:A 24.3014 
*END

*D_NET *33 0.00658001
*CONN
*I *980:A I *D sky130_fd_sc_hd__buf_12
*I *1022:A I *D sky130_fd_sc_hd__buf_4
*I *899:A I *D sky130_fd_sc_hd__buf_6
*I *1025:A I *D sky130_fd_sc_hd__buf_6
*I *529:X O *D sky130_fd_sc_hd__a21o_4
*CAP
1 *980:A 0.000325511
2 *1022:A 6.72901e-05
3 *899:A 0.000113623
4 *1025:A 0.000286187
5 *529:X 0
6 *33:32 0.00076821
7 *33:8 0.000565596
8 *33:6 0.000541194
9 *899:A *729:B 0
10 *899:A *322:18 6.08467e-05
11 *899:A *358:20 3.60575e-05
12 *980:A *738:A2 0.00032924
13 *980:A *764:A2 2.47663e-05
14 *980:A *223:12 0.000127164
15 *980:A *224:10 0.000177772
16 *980:A *266:14 0.000296789
17 *980:A *477:16 4.22809e-05
18 *980:A *491:46 0.000180292
19 *1022:A *218:24 1.88014e-05
20 *1022:A *322:18 5.8059e-05
21 *1022:A *473:18 0.000214369
22 *1022:A *478:18 6.08467e-05
23 *1025:A *512:B2 0.000363909
24 *1025:A *516:B 8.21325e-05
25 *1025:A *505:B 3.17794e-05
26 *1025:A *735:A1 2.57465e-06
27 *1025:A *758:B1 6.43967e-05
28 *1025:A *207:10 5.37077e-05
29 *1025:A *207:12 7.78924e-05
30 *1025:A *306:44 2.3301e-05
31 *1025:A *322:18 2.95757e-05
32 *33:8 *512:B1 1.2693e-05
33 *33:8 *512:B2 0.000161966
34 *33:8 *322:18 0.000379665
35 *33:8 *477:35 0
36 *33:32 *590:A1 0
37 *33:32 *590:A2 0.000179286
38 *33:32 *601:A 0
39 *33:32 *752:C 3.55968e-05
40 *33:32 *764:A2 3.81452e-05
41 *33:32 *322:18 0.000664591
42 *33:32 *373:16 6.19849e-05
43 *33:32 *491:46 2.19131e-05
*RES
1 *529:X *33:6 13.7491 
2 *33:6 *33:8 6.81502 
3 *33:8 *1025:A 23.3666 
4 *33:8 *899:A 16.7151 
5 *33:6 *33:32 13.0438 
6 *33:32 *1022:A 16.691 
7 *33:32 *980:A 27.2082 
*END

*D_NET *34 0.00239865
*CONN
*I *967:A I *D sky130_fd_sc_hd__buf_4
*I *572:A I *D sky130_fd_sc_hd__xor3_1
*I *702:Q O *D sky130_fd_sc_hd__edfxtp_1
*CAP
1 *967:A 0.0003134
2 *572:A 0.000267632
3 *702:Q 0.00020772
4 *34:6 0.000788751
5 *572:A *572:B 0.000316431
6 *572:A *614:S 9.5485e-05
7 *572:A *617:A0 0.00015901
8 *967:A *426:14 0
9 *572:C *967:A 5.62864e-05
10 *572:C *34:6 7.08713e-05
11 *576:B *572:A 0
12 *576:B *967:A 6.65668e-05
13 *958:A *967:A 5.14448e-05
14 *19:8 *967:A 5.04829e-06
*RES
1 *702:Q *34:6 12.4683 
2 *34:6 *572:A 26.6478 
3 *34:6 *967:A 24.1616 
*END

*D_NET *35 0.00164364
*CONN
*I *659:A0 I *D sky130_fd_sc_hd__mux2_4
*I *570:A I *D sky130_fd_sc_hd__clkinv_1
*I *695:Q O *D sky130_fd_sc_hd__edfxtp_1
*CAP
1 *659:A0 0.000111683
2 *570:A 0
3 *695:Q 0.000243138
4 *35:12 0.00035482
5 *659:A0 *719:DE 0.000155676
6 *659:A0 *431:56 0.000581012
7 *35:12 *614:A1 0
8 *35:12 *614:S 0.00019364
9 *35:12 *711:D 3.67528e-06
*RES
1 *695:Q *35:12 24.2645 
2 *35:12 *570:A 9.24915 
3 *35:12 *659:A0 16.0973 
*END

*D_NET *36 0.0033365
*CONN
*I *551:A I *D sky130_fd_sc_hd__xor2_2
*I *953:A I *D sky130_fd_sc_hd__buf_4
*I *717:Q O *D sky130_fd_sc_hd__edfxtp_1
*CAP
1 *551:A 0
2 *953:A 0.000385467
3 *717:Q 0.000368195
4 *36:10 0.000753662
5 *953:A *531:C1 8.36586e-06
6 *953:A *531:A1 0.000427528
7 *953:A *531:A2 2.29454e-05
8 *953:A *551:B 0.000264923
9 *953:A *717:CLK 0
10 *953:A *765:A2 2.02035e-05
11 *953:A *766:C1 7.12632e-06
12 *953:A *1039:A 2.26028e-05
13 *953:A *259:243 1.94615e-05
14 *953:A *259:253 2.79618e-05
15 *953:A *269:6 2.23519e-05
16 *953:A *392:230 0
17 *36:10 *531:A1 0.000157107
18 *36:10 *611:A1 0.000254261
19 *36:10 *852:A 0.000457582
20 *36:10 *269:6 0.000116754
*RES
1 *717:Q *36:10 23.1745 
2 *36:10 *953:A 30.3637 
3 *36:10 *551:A 9.24915 
*END

*D_NET *37 0.00160769
*CONN
*I *935:A I *D sky130_fd_sc_hd__buf_4
*I *674:A I *D sky130_fd_sc_hd__nor2_4
*I *608:Y O *D sky130_fd_sc_hd__clkinv_1
*CAP
1 *935:A 1.84782e-05
2 *674:A 0.000233628
3 *608:Y 0.000252106
4 *674:A *933:A 6.64392e-05
5 *674:A *973:A 6.08467e-05
6 *674:A *41:16 7.17461e-05
7 *674:A *103:16 0.000553213
8 *674:A *173:16 1.17054e-05
9 *674:A *392:12 9.29919e-05
10 *674:A *483:12 9.22246e-05
11 *935:A *973:A 6.46815e-05
12 *683:B1 *674:A 8.96342e-05
*RES
1 *608:Y *674:A 36.9018 
2 *608:Y *935:A 19.2217 
*END

*D_NET *38 0.00164905
*CONN
*I *684:B2 I *D sky130_fd_sc_hd__o22ai_1
*I *610:A1 I *D sky130_fd_sc_hd__o21bai_4
*I *609:Y O *D sky130_fd_sc_hd__clkinv_1
*CAP
1 *684:B2 0.000342995
2 *610:A1 0.000185918
3 *609:Y 0.000104374
4 *38:8 0.000633287
5 *610:A1 *632:S 2.36494e-05
6 *610:A1 *1010:A 4.10689e-05
7 *610:A1 *1016:A 0
8 *610:A1 *39:10 4.30982e-05
9 *684:B2 *632:S 8.62321e-06
10 *684:B2 *684:A2 1.03594e-05
11 *684:B2 *1010:A 2.25948e-05
12 *684:B2 *439:39 0
13 *684:B2 *445:18 0
14 *684:B2 *445:31 0
15 *38:8 *687:B1 0.000167076
16 *946:A *610:A1 6.60052e-05
*RES
1 *609:Y *38:8 15.5817 
2 *38:8 *610:A1 19.3184 
3 *38:8 *684:B2 21.3947 
*END

*D_NET *39 0.00130364
*CONN
*I *1010:A I *D sky130_fd_sc_hd__buf_12
*I *1003:A I *D sky130_fd_sc_hd__buf_12
*I *610:Y O *D sky130_fd_sc_hd__o21bai_4
*CAP
1 *1010:A 8.32427e-05
2 *1003:A 0
3 *610:Y 0.000199103
4 *39:10 0.000282345
5 *1010:A *439:39 0.000229879
6 *39:10 *680:D 5.61533e-05
7 *39:10 *363:14 0.000106947
8 *39:10 *439:39 5.41377e-05
9 *39:10 *449:14 0.00018507
10 *610:A1 *1010:A 4.10689e-05
11 *610:A1 *39:10 4.30982e-05
12 *684:B2 *1010:A 2.25948e-05
13 *946:A *39:10 0
*RES
1 *610:Y *39:10 21.8478 
2 *39:10 *1003:A 13.7491 
3 *39:10 *1010:A 17.6574 
*END

*D_NET *40 0.00138959
*CONN
*I *717:D I *D sky130_fd_sc_hd__edfxtp_1
*I *611:X O *D sky130_fd_sc_hd__mux2_4
*CAP
1 *717:D 0.000448375
2 *611:X 0.000448375
3 *717:D *611:A0 0.000107496
4 *717:D *689:A0 0.000161319
5 *717:D *717:DE 8.08533e-05
6 *717:D *442:86 0.000143175
*RES
1 *611:X *717:D 38.5401 
*END

*D_NET *41 0.00306663
*CONN
*I *933:A I *D sky130_fd_sc_hd__buf_12
*I *674:B I *D sky130_fd_sc_hd__nor2_4
*I *612:X O *D sky130_fd_sc_hd__or2_4
*CAP
1 *933:A 0.000361145
2 *674:B 0
3 *612:X 0.00046059
4 *41:16 0.000821735
5 *933:A *686:B_N 4.74657e-05
6 *933:A *173:16 0
7 *933:A *485:12 0
8 *41:16 *612:B 0.000109421
9 *41:16 *665:A0 0.000160135
10 *41:16 *665:S 0.000163478
11 *41:16 *693:CLK 2.58616e-05
12 *41:16 *694:D 0.000451723
13 *41:16 *103:16 0.000322227
14 *41:16 *173:16 4.65954e-06
15 *674:A *933:A 6.64392e-05
16 *674:A *41:16 7.17461e-05
*RES
1 *612:X *41:16 35.5537 
2 *41:16 *674:B 9.24915 
3 *41:16 *933:A 26.5204 
*END

*D_NET *42 0.00117768
*CONN
*I *983:A I *D sky130_fd_sc_hd__buf_4
*I *923:A I *D sky130_fd_sc_hd__buf_12
*I *613:Y O *D sky130_fd_sc_hd__nand2b_1
*CAP
1 *983:A 0.000120908
2 *923:A 0.000144298
3 *613:Y 9.15759e-05
4 *42:8 0.000356782
5 *923:A *666:S 5.46384e-06
6 *923:A *894:A 0
7 *983:A *687:A2 0.000160047
8 *983:A *446:49 0.000108083
9 *983:A *491:10 0.000125252
10 *42:8 *613:A_N 2.83365e-05
11 *42:8 *666:S 3.6928e-05
*RES
1 *613:Y *42:8 16.4116 
2 *42:8 *923:A 16.8269 
3 *42:8 *983:A 18.9094 
*END

*D_NET *43 0.000638881
*CONN
*I *616:A2 I *D sky130_fd_sc_hd__o21ai_1
*I *614:Y O *D sky130_fd_sc_hd__mux2i_1
*CAP
1 *616:A2 0.000195201
2 *614:Y 0.000195201
3 *616:A2 *614:A0 3.14978e-05
4 *616:A2 *616:B1 0.000122378
5 *616:A2 *382:90 9.46038e-05
*RES
1 *614:Y *616:A2 24.2131 
*END

*D_NET *44 0.000411421
*CONN
*I *616:B1 I *D sky130_fd_sc_hd__o21ai_1
*I *615:Y O *D sky130_fd_sc_hd__nand2_1
*CAP
1 *616:B1 6.84017e-05
2 *615:Y 6.84017e-05
3 *616:B1 *615:B 5.56461e-05
4 *616:B1 *382:77 2.41483e-05
5 *616:B1 *382:90 7.24449e-05
6 *616:A2 *616:B1 0.000122378
*RES
1 *615:Y *616:B1 21.9947 
*END

*D_NET *45 0.000671073
*CONN
*I *695:D I *D sky130_fd_sc_hd__edfxtp_1
*I *616:Y O *D sky130_fd_sc_hd__o21ai_1
*CAP
1 *695:D 0.000318304
2 *616:Y 0.000318304
3 *695:D *695:DE 3.44641e-05
4 *695:D *392:59 0
*RES
1 *616:Y *695:D 35.0437 
*END

*D_NET *46 0.00105121
*CONN
*I *619:A1 I *D sky130_fd_sc_hd__o21ai_1
*I *617:Y O *D sky130_fd_sc_hd__mux2i_1
*CAP
1 *619:A1 0.000313973
2 *617:Y 0.000313973
3 *619:A1 resp_msg[1] 0.000109427
4 *619:A1 *617:A0 6.46815e-05
5 *619:A1 *618:A 1.00766e-05
6 *619:A1 *619:B1 9.72646e-05
7 *619:A1 *889:A 0.000141816
*RES
1 *617:Y *619:A1 26.4556 
*END

*D_NET *47 0.000495212
*CONN
*I *619:B1 I *D sky130_fd_sc_hd__o21ai_1
*I *618:Y O *D sky130_fd_sc_hd__nand2_1
*CAP
1 *619:B1 8.0693e-05
2 *618:Y 8.0693e-05
3 *619:B1 *618:A 6.92705e-05
4 *619:B1 *889:A 0.000167291
5 *619:A1 *619:B1 9.72646e-05
*RES
1 *618:Y *619:B1 22.7663 
*END

*D_NET *48 0.000912489
*CONN
*I *702:D I *D sky130_fd_sc_hd__edfxtp_1
*I *619:Y O *D sky130_fd_sc_hd__o21ai_1
*CAP
1 *702:D 0.000197742
2 *619:Y 0.000197742
3 *702:D resp_msg[1] 1.03594e-05
4 *702:D *702:DE 3.42041e-05
5 *702:D *392:53 0.000334493
6 *702:D *431:91 0.000137949
*RES
1 *619:Y *702:D 35.0381 
*END

*D_NET *49 0.00187316
*CONN
*I *622:A1 I *D sky130_fd_sc_hd__o21ai_1
*I *620:Y O *D sky130_fd_sc_hd__mux2i_1
*CAP
1 *622:A1 0.000727301
2 *620:Y 0.000727301
3 *622:A1 *679:A 4.80635e-06
4 *622:A1 *703:CLK 0
5 *622:A1 *855:A 0
6 *622:A1 *211:16 4.70005e-05
7 *622:A1 *425:12 0
8 *622:A1 *452:10 0.000244252
9 *581:A *622:A1 5.64929e-05
10 *32:10 *622:A1 6.60052e-05
*RES
1 *620:Y *622:A1 41.5795 
*END

*D_NET *50 0.000387542
*CONN
*I *622:B1 I *D sky130_fd_sc_hd__o21ai_1
*I *621:Y O *D sky130_fd_sc_hd__nand2_1
*CAP
1 *622:B1 5.77176e-05
2 *621:Y 5.77176e-05
3 *622:B1 *621:A 5.46286e-05
4 *622:B1 *703:D 0.000167076
5 *622:B1 *211:16 7.34948e-06
6 *622:B1 *382:94 2.15184e-05
7 *622:B1 *382:107 2.15348e-05
*RES
1 *621:Y *622:B1 21.4401 
*END

*D_NET *51 0.00149306
*CONN
*I *703:D I *D sky130_fd_sc_hd__edfxtp_1
*I *622:Y O *D sky130_fd_sc_hd__o21ai_1
*CAP
1 *703:D 0.000452988
2 *622:Y 0.000452988
3 *703:D resp_msg[2] 4.15008e-05
4 *703:D *703:DE 3.44641e-05
5 *703:D *703:CLK 0.000138527
6 *703:D *855:A 0
7 *703:D *865:A 0
8 *703:D *382:94 0.00011818
9 *703:D *382:107 6.50586e-05
10 *622:B1 *703:D 0.000167076
11 *32:10 *703:D 2.22788e-05
*RES
1 *622:Y *703:D 41.1738 
*END

*D_NET *52 0.00143782
*CONN
*I *625:A2 I *D sky130_fd_sc_hd__o21ai_1
*I *623:Y O *D sky130_fd_sc_hd__mux2i_1
*CAP
1 *625:A2 0.000356051
2 *623:Y 0.000356051
3 *625:A2 *623:A0 0.000167076
4 *625:A2 *625:A1 0.000112367
5 *625:A2 *625:B1 0.00016195
6 *625:A2 *932:A 1.88422e-05
7 *625:A2 *146:14 5.00956e-05
8 *625:A2 *165:26 6.87335e-05
9 *625:A2 *391:18 1.03594e-05
10 *625:A2 *436:39 5.20092e-05
11 *625:A2 *479:33 8.42859e-05
*RES
1 *623:Y *625:A2 38.809 
*END

*D_NET *53 0.00119832
*CONN
*I *625:B1 I *D sky130_fd_sc_hd__o21ai_1
*I *624:Y O *D sky130_fd_sc_hd__nand2_1
*CAP
1 *625:B1 0.000211841
2 *624:Y 0.000211841
3 *625:B1 *625:A1 0.000287927
4 *625:B1 *932:A 1.9898e-05
5 *625:B1 *391:18 0.000304866
6 *625:A2 *625:B1 0.00016195
*RES
1 *624:Y *625:B1 25.901 
*END

*D_NET *54 0.0027143
*CONN
*I *704:D I *D sky130_fd_sc_hd__edfxtp_1
*I *625:Y O *D sky130_fd_sc_hd__o21ai_1
*CAP
1 *704:D 0.000905626
2 *625:Y 0.000905626
3 *704:D resp_msg[4] 8.21761e-06
4 *704:D *624:A 0.000160942
5 *704:D *625:A1 2.17699e-05
6 *704:D *704:CLK 0.000182755
7 *704:D *932:A 0.000447775
8 *704:D *382:34 8.15895e-05
*RES
1 *625:Y *704:D 35.3293 
*END

*D_NET *55 0.0013847
*CONN
*I *628:A2 I *D sky130_fd_sc_hd__o21ai_1
*I *626:Y O *D sky130_fd_sc_hd__mux2i_1
*CAP
1 *628:A2 0.000341442
2 *626:Y 0.000341442
3 *628:A2 *680:C 7.93392e-05
4 *628:A2 *947:A 0.000206557
5 *628:A2 *109:20 0.000336252
6 *628:A2 *259:126 7.48797e-05
7 *628:A2 *447:36 0
8 *628:A2 *503:20 4.7903e-06
*RES
1 *626:Y *628:A2 38.5037 
*END

*D_NET *56 0.00385935
*CONN
*I *628:B1 I *D sky130_fd_sc_hd__o21ai_1
*I *627:Y O *D sky130_fd_sc_hd__nand2_1
*CAP
1 *628:B1 0
2 *627:Y 0.00138531
3 *56:16 0.00138531
4 *56:16 *721:D 0.000131645
5 *56:16 *721:CLK 1.83992e-05
6 *56:16 *947:A 0.000155201
7 *56:16 *109:16 6.27782e-05
8 *56:16 *109:20 0.00058858
9 *56:16 *220:18 1.7666e-05
10 *948:A *56:16 1.6989e-05
11 *14:12 *56:16 3.31882e-05
12 *15:8 *56:16 6.42705e-05
*RES
1 *627:Y *56:16 46.7711 
2 *56:16 *628:B1 9.24915 
*END

*D_NET *57 0.00426693
*CONN
*I *705:D I *D sky130_fd_sc_hd__edfxtp_1
*I *628:Y O *D sky130_fd_sc_hd__o21ai_1
*CAP
1 *705:D 0.000258327
2 *628:Y 0.000946342
3 *57:12 0.00120467
4 *705:D *392:45 0.000167545
5 *705:D *392:51 7.18372e-05
6 *57:12 *628:A1 2.16888e-05
7 *57:12 *662:A0 0.00075724
8 *57:12 *721:D 0.000185159
9 *57:12 *392:31 3.74593e-05
10 *57:12 *392:45 9.81265e-05
11 *57:12 *449:90 0
12 *57:12 *449:96 0
13 *57:12 *479:44 0.000151026
14 *57:12 *503:20 0.000256151
15 *598:B *57:12 0.000111361
*RES
1 *628:Y *57:12 44.3458 
2 *57:12 *705:D 16.3505 
*END

*D_NET *58 0.000647091
*CONN
*I *631:A2 I *D sky130_fd_sc_hd__o21ai_1
*I *629:Y O *D sky130_fd_sc_hd__mux2i_1
*CAP
1 *631:A2 0.000167942
2 *629:Y 0.000167942
3 *631:A2 *631:A1 2.58616e-05
4 *631:A2 *706:D 1.00901e-05
5 *631:A2 *893:A 0.000275256
*RES
1 *629:Y *631:A2 23.1039 
*END

*D_NET *59 0.00120126
*CONN
*I *631:B1 I *D sky130_fd_sc_hd__o21ai_1
*I *630:Y O *D sky130_fd_sc_hd__nand2_1
*CAP
1 *631:B1 0.000397564
2 *630:Y 0.000397564
3 *631:B1 *630:A 0.000271058
4 *631:B1 *706:D 0.000135077
*RES
1 *630:Y *631:B1 37.5394 
*END

*D_NET *60 0.00165084
*CONN
*I *706:D I *D sky130_fd_sc_hd__edfxtp_1
*I *631:Y O *D sky130_fd_sc_hd__o21ai_1
*CAP
1 *706:D 0.000624576
2 *631:Y 0.000624576
3 *706:D resp_msg[5] 6.1096e-05
4 *706:D *630:A 0.00013978
5 *706:D *631:A1 9.57724e-06
6 *706:D *859:A 2.02035e-05
7 *706:D *893:A 2.58616e-05
8 *706:D *436:27 0
9 *631:A2 *706:D 1.00901e-05
10 *631:B1 *706:D 0.000135077
*RES
1 *631:Y *706:D 42.8227 
*END

*D_NET *61 0.00186999
*CONN
*I *634:A2 I *D sky130_fd_sc_hd__o21ai_1
*I *632:Y O *D sky130_fd_sc_hd__mux2i_1
*CAP
1 *634:A2 0.000308596
2 *632:Y 0.000308596
3 *634:A2 *610:B1_N 7.16754e-05
4 *634:A2 *634:A1 5.04829e-06
5 *634:A2 *634:B1 2.60765e-05
6 *634:A2 *109:20 0.000185065
7 *634:A2 *447:36 0
8 *634:A2 *449:14 0.000706263
9 *634:A2 *449:18 0.000160047
10 *634:A2 *492:20 9.86195e-05
*RES
1 *632:Y *634:A2 40.5883 
*END

*D_NET *62 0.00228644
*CONN
*I *634:B1 I *D sky130_fd_sc_hd__o21ai_1
*I *633:Y O *D sky130_fd_sc_hd__nand2_1
*CAP
1 *634:B1 0.000430496
2 *633:Y 0.000430496
3 *634:B1 *633:A 0.000266862
4 *634:B1 *634:A1 6.50586e-05
5 *634:B1 *664:A1 1.88563e-05
6 *634:B1 *664:S 6.50727e-05
7 *634:B1 *707:D 0.000423922
8 *634:B1 *707:DE 3.45653e-05
9 *634:B1 *722:D 1.1957e-05
10 *634:B1 *860:A 0.000150629
11 *634:B1 *149:12 0.000101555
12 *634:B1 *449:18 4.27084e-05
13 *634:B1 *449:44 1.41761e-05
14 *634:B1 *449:57 0.000204013
15 *634:A2 *634:B1 2.60765e-05
*RES
1 *633:Y *634:B1 44.8962 
*END

*D_NET *63 0.00219525
*CONN
*I *707:D I *D sky130_fd_sc_hd__edfxtp_1
*I *634:Y O *D sky130_fd_sc_hd__o21ai_1
*CAP
1 *707:D 0.000546222
2 *634:Y 0.000546222
3 *707:D *664:S 2.82537e-05
4 *707:D *707:DE 3.39728e-05
5 *707:D *707:CLK 6.37652e-06
6 *707:D *94:18 0.000327431
7 *707:D *449:44 1.82679e-05
8 *707:D *492:20 0.000264583
9 *634:B1 *707:D 0.000423922
*RES
1 *634:Y *707:D 41.3075 
*END

*D_NET *64 0.000370347
*CONN
*I *637:A2 I *D sky130_fd_sc_hd__o21ai_1
*I *635:Y O *D sky130_fd_sc_hd__mux2i_1
*CAP
1 *637:A2 5.30488e-05
2 *635:Y 5.30488e-05
3 *637:A2 *635:A1 1.41976e-05
4 *637:A2 *446:49 0.000205681
5 *637:A2 *491:10 8.21761e-06
6 *637:A2 *491:18 3.61531e-05
*RES
1 *635:Y *637:A2 20.8855 
*END

*D_NET *65 0.000556776
*CONN
*I *637:B1 I *D sky130_fd_sc_hd__o21ai_1
*I *636:Y O *D sky130_fd_sc_hd__nand2_1
*CAP
1 *637:B1 0.000145061
2 *636:Y 0.000145061
3 *637:B1 *666:A0 0.000110458
4 *637:B1 *708:DE 0.000113295
5 *637:B1 *895:A 4.29019e-05
*RES
1 *636:Y *637:B1 31.0235 
*END

*D_NET *66 0.000493386
*CONN
*I *708:D I *D sky130_fd_sc_hd__edfxtp_1
*I *637:Y O *D sky130_fd_sc_hd__o21ai_1
*CAP
1 *708:D 0.000116975
2 *637:Y 0.000116975
3 *708:D *708:DE 6.98552e-05
4 *708:D *708:CLK 9.38699e-06
5 *708:D *169:34 0.000117421
6 *708:D *491:18 6.27718e-05
*RES
1 *637:Y *708:D 30.8427 
*END

*D_NET *67 0.000361488
*CONN
*I *640:A2 I *D sky130_fd_sc_hd__o21ai_1
*I *638:Y O *D sky130_fd_sc_hd__mux2i_1
*CAP
1 *640:A2 4.24565e-05
2 *638:Y 4.24565e-05
3 *640:A2 *638:S 0.000210531
4 *640:A2 *403:18 2.58757e-05
5 *640:A2 *439:12 4.01691e-05
*RES
1 *638:Y *640:A2 20.8855 
*END

*D_NET *68 0.000284803
*CONN
*I *640:B1 I *D sky130_fd_sc_hd__o21ai_1
*I *639:Y O *D sky130_fd_sc_hd__nand2_1
*CAP
1 *640:B1 0.000102416
2 *639:Y 0.000102416
3 *640:B1 *556:A 3.55179e-05
4 *640:B1 *709:D 2.18698e-05
5 *640:B1 *862:A 8.36586e-06
6 *640:B1 *439:12 5.1674e-06
7 *640:B1 *442:35 9.05084e-06
*RES
1 *639:Y *640:B1 30.1608 
*END

*D_NET *69 0.0010773
*CONN
*I *709:D I *D sky130_fd_sc_hd__edfxtp_1
*I *640:Y O *D sky130_fd_sc_hd__o21ai_1
*CAP
1 *709:D 0.000265248
2 *640:Y 0.000265248
3 *709:D *709:CLK 5.34249e-06
4 *709:D *862:A 0.000257792
5 *709:D *392:188 3.14375e-05
6 *709:D *439:12 0.000112361
7 *709:D *442:35 0.000118002
8 *640:B1 *709:D 2.18698e-05
*RES
1 *640:Y *709:D 35.1346 
*END

*D_NET *70 0.00238612
*CONN
*I *643:A2 I *D sky130_fd_sc_hd__o21ai_0
*I *641:Y O *D sky130_fd_sc_hd__mux2i_1
*CAP
1 *643:A2 0.00067709
2 *641:Y 0.00067709
3 *643:A2 *641:A1 2.58757e-05
4 *643:A2 *677:B 1.32043e-05
5 *643:A2 *710:D 0.0001195
6 *643:A2 *726:DE 0
7 *643:A2 *897:A 0.000437228
8 *643:A2 *171:12 5.04829e-06
9 *643:A2 *174:10 0
10 *643:A2 *443:10 4.34932e-05
11 *643:A2 *450:56 0.000320276
12 *643:A2 *450:68 0
13 *25:12 *643:A2 6.73169e-05
*RES
1 *641:Y *643:A2 47.6577 
*END

*D_NET *71 0.0002077
*CONN
*I *643:B1 I *D sky130_fd_sc_hd__o21ai_0
*I *642:Y O *D sky130_fd_sc_hd__nand2_1
*CAP
1 *643:B1 1.52332e-05
2 *642:Y 1.52332e-05
3 *643:B1 *642:A 0.000117376
4 *643:B1 *442:69 2.99287e-05
5 *643:B1 *442:82 2.99287e-05
*RES
1 *642:Y *643:B1 19.7763 
*END

*D_NET *72 0.000989687
*CONN
*I *710:D I *D sky130_fd_sc_hd__edfxtp_1
*I *643:Y O *D sky130_fd_sc_hd__o21ai_0
*CAP
1 *710:D 0.000283782
2 *643:Y 0.000283782
3 *710:D *710:DE 6.46815e-05
4 *710:D *442:60 1.41976e-05
5 *710:D *442:69 0.000145896
6 *710:D *450:56 7.78469e-05
7 *643:A2 *710:D 0.0001195
*RES
1 *643:Y *710:D 34.7973 
*END

*D_NET *73 0.00134759
*CONN
*I *646:A1 I *D sky130_fd_sc_hd__o21ai_1
*I *644:Y O *D sky130_fd_sc_hd__mux2i_1
*CAP
1 *646:A1 0.000356945
2 *644:Y 0.000356945
3 *646:A1 *534:A1 4.02755e-05
4 *646:A1 *753:A1 0
5 *646:A1 *938:A 6.08467e-05
6 *646:A1 *157:26 0
7 *646:A1 *259:253 0.000522221
8 *646:A1 *370:24 1.03594e-05
9 *646:A1 *392:213 0
*RES
1 *644:Y *646:A1 37.9435 
*END

*D_NET *74 0.00166739
*CONN
*I *646:B1 I *D sky130_fd_sc_hd__o21ai_1
*I *645:Y O *D sky130_fd_sc_hd__nand2_1
*CAP
1 *646:B1 0.000484301
2 *645:Y 0.000484301
3 *646:B1 *534:A2 0.000126058
4 *646:B1 *696:D 0.000216088
5 *646:B1 *717:CLK 0
6 *646:B1 *747:A2 4.82001e-06
7 *646:B1 *883:A 0.000305829
8 *646:B1 *1026:A 5.04829e-06
9 *646:B1 *259:253 4.09467e-05
10 *646:B1 *450:72 0
*RES
1 *645:Y *646:B1 38.2278 
*END

*D_NET *75 0.00163292
*CONN
*I *696:D I *D sky130_fd_sc_hd__edfxtp_1
*I *646:Y O *D sky130_fd_sc_hd__o21ai_1
*CAP
1 *696:D 0.000469234
2 *646:Y 0.000469234
3 *696:D *534:A1 5.04829e-06
4 *696:D *534:B1 7.5889e-05
5 *696:D *696:DE 0.000156409
6 *696:D *259:253 0.000219686
7 *696:D *289:6 1.19751e-05
8 *696:D *392:213 9.35468e-06
9 *646:B1 *696:D 0.000216088
*RES
1 *646:Y *696:D 47.4883 
*END

*D_NET *76 0.00359439
*CONN
*I *649:A1 I *D sky130_fd_sc_hd__o21ai_1
*I *647:Y O *D sky130_fd_sc_hd__mux2i_1
*CAP
1 *649:A1 0
2 *647:Y 0.000869949
3 *76:22 0.000869949
4 *76:22 *566:A 6.3657e-05
5 *76:22 *647:A1 6.50586e-05
6 *76:22 *649:B1 6.36477e-05
7 *76:22 *697:D 0.000202879
8 *76:22 *697:DE 3.42041e-05
9 *76:22 *697:CLK 1.82679e-05
10 *76:22 *259:192 8.96634e-05
11 *76:22 *377:20 0
12 *76:22 *388:28 0.000160001
13 *76:22 *435:37 0.000166512
14 *76:22 *448:14 0.000112489
15 *76:22 *491:52 0.00073853
16 *23:12 *76:22 0.000139587
*RES
1 *647:Y *76:22 46.8628 
2 *76:22 *649:A1 9.24915 
*END

*D_NET *77 0.00106251
*CONN
*I *649:B1 I *D sky130_fd_sc_hd__o21ai_1
*I *648:Y O *D sky130_fd_sc_hd__nand2_1
*CAP
1 *649:B1 0.000292929
2 *648:Y 0.000292929
3 *649:B1 *620:S 0.000122378
4 *649:B1 *649:A2 0.000212398
5 *649:B1 *259:192 6.36477e-05
6 *649:B1 *377:20 0
7 *649:B1 *388:28 1.45799e-05
8 *76:22 *649:B1 6.36477e-05
*RES
1 *648:Y *649:B1 35.069 
*END

*D_NET *78 0.000693139
*CONN
*I *697:D I *D sky130_fd_sc_hd__edfxtp_1
*I *649:Y O *D sky130_fd_sc_hd__o21ai_1
*CAP
1 *697:D 0.000208239
2 *649:Y 0.000208239
3 *697:D *697:CLK 8.21761e-06
4 *697:D *435:37 6.55651e-05
5 *76:22 *697:D 0.000202879
*RES
1 *649:Y *697:D 32.315 
*END

*D_NET *79 0.000963152
*CONN
*I *652:A1 I *D sky130_fd_sc_hd__o21ai_1
*I *650:Y O *D sky130_fd_sc_hd__mux2i_1
*CAP
1 *652:A1 0.000229548
2 *650:Y 0.000229548
3 *652:A1 *620:S 0.000119394
4 *652:A1 *648:A 0.000309743
5 *652:A1 *855:A 6.83185e-06
6 *652:A1 *211:16 0
7 *652:A1 *382:153 6.80864e-05
*RES
1 *650:Y *652:A1 34.5434 
*END

*D_NET *80 0.000868938
*CONN
*I *652:B1 I *D sky130_fd_sc_hd__o21ai_1
*I *651:Y O *D sky130_fd_sc_hd__nand2_1
*CAP
1 *652:B1 0.000257275
2 *651:Y 0.000257275
3 *652:B1 *651:A 3.14978e-05
4 *652:B1 *651:B 2.60736e-05
5 *652:B1 *697:DE 0.000117286
6 *652:B1 *382:120 5.29683e-05
7 *652:B1 *382:142 5.302e-05
8 *652:B1 *382:153 3.67708e-05
9 *652:B1 *448:49 3.67708e-05
*RES
1 *651:Y *652:B1 34.7608 
*END

*D_NET *81 0.000570706
*CONN
*I *698:D I *D sky130_fd_sc_hd__edfxtp_1
*I *652:Y O *D sky130_fd_sc_hd__o21ai_1
*CAP
1 *698:D 8.44925e-05
2 *652:Y 8.44925e-05
3 *698:D *855:A 0.000160617
4 *698:D *448:49 6.50586e-05
5 *698:D *448:56 0.000176045
*RES
1 *652:Y *698:D 21.7053 
*END

*D_NET *82 0.000780722
*CONN
*I *655:A2 I *D sky130_fd_sc_hd__o21ai_1
*I *653:Y O *D sky130_fd_sc_hd__mux2i_1
*CAP
1 *655:A2 0.000178958
2 *653:Y 0.000178958
3 *655:A2 *654:B 6.50586e-05
4 *655:A2 *670:A0 0.000127528
5 *655:A2 *714:DE 0.000198722
6 *655:A2 *886:A 0
7 *655:A2 *448:64 3.14978e-05
*RES
1 *653:Y *655:A2 34.2062 
*END

*D_NET *83 0.00020887
*CONN
*I *655:B1 I *D sky130_fd_sc_hd__o21ai_1
*I *654:Y O *D sky130_fd_sc_hd__nand2_1
*CAP
1 *655:B1 2.36203e-05
2 *654:Y 2.36203e-05
3 *655:B1 *654:B 3.14978e-05
4 *655:B1 *448:64 6.50586e-05
5 *655:B1 *448:77 6.50727e-05
*RES
1 *654:Y *655:B1 19.7763 
*END

*D_NET *84 0.000899909
*CONN
*I *699:D I *D sky130_fd_sc_hd__edfxtp_1
*I *655:Y O *D sky130_fd_sc_hd__o21ai_1
*CAP
1 *699:D 0.000278628
2 *655:Y 0.000278628
3 *699:D resp_msg[13] 0
4 *699:D *699:DE 3.57898e-05
5 *699:D *699:CLK 3.58185e-05
6 *699:D *448:64 0.000118166
7 *699:D *448:77 0.000152878
*RES
1 *655:Y *699:D 33.4764 
*END

*D_NET *85 0.00117818
*CONN
*I *658:A2 I *D sky130_fd_sc_hd__o21ai_1
*I *656:Y O *D sky130_fd_sc_hd__mux2i_1
*CAP
1 *658:A2 0.000341685
2 *656:Y 0.000341685
3 *658:A2 *606:A2 0.000167163
4 *658:A2 *658:A1 1.81476e-05
5 *658:A2 *161:12 0.00010872
6 *658:A2 *256:10 0
7 *658:A2 *258:25 3.52622e-05
8 *658:A2 *278:18 0.000165521
*RES
1 *656:Y *658:A2 35.3505 
*END

*D_NET *86 0.000165178
*CONN
*I *658:B1 I *D sky130_fd_sc_hd__o21ai_1
*I *657:Y O *D sky130_fd_sc_hd__nand2_1
*CAP
1 *658:B1 3.96682e-05
2 *657:Y 3.96682e-05
3 *658:B1 *658:A1 6.27782e-05
4 *658:B1 *258:23 2.30636e-05
*RES
1 *657:Y *658:B1 19.7763 
*END

*D_NET *87 0.00102217
*CONN
*I *700:D I *D sky130_fd_sc_hd__edfxtp_1
*I *658:Y O *D sky130_fd_sc_hd__o21ai_1
*CAP
1 *700:D 0.000229748
2 *658:Y 0.000229748
3 *700:D *700:DE 0.000369328
4 *700:D *278:12 0.000160384
5 *548:A *700:D 3.29631e-05
*RES
1 *658:Y *700:D 34.6229 
*END

*D_NET *88 0.000921408
*CONN
*I *711:D I *D sky130_fd_sc_hd__edfxtp_1
*I *659:X O *D sky130_fd_sc_hd__mux2_4
*CAP
1 *711:D 0.00042034
2 *659:X 0.00042034
3 *711:D *614:S 0
4 *711:D *659:A1 4.25893e-05
5 *711:D *659:S 0
6 *711:D *711:DE 3.44641e-05
7 *35:12 *711:D 3.67528e-06
*RES
1 *659:X *711:D 37.3987 
*END

*D_NET *89 0.00120147
*CONN
*I *718:D I *D sky130_fd_sc_hd__edfxtp_1
*I *660:X O *D sky130_fd_sc_hd__mux2_4
*CAP
1 *718:D 0.00033
2 *660:X 0.00033
3 *718:D *522:B 0
4 *718:D *525:B 0.000163122
5 *718:D *660:A0 0.00016553
6 *718:D *718:DE 6.82878e-05
7 *718:D *447:52 0.000144531
*RES
1 *660:X *718:D 36.8763 
*END

*D_NET *90 0.00120645
*CONN
*I *719:D I *D sky130_fd_sc_hd__edfxtp_1
*I *661:X O *D sky130_fd_sc_hd__mux2_4
*CAP
1 *719:D 0.000374956
2 *661:X 0.000374956
3 *719:D *661:A1 4.89453e-05
4 *719:D *679:C 0.000167925
5 *719:D *719:DE 6.79715e-05
6 *719:D *890:A 0
7 *719:D *950:A 6.00998e-05
8 *719:D *164:12 0
9 *719:D *431:50 0.000111595
*RES
1 *661:X *719:D 38.781 
*END

*D_NET *91 0.00220966
*CONN
*I *720:D I *D sky130_fd_sc_hd__edfxtp_1
*I *662:X O *D sky130_fd_sc_hd__mux2_4
*CAP
1 *720:D 0.000860399
2 *662:X 0.000860399
3 *720:D *629:A0 0.000162853
4 *720:D *720:DE 6.82878e-05
5 *720:D *947:A 6.36477e-05
6 *720:D *109:20 0.000194069
7 *720:D *447:38 0
8 *720:D *447:44 0
*RES
1 *662:X *720:D 48.1354 
*END

*D_NET *92 0.00124493
*CONN
*I *721:D I *D sky130_fd_sc_hd__edfxtp_1
*I *663:X O *D sky130_fd_sc_hd__mux2_4
*CAP
1 *721:D 0.00036387
2 *663:X 0.00036387
3 *721:D *663:A0 2.58616e-05
4 *721:D *663:S 6.08467e-05
5 *721:D *721:DE 3.42041e-05
6 *721:D *479:44 7.94739e-05
7 *56:16 *721:D 0.000131645
8 *57:12 *721:D 0.000185159
*RES
1 *663:X *721:D 38.2614 
*END

*D_NET *93 0.00104442
*CONN
*I *722:D I *D sky130_fd_sc_hd__edfxtp_1
*I *664:X O *D sky130_fd_sc_hd__mux2_4
*CAP
1 *722:D 0.000261796
2 *664:X 0.000261796
3 *722:D *634:A1 5.04829e-06
4 *722:D *722:DE 3.61138e-05
5 *722:D *382:18 0.000321452
6 *722:D *436:25 3.30446e-05
7 *722:D *436:27 1.18084e-05
8 *722:D *449:18 6.27718e-05
9 *722:D *503:20 3.86315e-05
10 *634:B1 *722:D 1.1957e-05
*RES
1 *664:X *722:D 36.3402 
*END

*D_NET *94 0.00307566
*CONN
*I *723:D I *D sky130_fd_sc_hd__edfxtp_1
*I *665:X O *D sky130_fd_sc_hd__mux2_4
*CAP
1 *723:D 0
2 *665:X 0.000793979
3 *94:18 0.000793979
4 *94:18 *664:A1 7.08247e-05
5 *94:18 *664:S 1.31499e-05
6 *94:18 *665:A0 0.000435563
7 *94:18 *694:D 0.000171811
8 *94:18 *1029:A 0
9 *94:18 *382:16 0
10 *94:18 *382:18 0
11 *94:18 *449:44 8.94577e-06
12 *94:18 *454:18 5.49029e-06
13 *94:18 *492:20 0.000114342
14 *707:D *94:18 0.000327431
15 *986:A *94:18 0.000340143
*RES
1 *665:X *94:18 43.6752 
2 *94:18 *723:D 9.24915 
*END

*D_NET *95 0.00300472
*CONN
*I *724:D I *D sky130_fd_sc_hd__edfxtp_1
*I *666:X O *D sky130_fd_sc_hd__mux2_4
*CAP
1 *724:D 0
2 *666:X 0.000645616
3 *95:14 0.000645616
4 *95:14 resp_msg[6] 5.87657e-05
5 *95:14 *666:A0 1.55033e-05
6 *95:14 *666:S 6.31814e-05
7 *95:14 *708:DE 0
8 *95:14 *894:A 0.000751157
9 *95:14 *169:28 0
10 *95:14 *435:6 6.92705e-05
11 *95:14 *435:37 7.54492e-05
12 *95:14 *439:29 0.000551259
13 *95:14 *442:14 6.55453e-05
14 *95:14 *449:12 6.33544e-05
*RES
1 *666:X *95:14 41.612 
2 *95:14 *724:D 9.24915 
*END

*D_NET *96 0.000854967
*CONN
*I *725:D I *D sky130_fd_sc_hd__edfxtp_1
*I *667:X O *D sky130_fd_sc_hd__mux2_4
*CAP
1 *725:D 0.000279297
2 *667:X 0.000279297
3 *725:D *725:DE 3.44641e-05
4 *725:D *863:A 0
5 *725:D *392:207 4.58003e-05
6 *725:D *442:60 9.733e-05
7 *26:14 *725:D 0.000118778
*RES
1 *667:X *725:D 35.4884 
*END

*D_NET *97 0.00108746
*CONN
*I *726:D I *D sky130_fd_sc_hd__edfxtp_1
*I *668:X O *D sky130_fd_sc_hd__mux2_4
*CAP
1 *726:D 0.000408165
2 *668:X 0.000408165
3 *726:D *726:DE 6.7319e-05
4 *726:D *877:A 0
5 *10:8 *726:D 0.000203807
*RES
1 *668:X *726:D 38.9259 
*END

*D_NET *98 0.0010495
*CONN
*I *712:D I *D sky130_fd_sc_hd__edfxtp_1
*I *669:X O *D sky130_fd_sc_hd__mux2_4
*CAP
1 *712:D 0.000326526
2 *669:X 0.000326526
3 *712:D *712:DE 8.11133e-05
4 *712:D *939:A 0
5 *712:D *360:8 0.000186404
6 *9:10 *712:D 0.000128928
*RES
1 *669:X *712:D 36.9834 
*END

*D_NET *99 0.00307127
*CONN
*I *713:D I *D sky130_fd_sc_hd__edfxtp_1
*I *670:X O *D sky130_fd_sc_hd__mux2_4
*CAP
1 *713:D 0
2 *670:X 0.000871571
3 *99:16 0.000871571
4 *99:16 *670:A0 0.000417577
5 *99:16 *697:DE 0
6 *99:16 *698:DE 0.000191541
7 *99:16 *885:A 9.17629e-05
8 *99:16 *159:32 2.69064e-05
9 *99:16 *207:10 0.000188637
10 *99:16 *259:192 5.42436e-05
11 *99:16 *382:124 8.86714e-05
12 *99:16 *435:37 6.42482e-05
13 *99:16 *435:52 0.000161681
14 *99:16 *481:16 4.28607e-05
*RES
1 *670:X *99:16 43.7152 
2 *99:16 *713:D 9.24915 
*END

*D_NET *100 0.000860478
*CONN
*I *714:D I *D sky130_fd_sc_hd__edfxtp_1
*I *671:X O *D sky130_fd_sc_hd__mux2_4
*CAP
1 *714:D 0.000176296
2 *671:X 0.000176296
3 *714:D *653:S 1.65872e-05
4 *714:D *670:A0 0.000191541
5 *714:D *670:S 0
6 *714:D *360:38 0.000114584
7 *714:D *448:64 8.03393e-06
8 *671:A0 *714:D 0.000149725
9 *22:27 *714:D 2.74127e-05
*RES
1 *671:X *714:D 33.7523 
*END

*D_NET *101 0.000785778
*CONN
*I *715:D I *D sky130_fd_sc_hd__edfxtp_1
*I *672:X O *D sky130_fd_sc_hd__mux2_4
*CAP
1 *715:D 0.000324045
2 *672:X 0.000324045
3 *715:D *715:DE 3.86761e-05
4 *6:16 *715:D 9.90116e-05
*RES
1 *672:X *715:D 36.1529 
*END

*D_NET *102 0.000952319
*CONN
*I *716:D I *D sky130_fd_sc_hd__edfxtp_1
*I *673:X O *D sky130_fd_sc_hd__mux2_4
*CAP
1 *716:D 0.00029452
2 *673:X 0.00029452
3 *716:D *715:DE 1.97752e-05
4 *716:D *360:18 0.000143175
5 *716:D *435:75 6.73578e-05
6 *5:8 *716:D 0.000132971
*RES
1 *673:X *716:D 36.1529 
*END

*D_NET *103 0.00514393
*CONN
*I *692:D I *D sky130_fd_sc_hd__dfxtp_4
*I *675:X O *D sky130_fd_sc_hd__a221o_1
*CAP
1 *692:D 0
2 *675:X 0.0017959
3 *103:16 0.0017959
4 *103:16 *692:CLK 6.27718e-05
5 *103:16 *974:A 7.26748e-05
6 *103:16 *439:29 0.000458476
7 *103:16 *483:12 8.27709e-05
8 *674:A *103:16 0.000553213
9 *41:16 *103:16 0.000322227
*RES
1 *675:X *103:16 49.8315 
2 *103:16 *692:D 9.24915 
*END

*D_NET *104 0.00232815
*CONN
*I *684:A2 I *D sky130_fd_sc_hd__o22ai_1
*I *676:Y O *D sky130_fd_sc_hd__nor2b_1
*CAP
1 *684:A2 0.000442631
2 *676:Y 0.000442631
3 *684:A2 resp_val 0.00030649
4 *684:A2 *675:A1 0.000164815
5 *684:A2 *675:B1 0
6 *684:A2 *684:A1 0.000146652
7 *684:A2 *173:16 1.92336e-05
8 *684:A2 *392:12 0
9 *684:A2 *392:171 0.000786969
10 *684:A2 *439:39 8.36429e-06
11 *684:B2 *684:A2 1.03594e-05
*RES
1 *676:Y *684:A2 42.9405 
*END

*D_NET *105 0.00234602
*CONN
*I *926:A I *D sky130_fd_sc_hd__buf_4
*I *677:Y O *D sky130_fd_sc_hd__nor4_1
*CAP
1 *926:A 0.000740394
2 *677:Y 0.000740394
3 *926:A *171:12 9.43419e-05
4 *926:A *385:16 3.85659e-05
5 *926:A *456:18 4.58959e-05
6 *563:A *926:A 0.000402565
7 *9:10 *926:A 0.000283865
*RES
1 *677:Y *926:A 42.8578 
*END

*D_NET *106 0.0062246
*CONN
*I *931:A I *D sky130_fd_sc_hd__buf_4
*I *678:Y O *D sky130_fd_sc_hd__nor4_1
*CAP
1 *931:A 0.00284279
2 *678:Y 0.00284279
3 *931:A *524:A 1.95603e-05
4 *931:A *524:C 3.01683e-06
5 *931:A *505:A 0
6 *931:A *670:A0 5.65869e-05
7 *931:A *678:D 1.50924e-05
8 *931:A *372:10 0.000123956
9 *931:A *390:12 1.64789e-05
10 *931:A *426:31 5.53729e-05
11 *931:A *434:55 0
12 *931:A *434:61 0
13 *931:A *435:37 9.23031e-05
14 *566:B *931:A 0.000156648
*RES
1 *678:Y *931:A 49.6932 
*END

*D_NET *107 0.00542593
*CONN
*I *681:C I *D sky130_fd_sc_hd__and4_1
*I *679:Y O *D sky130_fd_sc_hd__nor4_1
*CAP
1 *681:C 0
2 *679:Y 0.000255709
3 *107:16 0.00137185
4 *107:12 0.00162756
5 *107:12 *661:A1 8.48283e-06
6 *107:12 *679:B 0.000117359
7 *107:12 *372:10 1.95347e-05
8 *107:16 *506:B1 5.05252e-05
9 *107:16 *514:B 0.00033255
10 *107:16 *519:B1 0
11 *107:16 *568:A1 9.30514e-05
12 *107:16 *568:A2 2.48286e-05
13 *107:16 *593:A1 0
14 *107:16 *595:A 0
15 *107:16 *505:A 1.05746e-05
16 *107:16 *982:A 0
17 *107:16 *220:31 0.000391273
18 *107:16 *220:33 0.000327431
19 *107:16 *372:10 0.000795204
20 *107:16 *493:16 0
*RES
1 *679:Y *107:12 18.4619 
2 *107:12 *107:16 42.8375 
3 *107:16 *681:C 9.24915 
*END

*D_NET *108 0.00105157
*CONN
*I *681:D I *D sky130_fd_sc_hd__and4_1
*I *680:Y O *D sky130_fd_sc_hd__nor4_1
*CAP
1 *681:D 0.000388263
2 *680:Y 0.000388263
3 *681:D *680:A 6.27718e-05
4 *681:D *680:B 0.000114271
5 *681:D *167:22 6.96846e-05
6 *681:D *220:31 2.8322e-05
*RES
1 *680:Y *681:D 34.0753 
*END

*D_NET *109 0.00788523
*CONN
*I *683:A1 I *D sky130_fd_sc_hd__a21oi_2
*I *682:A I *D sky130_fd_sc_hd__nand2_2
*I *681:X O *D sky130_fd_sc_hd__and4_1
*CAP
1 *683:A1 0.00020905
2 *682:A 5.93406e-05
3 *681:X 0.000907988
4 *109:20 0.00116619
5 *109:16 0.00180579
6 *682:A *682:B 1.27683e-05
7 *682:A *687:B1 1.37189e-05
8 *682:A *1016:A 0.000110297
9 *682:A *382:10 0.00021217
10 *683:A1 *610:B1_N 0.000161861
11 *683:A1 *682:B 4.12349e-05
12 *683:A1 *686:B_N 7.26748e-05
13 *683:A1 *1016:A 9.75243e-05
14 *683:A1 *173:16 5.23577e-05
15 *683:A1 *382:10 0.000107496
16 *683:A1 *392:12 0.000110793
17 *109:16 *589:B 2.58757e-05
18 *109:16 *681:A 0.000307143
19 *109:16 *681:B 6.66926e-05
20 *109:20 *594:B 3.8865e-05
21 *109:20 *610:B1_N 0.000395406
22 *109:20 *682:B 9.04668e-05
23 *109:20 *947:A 4.4372e-05
24 *109:20 *392:31 0
25 *109:20 *454:18 0
26 *589:A *109:16 4.38171e-05
27 *589:C *109:16 0.000303851
28 *628:A2 *109:20 0.000336252
29 *634:A2 *109:20 0.000185065
30 *720:D *109:20 0.000194069
31 *946:A *109:20 0
32 *14:12 *109:20 4.29901e-05
33 *15:8 *109:16 1.77588e-05
34 *28:10 *109:20 0
35 *56:16 *109:16 6.27782e-05
36 *56:16 *109:20 0.00058858
*RES
1 *681:X *109:16 29.8327 
2 *109:16 *109:20 32.9081 
3 *109:20 *682:A 12.2151 
4 *109:20 *683:A1 25.9269 
*END

*D_NET *110 0.00195395
*CONN
*I *687:B1 I *D sky130_fd_sc_hd__a22oi_2
*I *682:Y O *D sky130_fd_sc_hd__nand2_2
*CAP
1 *687:B1 0.000622812
2 *682:Y 0.000622812
3 *687:B1 *613:B 8.36586e-06
4 *687:B1 *632:S 0.000253916
5 *687:B1 *682:B 0.000114584
6 *687:B1 *1016:A 5.39109e-05
7 *687:B1 *382:10 9.6753e-05
8 *687:B1 *439:39 0
9 *682:A *687:B1 1.37189e-05
10 *38:8 *687:B1 0.000167076
*RES
1 *682:Y *687:B1 43.8007 
*END

*D_NET *111 0.000257774
*CONN
*I *684:B1 I *D sky130_fd_sc_hd__o22ai_1
*I *683:Y O *D sky130_fd_sc_hd__a21oi_2
*CAP
1 *684:B1 1.46162e-05
2 *683:Y 1.46162e-05
3 *684:B1 *686:B_N 0.000114271
4 *684:B1 *483:12 0.000114271
*RES
1 *683:Y *684:B1 19.7763 
*END

*D_NET *112 0.00193694
*CONN
*I *686:B_N I *D sky130_fd_sc_hd__nor2b_2
*I *684:Y O *D sky130_fd_sc_hd__o22ai_1
*CAP
1 *686:B_N 0.00046824
2 *684:Y 0.00046824
3 *686:B_N *682:B 5.23435e-05
4 *686:B_N *973:A 0.000110458
5 *686:B_N *173:16 0.000154584
6 *686:B_N *432:16 0.000270569
7 *686:B_N *483:12 0.000111466
8 *683:A1 *686:B_N 7.26748e-05
9 *684:B1 *686:B_N 0.000114271
10 *933:A *686:B_N 4.74657e-05
11 *4:10 *686:B_N 6.66272e-05
*RES
1 *684:Y *686:B_N 39.5327 
*END

*D_NET *113 0.000719748
*CONN
*I *675:A1 I *D sky130_fd_sc_hd__a221o_1
*I *685:Y O *D sky130_fd_sc_hd__clkinv_1
*CAP
1 *675:A1 0.000180248
2 *685:Y 0.000180248
3 *675:A1 *675:B1 0.000139727
4 *675:A1 *974:A 5.47111e-05
5 *684:A2 *675:A1 0.000164815
*RES
1 *685:Y *675:A1 31.9934 
*END

*D_NET *114 0.00132276
*CONN
*I *693:D I *D sky130_fd_sc_hd__dfxtp_1
*I *686:Y O *D sky130_fd_sc_hd__nor2b_2
*CAP
1 *693:D 0.000224106
2 *686:Y 0.000224106
3 *693:D *612:B 0.000409616
4 *693:D *688:A 0.000110458
5 *693:D *432:16 4.85806e-05
6 *693:D *485:12 0.000305896
*RES
1 *686:Y *693:D 27.0404 
*END

*D_NET *115 0.00309594
*CONN
*I *688:B I *D sky130_fd_sc_hd__nor2_1
*I *687:Y O *D sky130_fd_sc_hd__a22oi_2
*CAP
1 *688:B 0.00108871
2 *687:Y 0.00108871
3 *688:B *610:B1_N 3.54435e-05
4 *688:B *688:A 5.03545e-06
5 *688:B *987:A 0.000129446
6 *688:B *988:A 5.85383e-05
7 *688:B *153:12 3.25052e-05
8 *688:B *446:23 0.000650997
9 *688:B *491:10 6.54573e-06
*RES
1 *687:Y *688:B 46.4131 
*END

*D_NET *116 0.00163237
*CONN
*I *694:D I *D sky130_fd_sc_hd__dfxtp_1
*I *688:Y O *D sky130_fd_sc_hd__nor2_1
*CAP
1 *694:D 0.000366339
2 *688:Y 0.000366339
3 *694:D *633:B 5.36441e-05
4 *612:A *694:D 0.000208319
5 *3:6 *694:D 1.41976e-05
6 *41:16 *694:D 0.000451723
7 *94:18 *694:D 0.000171811
*RES
1 *688:Y *694:D 38.7564 
*END

*D_NET *117 0.000378967
*CONN
*I *691:A2 I *D sky130_fd_sc_hd__o21ai_1
*I *689:Y O *D sky130_fd_sc_hd__mux2i_1
*CAP
1 *691:A2 5.97411e-05
2 *689:Y 5.97411e-05
3 *691:A2 *656:S 1.84293e-05
4 *691:A2 *691:A1 2.16355e-05
5 *691:A2 *701:D 7.92757e-06
6 *691:A2 *162:6 0.000211492
*RES
1 *689:Y *691:A2 20.8855 
*END

*D_NET *118 0.000992686
*CONN
*I *691:B1 I *D sky130_fd_sc_hd__o21ai_1
*I *690:Y O *D sky130_fd_sc_hd__nand2_1
*CAP
1 *691:B1 0.000159105
2 *690:Y 0.000159105
3 *691:B1 *605:B1 6.24474e-06
4 *691:B1 *656:S 0.000268831
5 *691:B1 *689:A0 3.67708e-05
6 *691:B1 *690:B 4.29314e-06
7 *691:B1 *442:86 3.31882e-05
8 *691:B1 *442:88 0.000315573
9 *2:14 *691:B1 9.57557e-06
*RES
1 *690:Y *691:B1 34.2062 
*END

*D_NET *119 0.00149783
*CONN
*I *701:D I *D sky130_fd_sc_hd__edfxtp_1
*I *691:Y O *D sky130_fd_sc_hd__o21ai_1
*CAP
1 *701:D 0.000471492
2 *691:Y 0.000471492
3 *701:D *531:C1 0.000145773
4 *701:D *536:B 0.000174934
5 *701:D *546:B 0
6 *701:D *691:A1 0.000111708
7 *701:D *701:DE 3.81987e-05
8 *701:D *921:A 4.58907e-05
9 *701:D *162:6 3.04105e-05
10 *691:A2 *701:D 7.92757e-06
*RES
1 *691:Y *701:D 39.6493 
*END

*D_NET *255 0.00148594
*CONN
*I *605:B1 I *D sky130_fd_sc_hd__a21oi_1
*I *606:Y O *D sky130_fd_sc_hd__o21ai_0
*CAP
1 *605:B1 0.000499408
2 *606:Y 0.000499408
3 *605:B1 *656:S 2.7911e-05
4 *605:B1 *690:B 6.27782e-05
5 *605:B1 *869:A 3.92987e-05
6 *605:B1 *258:23 6.79827e-05
7 *605:B1 *360:8 0
8 *605:A1 *605:B1 0.000114595
9 *605:A2 *605:B1 0.000168313
10 *691:B1 *605:B1 6.24474e-06
*RES
1 *606:Y *605:B1 40.0309 
*END

*D_NET *252 0.00316456
*CONN
*I *604:C1 I *D sky130_fd_sc_hd__o311ai_2
*I *605:Y O *D sky130_fd_sc_hd__a21oi_1
*CAP
1 *604:C1 0.000897537
2 *605:Y 0.000897537
3 *604:C1 *546:B 0
4 *604:C1 *701:CLK 0.000490988
5 *604:C1 *756:B 6.08467e-05
6 *604:C1 *758:C1 6.36477e-05
7 *604:C1 *768:B 6.18243e-06
8 *604:C1 *343:27 0.000237552
9 *604:C1 *428:8 9.45605e-05
10 *604:A3 *604:C1 0
11 *604:B1 *604:C1 0.000278403
12 *756:A *604:C1 1.32504e-05
13 *1018:A *604:C1 0.000121389
14 *184:14 *604:C1 2.67125e-06
*RES
1 *605:Y *604:C1 43.2924 
*END

*D_NET *247 0.00258599
*CONN
*I *603:A I *D sky130_fd_sc_hd__xnor2_1
*I *604:Y O *D sky130_fd_sc_hd__o311ai_2
*CAP
1 *603:A 0.000726615
2 *604:Y 0.000726615
3 *603:A *758:C1 6.36477e-05
4 *603:A *759:A1 0.00036758
5 *603:A *249:18 2.41274e-06
6 *603:A *343:27 0.000390353
7 *603:A *352:24 0.000301105
8 *184:14 *603:A 7.66482e-06
*RES
1 *604:Y *603:A 42.8334 
*END

*D_NET *242 0.00153735
*CONN
*I *941:A I *D sky130_fd_sc_hd__buf_4
*I *600:B I *D sky130_fd_sc_hd__xnor2_2
*I *508:A2 I *D sky130_fd_sc_hd__o211ai_1
*I *602:X O *D sky130_fd_sc_hd__xor2_2
*CAP
1 *941:A 1.97954e-05
2 *600:B 6.37929e-05
3 *508:A2 1.1401e-05
4 *602:X 0.000272382
5 *242:14 0.000216847
6 *242:10 0.00043383
7 *508:A2 *508:A1 2.65667e-05
8 *508:A2 *508:C1 3.14978e-05
9 *600:B *508:A1 0.00013659
10 *600:B *508:C1 4.0752e-05
11 *600:B *315:8 7.16893e-05
12 *242:10 *363:14 3.37311e-05
13 *242:10 *436:14 8.27643e-05
14 *242:14 *680:D 0
15 *242:14 *363:14 4.77845e-05
16 *593:B1 *600:B 7.6719e-06
17 *28:18 *941:A 2.58757e-05
18 *228:10 *941:A 1.43832e-05
*RES
1 *602:X *242:10 20.4627 
2 *242:10 *242:14 7.993 
3 *242:14 *508:A2 9.97254 
4 *242:14 *600:B 12.7456 
5 *242:10 *941:A 14.4725 
*END

*D_NET *240 0.00327588
*CONN
*I *507:A I *D sky130_fd_sc_hd__nand2_1
*I *730:A2 I *D sky130_fd_sc_hd__a211oi_2
*I *601:Y O *D sky130_fd_sc_hd__nand2_1
*CAP
1 *507:A 0.000696048
2 *730:A2 0
3 *601:Y 0.000182767
4 *240:10 0.000878815
5 *507:A *708:CLK 0.000413698
6 *507:A *434:13 4.10499e-05
7 *567:A1 *507:A 1.28326e-05
8 *590:B1 *507:A 0.000140309
9 *760:A *507:A 0.000490067
10 *760:B *507:A 8.82312e-05
11 *169:28 *240:10 0.000117376
12 *221:12 *507:A 0.000115043
13 *221:12 *240:10 5.25819e-05
14 *225:16 *507:A 4.70559e-05
15 *238:10 *507:A 0
*RES
1 *601:Y *240:10 17.6896 
2 *240:10 *730:A2 13.7491 
3 *240:10 *507:A 33.8565 
*END

*D_NET *239 0.0114506
*CONN
*I *599:B I *D sky130_fd_sc_hd__nor2_2
*I *930:A I *D sky130_fd_sc_hd__buf_4
*I *734:B I *D sky130_fd_sc_hd__nor4_2
*I *509:A I *D sky130_fd_sc_hd__nor3_4
*I *510:A I *D sky130_fd_sc_hd__nor2_2
*I *600:Y O *D sky130_fd_sc_hd__xnor2_2
*CAP
1 *599:B 0.000943127
2 *930:A 0
3 *734:B 0.000248529
4 *509:A 0.000381141
5 *510:A 0.000420217
6 *600:Y 0.000125532
7 *239:16 0.00100679
8 *239:14 0.000678622
9 *239:12 0.000391302
10 *239:10 0.0012353
11 *509:A *506:B1 0.000345301
12 *509:A *514:A 6.50586e-05
13 *510:A *514:A 1.08881e-05
14 *510:A *515:B 6.08467e-05
15 *510:A *516:B 8.07517e-05
16 *510:A *568:B1 0.00029532
17 *510:A *579:B 1.4106e-05
18 *510:A *368:14 0.000168313
19 *599:B *730:B1 0.000231707
20 *599:B *1017:A 0.000178523
21 *599:B *375:8 0
22 *734:B *588:B 6.08467e-05
23 *734:B *734:C 0.000124517
24 *734:B *905:A 1.58551e-05
25 *239:10 *511:A 4.09467e-05
26 *239:10 *681:A 8.68133e-05
27 *239:10 *315:8 6.08467e-05
28 *239:12 *511:A 0.00012369
29 *239:12 *681:A 0.000120726
30 *239:14 *511:A 1.72644e-05
31 *239:14 *588:A 5.07632e-05
32 *239:14 *588:B 7.45722e-06
33 *239:14 *465:24 0
34 *239:16 *568:B1 9.24241e-05
35 *239:16 *588:A 3.20069e-06
36 *239:16 *304:20 0
37 *519:A1 *509:A 6.08467e-05
38 *520:A *734:B 7.04811e-05
39 *520:B *734:B 0.00025175
40 *568:A2 *509:A 0.000458365
41 *569:B1 *510:A 7.04127e-05
42 *569:B1 *239:16 0.00010836
43 *579:A *509:A 6.08467e-05
44 *904:A *239:10 9.75356e-05
45 *912:A *239:16 1.23455e-05
46 *997:A *509:A 6.08467e-05
47 *1011:A *239:16 0
48 *207:12 *510:A 0.00112954
49 *213:27 *510:A 2.91598e-05
50 *213:44 *239:16 7.77309e-06
51 *213:50 *239:16 0
52 *214:12 *509:A 0.000298372
53 *219:8 *734:B 0.000482697
54 *228:31 *239:14 0.000209322
55 *228:39 *239:14 0.000179005
56 *228:39 *239:16 0.000176222
*RES
1 *600:Y *239:10 17.9655 
2 *239:10 *239:12 5.56926 
3 *239:12 *239:14 7.23027 
4 *239:14 *239:16 5.98452 
5 *239:16 *510:A 31.1608 
6 *239:16 *509:A 26.8667 
7 *239:14 *734:B 23.9731 
8 *239:12 *930:A 13.7491 
9 *239:10 *599:B 29.1816 
*END

*D_NET *237 0.00087688
*CONN
*I *590:A2 I *D sky130_fd_sc_hd__a21oi_4
*I *916:A I *D sky130_fd_sc_hd__buf_4
*I *599:Y O *D sky130_fd_sc_hd__nor2_2
*CAP
1 *590:A2 0.000139234
2 *916:A 0
3 *599:Y 2.7855e-05
4 *237:6 0.000167089
5 *590:A2 *764:A2 0.000179286
6 *590:A2 *375:8 7.92757e-06
7 *590:A2 *477:16 0.000110306
8 *237:6 *730:B1 1.41976e-05
9 *237:6 *477:16 4.66492e-05
10 *752:C *590:A2 5.04829e-06
11 *33:32 *590:A2 0.000179286
*RES
1 *599:Y *237:6 9.97254 
2 *237:6 *916:A 9.24915 
3 *237:6 *590:A2 23.7141 
*END

*D_NET *235 0.00107187
*CONN
*I *943:A I *D sky130_fd_sc_hd__buf_4
*I *594:B I *D sky130_fd_sc_hd__xnor2_4
*I *598:X O *D sky130_fd_sc_hd__xor2_4
*CAP
1 *943:A 0.00011889
2 *594:B 0.00028705
3 *598:X 0.000168159
4 *594:B *664:A0 6.08467e-05
5 *594:B *503:20 8.60778e-05
6 *943:A *680:D 7.22586e-05
7 *943:A *422:14 1.07248e-05
8 *594:A *943:A 6.39692e-05
9 *598:B *594:B 6.3657e-05
10 *14:12 *594:B 3.38287e-05
11 *28:18 *594:B 6.75453e-05
12 *109:20 *594:B 3.8865e-05
*RES
1 *598:X *594:B 33.132 
2 *594:B *943:A 31.4065 
*END

*D_NET *233 0.00288677
*CONN
*I *593:B1 I *D sky130_fd_sc_hd__o21ai_2
*I *597:Y O *D sky130_fd_sc_hd__nand2_1
*CAP
1 *593:B1 0.00078102
2 *597:Y 0.00078102
3 *593:B1 *508:C1 0.000416183
4 *593:B1 *597:B 0.000220183
5 *593:B1 *600:B 7.6719e-06
6 *593:B1 *315:8 0.00031772
7 *593:B1 *363:14 0
8 *593:A1 *593:B1 3.25494e-05
9 *220:31 *593:B1 0
10 *228:10 *593:B1 0.000271825
11 *228:14 *593:B1 5.85954e-05
*RES
1 *597:Y *593:B1 44.1891 
*END

*D_NET *231 0.00110443
*CONN
*I *595:B I *D sky130_fd_sc_hd__nand2_1
*I *596:X O *D sky130_fd_sc_hd__xor2_1
*CAP
1 *595:B 0.000252336
2 *596:X 0.000252336
3 *595:B *595:A 6.08467e-05
4 *595:B *905:A 0.000434673
5 *520:B *595:B 0.000104238
*RES
1 *596:X *595:B 26.6244 
*END

*D_NET *229 0.00247535
*CONN
*I *593:A1 I *D sky130_fd_sc_hd__o21ai_2
*I *519:B1 I *D sky130_fd_sc_hd__o21ai_1
*I *595:Y O *D sky130_fd_sc_hd__nand2_1
*CAP
1 *593:A1 0.000365252
2 *519:B1 0.00036594
3 *595:Y 4.51842e-05
4 *229:8 0.000776376
5 *519:B1 *595:A 6.81171e-05
6 *519:B1 *505:A 2.05342e-06
7 *519:B1 *304:20 5.26725e-05
8 *593:A1 *588:B 0
9 *593:A1 *593:B1 3.25494e-05
10 *593:A1 *595:A 5.97908e-05
11 *593:A1 *451:10 3.76558e-05
12 *229:8 *905:A 6.08467e-05
13 *568:A2 *519:B1 4.06402e-05
14 *593:A2 *593:A1 6.36477e-05
15 *997:A *519:B1 2.91462e-05
16 *1011:A *519:B1 9.88428e-05
17 *1011:A *593:A1 0.000115753
18 *107:16 *519:B1 0
19 *107:16 *593:A1 0
20 *167:22 *593:A1 3.67859e-05
21 *213:50 *519:B1 0.000156823
22 *227:10 *593:A1 5.04829e-06
23 *228:14 *593:A1 6.2224e-05
*RES
1 *595:Y *229:8 14.4725 
2 *229:8 *519:B1 23.1045 
3 *229:8 *593:A1 23.7791 
*END

*D_NET *228 0.00655831
*CONN
*I *593:A2 I *D sky130_fd_sc_hd__o21ai_2
*I *1006:A I *D sky130_fd_sc_hd__buf_6
*I *1004:A I *D sky130_fd_sc_hd__buf_6
*I *1005:A I *D sky130_fd_sc_hd__buf_6
*I *927:A I *D sky130_fd_sc_hd__buf_4
*I *594:Y O *D sky130_fd_sc_hd__xnor2_4
*CAP
1 *593:A2 0.000169385
2 *1006:A 0
3 *1004:A 0.000102628
4 *1005:A 0
5 *927:A 2.76253e-05
6 *594:Y 0.000583056
7 *228:39 0.0003174
8 *228:31 0.000419863
9 *228:14 0.000323617
10 *228:10 0.000843341
11 *593:A2 *593:A1 6.36477e-05
12 *927:A *681:A 4.89392e-05
13 *1004:A *460:24 0.00012453
14 *1004:A *461:24 0.000160617
15 *228:10 *593:B1 0.000271825
16 *228:10 *941:A 1.43832e-05
17 *228:10 *363:14 0
18 *228:10 *400:16 0.000308449
19 *228:10 *451:10 0.000191541
20 *228:14 *593:A1 6.2224e-05
21 *228:14 *593:B1 5.85954e-05
22 *228:14 *451:10 0.000211595
23 *228:31 *588:B 1.47251e-05
24 *228:31 *681:A 0.00011222
25 *228:31 *239:14 0.000209322
26 *228:31 *386:6 0.000157107
27 *228:31 *451:10 2.51718e-05
28 *228:31 *465:24 0.000109421
29 *228:31 *499:16 1.82679e-05
30 *228:39 *239:14 0.000179005
31 *228:39 *239:16 0.000176222
32 *228:39 *460:24 0.000125341
33 *569:A1 *1004:A 0.00031839
34 *569:A1 *228:39 0.000207892
35 *902:A *228:39 0.000275126
36 *908:A *228:10 0.000105486
37 *912:A *228:39 7.14746e-05
38 *28:18 *228:10 7.64637e-06
39 *28:24 *228:10 5.88838e-05
40 *167:22 *927:A 4.47179e-05
41 *167:22 *228:31 1.65872e-05
42 *227:10 *593:A2 2.20471e-05
*RES
1 *594:Y *228:10 27.94 
2 *228:10 *228:14 8.40826 
3 *228:14 *927:A 10.5271 
4 *228:14 *228:31 16.5735 
5 *228:31 *228:39 18.2022 
6 *228:39 *1005:A 9.24915 
7 *228:39 *1004:A 14.4094 
8 *228:31 *1006:A 9.24915 
9 *228:10 *593:A2 17.6796 
*END

*D_NET *227 0.00516526
*CONN
*I *908:A I *D sky130_fd_sc_hd__buf_4
*I *915:A I *D sky130_fd_sc_hd__buf_4
*I *593:Y O *D sky130_fd_sc_hd__o21ai_2
*CAP
1 *908:A 0.00077684
2 *915:A 0.000318041
3 *593:Y 0.00013725
4 *227:10 0.00123213
5 *908:A *681:A 0.000667423
6 *908:A *228:10 0.000105486
7 *908:A *367:14 0.000217923
8 *908:A *434:27 0
9 *908:A *435:37 0.000280904
10 *908:A *451:10 0.000215542
11 *908:A *466:16 5.05252e-05
12 *915:A *516:C 1.65872e-05
13 *915:A *1000:A 2.98535e-05
14 *915:A *1043:A 7.60954e-05
15 *915:A *306:12 0.000213775
16 *227:10 *593:A1 5.04829e-06
17 *227:10 *593:A2 2.20471e-05
18 *227:10 *681:A 5.42307e-05
19 *227:10 *451:10 5.78282e-05
20 *894:A *908:A 0.000416809
21 *28:24 *908:A 0
22 *169:28 *915:A 0.000270919
*RES
1 *593:Y *227:10 17.1378 
2 *227:10 *915:A 23.3703 
3 *227:10 *908:A 48.4916 
*END

*D_NET *224 0.00277985
*CONN
*I *591:B I *D sky130_fd_sc_hd__nand2_1
*I *738:A2 I *D sky130_fd_sc_hd__a21boi_0
*I *592:Y O *D sky130_fd_sc_hd__o211ai_1
*CAP
1 *591:B 0
2 *738:A2 0.000259263
3 *592:Y 0.000369004
4 *224:10 0.000628268
5 *738:A2 *731:C1 0.00015403
6 *738:A2 *742:A2 3.00829e-05
7 *738:A2 *922:A 3.35194e-05
8 *738:A2 *456:18 0.000298986
9 *738:A2 *477:16 7.46988e-05
10 *224:10 *556:A 5.45692e-05
11 *224:10 *936:A 7.64968e-05
12 *224:10 *439:12 0
13 *224:10 *477:16 0.000134884
14 *224:10 *491:18 0.000159032
15 *224:10 *491:46 0
16 *980:A *738:A2 0.00032924
17 *980:A *224:10 0.000177772
*RES
1 *592:Y *224:10 24.473 
2 *224:10 *738:A2 23.6453 
3 *224:10 *591:B 13.7491 
*END

*D_NET *222 0.0019124
*CONN
*I *590:B1 I *D sky130_fd_sc_hd__a21oi_4
*I *591:Y O *D sky130_fd_sc_hd__nand2_1
*CAP
1 *590:B1 0.000694543
2 *591:Y 0.000694543
3 *590:B1 *507:A 0.000140309
4 *590:B1 *592:B1 9.8479e-05
5 *590:B1 *601:A 1.54113e-05
6 *590:B1 *731:C1 2.16355e-05
7 *590:B1 *400:16 3.92481e-05
8 *590:B1 *420:10 1.34231e-05
9 *567:A1 *590:B1 5.77352e-05
10 *760:A *590:B1 0.000137071
*RES
1 *591:Y *590:B1 41.4104 
*END

*D_NET *221 0.00167115
*CONN
*I *1014:A I *D sky130_fd_sc_hd__buf_4
*I *567:B1 I *D sky130_fd_sc_hd__o21ai_4
*I *590:Y O *D sky130_fd_sc_hd__a21oi_4
*CAP
1 *1014:A 8.00531e-05
2 *567:B1 0
3 *590:Y 0.000419471
4 *221:12 0.000499524
5 *1014:A *373:16 2.84892e-05
6 *221:12 *507:A 0.000115043
7 *221:12 *601:B 0
8 *221:12 *240:10 5.25819e-05
9 *567:A1 *221:12 0.000236103
10 *567:A2 *221:12 1.03594e-05
11 *914:A *221:12 0.000164842
12 *189:8 *1014:A 6.46815e-05
*RES
1 *590:Y *221:12 29.5276 
2 *221:12 *567:B1 9.24915 
3 *221:12 *1014:A 11.6364 
*END

*D_NET *220 0.0082171
*CONN
*I *520:B I *D sky130_fd_sc_hd__or2_4
*I *519:A1 I *D sky130_fd_sc_hd__o21ai_1
*I *514:B I *D sky130_fd_sc_hd__nor4_4
*I *995:A I *D sky130_fd_sc_hd__buf_6
*I *589:X O *D sky130_fd_sc_hd__xnor3_2
*CAP
1 *520:B 0.000300816
2 *519:A1 1.47608e-05
3 *514:B 0.00020571
4 *995:A 2.06324e-05
5 *589:X 0.000683183
6 *220:33 0.000360199
7 *220:31 0.000958453
8 *220:18 0.00122172
9 *514:B *509:B 0.000209537
10 *514:B *514:A 9.28161e-05
11 *514:B *568:A1 0.000107583
12 *514:B *467:18 0.000205681
13 *519:A1 *509:A 6.08467e-05
14 *520:B *588:A 0.000122378
15 *520:B *588:B 3.83172e-05
16 *520:B *595:A 0.000161172
17 *520:B *595:B 0.000104238
18 *520:B *734:B 0.00025175
19 *520:B *734:C 0
20 *520:B *905:A 3.20632e-05
21 *220:18 *508:B1 6.85021e-05
22 *220:18 *626:A0 1.48238e-05
23 *220:18 *680:D 0
24 *220:18 *947:A 4.451e-05
25 *220:18 *259:126 0.000127179
26 *220:18 *407:12 7.66556e-05
27 *220:18 *422:14 5.2472e-05
28 *220:31 *508:B1 3.25584e-05
29 *220:31 *593:B1 0
30 *220:31 *680:A 6.01397e-05
31 *220:31 *680:D 0
32 *220:31 *363:14 8.62625e-06
33 *220:33 *568:A1 6.07931e-05
34 *220:33 *680:A 4.3116e-06
35 *220:33 *467:18 0
36 *520:A *520:B 0.000566741
37 *681:D *220:31 2.8322e-05
38 *963:A *220:18 0.000106215
39 *15:8 *220:18 0.000255255
40 *29:6 *220:18 4.27168e-05
41 *56:16 *220:18 1.7666e-05
42 *107:16 *514:B 0.00033255
43 *107:16 *220:31 0.000391273
44 *107:16 *220:33 0.000327431
45 *167:22 *220:31 2.41489e-05
46 *190:12 *220:31 0.000234308
47 *190:12 *220:33 0.000127194
48 *214:12 *519:A1 6.08467e-05
*RES
1 *589:X *220:18 35.5972 
2 *220:18 *995:A 9.82786 
3 *220:18 *220:31 20.2069 
4 *220:31 *220:33 5.98452 
5 *220:33 *514:B 23.1148 
6 *220:33 *519:A1 14.4725 
7 *220:31 *520:B 33.9023 
*END

*D_NET *219 0.00475299
*CONN
*I *512:A1 I *D sky130_fd_sc_hd__a221oi_4
*I *914:A I *D sky130_fd_sc_hd__buf_6
*I *588:Y O *D sky130_fd_sc_hd__nor2_4
*CAP
1 *512:A1 0.000486967
2 *914:A 0.00023191
3 *588:Y 0.000722341
4 *219:8 0.00144122
5 *512:A1 *734:D 1.62073e-05
6 *512:A1 *735:B1 1.06769e-05
7 *512:A1 *749:B 0
8 *512:A1 *934:A 2.50647e-05
9 *914:A *512:C1 0.000247204
10 *914:A *590:A1 6.08467e-05
11 *914:A *601:A 6.08467e-05
12 *914:A *221:12 0.000164842
13 *914:A *477:35 0.000120131
14 *219:8 *734:B 0.000482697
15 *219:8 *734:C 7.68538e-06
16 *219:8 *905:A 0
17 *219:8 *311:12 0.00046401
18 *567:A1 *914:A 0.000185159
19 *567:A2 *914:A 2.51809e-05
*RES
1 *588:Y *219:8 21.6433 
2 *219:8 *914:A 27.8638 
3 *219:8 *512:A1 16.5072 
*END

*D_NET *218 0.00611589
*CONN
*I *567:A1 I *D sky130_fd_sc_hd__o21ai_4
*I *587:Y O *D sky130_fd_sc_hd__nand2_4
*CAP
1 *567:A1 0.000384293
2 *587:Y 0.000672755
3 *218:24 0.00105705
4 *567:A1 *507:A 1.28326e-05
5 *567:A1 *512:C1 6.53173e-05
6 *567:A1 *590:B1 5.77352e-05
7 *567:A1 *601:A 6.25182e-05
8 *567:A1 *914:A 0.000185159
9 *567:A1 *221:12 0.000236103
10 *567:A1 *477:35 0.000449327
11 *218:24 *534:A2 7.09666e-06
12 *218:24 *562:A 0.000420177
13 *218:24 *562:B 2.57986e-05
14 *218:24 *732:B 0.000247443
15 *218:24 *737:B 6.57652e-06
16 *218:24 *739:B 0.000475196
17 *218:24 *742:A1 2.71757e-05
18 *218:24 *753:B2 2.57465e-06
19 *218:24 *764:A2 0.000211492
20 *218:24 *766:A2 1.5714e-05
21 *218:24 *397:32 5.86309e-07
22 *218:24 *473:18 0.000557534
23 *218:24 *478:18 0.000678767
24 *533:A2 *218:24 0.000111722
25 *747:A2 *218:24 0.000107496
26 *763:B *218:24 1.86487e-05
27 *1022:A *218:24 1.88014e-05
*RES
1 *587:Y *218:24 44.8598 
2 *218:24 *567:A1 27.6585 
*END

*D_NET *216 0.00157197
*CONN
*I *585:B I *D sky130_fd_sc_hd__nand2_1
*I *586:X O *D sky130_fd_sc_hd__xor2_1
*CAP
1 *585:B 0.000371742
2 *586:X 0.000371742
3 *585:B *623:A0 2.08133e-05
4 *585:B *390:12 0.000110609
5 *585:B *423:10 0.000315172
6 *964:A *585:B 2.1032e-05
7 *214:12 *585:B 0.000360863
*RES
1 *586:X *585:B 47.5917 
*END

*D_NET *214 0.00320232
*CONN
*I *569:B1 I *D sky130_fd_sc_hd__o21ai_2
*I *519:A2 I *D sky130_fd_sc_hd__o21ai_1
*I *585:Y O *D sky130_fd_sc_hd__nand2_1
*CAP
1 *569:B1 0.000191834
2 *519:A2 0
3 *585:Y 0.000371495
4 *214:12 0.000563328
5 *569:B1 *506:B1 0.000412645
6 *569:B1 *510:A 7.04127e-05
7 *569:B1 *239:16 0.00010836
8 *569:B1 *305:8 0.000451509
9 *214:12 *506:B1 1.84125e-05
10 *214:12 *509:A 0.000298372
11 *214:12 *519:A1 6.08467e-05
12 *214:12 *585:B 0.000360863
13 *214:12 *623:A0 0.000110458
14 *213:27 *569:B1 4.94633e-05
15 *213:44 *569:B1 0.000134323
*RES
1 *585:Y *214:12 20.1724 
2 *214:12 *519:A2 9.24915 
3 *214:12 *569:B1 27.457 
*END

*D_NET *213 0.0106796
*CONN
*I *569:A2 I *D sky130_fd_sc_hd__o21ai_2
*I *1011:A I *D sky130_fd_sc_hd__buf_6
*I *520:A I *D sky130_fd_sc_hd__or2_4
*I *579:A I *D sky130_fd_sc_hd__nor2_2
*I *940:A I *D sky130_fd_sc_hd__buf_4
*I *584:X O *D sky130_fd_sc_hd__xnor3_2
*CAP
1 *569:A2 0
2 *1011:A 0.000206988
3 *520:A 0.000467379
4 *579:A 1.47608e-05
5 *940:A 0.000458563
6 *584:X 0.000172786
7 *213:50 0.000761156
8 *213:44 0.000265603
9 *213:27 0.00172071
10 *213:10 0.00215849
11 *520:A *520:B 0.000566741
12 *520:A *734:B 7.04811e-05
13 *579:A *506:B1 6.08467e-05
14 *579:A *509:A 6.08467e-05
15 *940:A *617:A0 8.36586e-06
16 *940:A *617:S 0
17 *940:A *424:18 3.20407e-05
18 *940:A *447:44 0.000146683
19 *940:A *447:52 0.000435649
20 *940:A *479:33 0
21 *1011:A *519:B1 9.88428e-05
22 *1011:A *588:A 0
23 *1011:A *588:B 3.80495e-05
24 *1011:A *593:A1 0.000115753
25 *1011:A *942:A 0.00021217
26 *1011:A *239:16 0
27 *1011:A *465:24 0.00021217
28 *213:10 *623:A0 4.20098e-05
29 *213:10 *424:18 6.23012e-05
30 *213:10 *447:44 2.48716e-05
31 *213:27 *510:A 2.91598e-05
32 *213:27 *514:A 0.000130732
33 *213:27 *569:B1 4.94633e-05
34 *213:27 *304:20 7.54269e-06
35 *213:27 *493:16 0.000421429
36 *213:44 *569:B1 0.000134323
37 *213:44 *239:16 7.77309e-06
38 *213:44 *304:20 5.07719e-05
39 *213:44 *460:24 0.000103983
40 *213:50 *519:B1 0.000156823
41 *213:50 *239:16 0
42 *213:50 *304:20 6.42825e-05
43 *213:50 *460:24 6.36477e-05
44 resp_msg[4] *213:27 4.47179e-05
45 *569:A1 *213:44 6.92705e-05
46 *584:C *940:A 2.91598e-05
47 *892:A *213:27 0.000411897
48 *997:A *213:27 0.000109427
49 *1045:A *940:A 0.000269551
50 *207:12 *213:27 0.000111352
*RES
1 *584:X *213:10 16.9985 
2 *213:10 *940:A 28.454 
3 *213:10 *213:27 35.1246 
4 *213:27 *579:A 14.4725 
5 *213:27 *213:44 9.58855 
6 *213:44 *213:50 7.8859 
7 *213:50 *520:A 22.5264 
8 *213:50 *1011:A 20.4599 
9 *213:44 *569:A2 9.24915 
*END

*D_NET *211 0.00257407
*CONN
*I *1008:A I *D sky130_fd_sc_hd__buf_4
*I *580:B I *D sky130_fd_sc_hd__xnor2_2
*I *583:X O *D sky130_fd_sc_hd__xor2_2
*CAP
1 *1008:A 0
2 *580:B 0.000265941
3 *583:X 0.000193363
4 *211:16 0.000459304
5 *580:B *580:A 0.000169556
6 *580:B *582:B 0.000114594
7 *580:B *1007:A 9.87212e-05
8 *580:B *377:20 0.000126978
9 *211:16 *703:CLK 0
10 *211:16 *855:A 0.000264614
11 *211:16 *382:90 6.92705e-05
12 *211:16 *382:94 7.02172e-06
13 *581:A *580:B 0.000375471
14 *622:A1 *211:16 4.70005e-05
15 *622:B1 *211:16 7.34948e-06
16 *648:A *580:B 0
17 *652:A1 *211:16 0
18 *966:A *211:16 0.000213739
19 *1002:A *580:B 0.000144531
20 *1002:A *211:16 7.98425e-06
21 *32:10 *580:B 8.62625e-06
*RES
1 *583:X *211:16 25.2949 
2 *211:16 *580:B 29.6698 
3 *211:16 *1008:A 9.24915 
*END

*D_NET *209 0.00558896
*CONN
*I *569:A1 I *D sky130_fd_sc_hd__o21ai_2
*I *929:A I *D sky130_fd_sc_hd__buf_6
*I *582:Y O *D sky130_fd_sc_hd__nand2_4
*CAP
1 *569:A1 0.000613177
2 *929:A 0
3 *582:Y 0.000425678
4 *209:10 0.00103885
5 *569:A1 *516:C 0.000151031
6 *569:A1 *518:A 4.34932e-05
7 *569:A1 *1004:A 0.00031839
8 *569:A1 *213:44 6.92705e-05
9 *569:A1 *228:39 0.000207892
10 *569:A1 *259:26 3.66675e-05
11 *569:A1 *304:20 0.000621126
12 *569:A1 *306:12 0.000784943
13 *569:A1 *431:12 0.000138638
14 *569:A1 *460:24 0.000142322
15 *209:10 *518:A 7.77284e-05
16 *209:10 *581:C 0.000182926
17 *209:10 *582:B 8.35465e-05
18 *209:10 *661:A0 0.000355801
19 *209:10 *918:A 0
20 *209:10 *259:26 4.18987e-05
21 *209:10 *425:21 0.000160383
22 *209:10 *431:12 9.51902e-05
23 *209:10 *431:23 0
*RES
1 *582:Y *209:10 27.9372 
2 *209:10 *929:A 13.7491 
3 *209:10 *569:A1 39.0181 
*END

*D_NET *208 0.00158623
*CONN
*I *525:A I *D sky130_fd_sc_hd__nand2_1
*I *524:B I *D sky130_fd_sc_hd__nand3_2
*I *581:X O *D sky130_fd_sc_hd__xor3_1
*CAP
1 *525:A 6.50256e-05
2 *524:B 0
3 *581:X 0.000298135
4 *208:12 0.000363161
5 *525:A *523:A1 8.64558e-05
6 *525:A *1046:A 0.000275256
7 *525:A *300:10 9.88214e-05
8 *208:12 *526:B 0.000317399
9 *208:12 *918:A 0
10 *208:12 *950:A 2.58616e-05
11 *524:C *525:A 4.78816e-05
12 *525:B *208:12 0
13 *979:A *208:12 0
14 *164:12 *208:12 8.23171e-06
15 *196:40 *208:12 0
*RES
1 *581:X *208:12 25.5117 
2 *208:12 *524:B 9.24915 
3 *208:12 *525:A 13.903 
*END

*D_NET *207 0.00652707
*CONN
*I *999:A I *D sky130_fd_sc_hd__buf_4
*I *997:A I *D sky130_fd_sc_hd__buf_4
*I *580:Y O *D sky130_fd_sc_hd__xnor2_2
*CAP
1 *999:A 3.6352e-05
2 *997:A 0.000145662
3 *580:Y 0.000570125
4 *207:12 0.000926261
5 *207:10 0.00131437
6 *997:A *506:B1 6.08467e-05
7 *997:A *509:A 6.08467e-05
8 *997:A *519:B1 2.91462e-05
9 *997:A *1041:A 1.04731e-05
10 *997:A *213:27 0.000109427
11 *997:A *304:20 0.000176833
12 *207:10 *512:B2 4.13313e-05
13 *207:10 *517:B1 0
14 *207:10 *505:B 3.31645e-05
15 *207:10 *358:20 8.26893e-05
16 *207:10 *435:52 7.28994e-06
17 *207:10 *448:14 0.000127179
18 *207:10 *481:16 0.000702331
19 *207:12 *506:A2 0.000109427
20 *207:12 *510:A 0.00112954
21 *207:12 *516:B 2.69339e-05
22 *207:12 *579:B 1.04731e-05
23 *207:12 *1041:A 2.49496e-05
24 *207:12 *213:27 0.000111352
25 *207:12 *306:44 0.000250405
26 *207:12 *461:24 0.000109421
27 *1025:A *207:10 5.37077e-05
28 *1025:A *207:12 7.78924e-05
29 *99:16 *207:10 0.000188637
*RES
1 *580:Y *207:10 38.7675 
2 *207:10 *207:12 21.2437 
3 *207:12 *997:A 23.3283 
4 *207:12 *999:A 10.2378 
*END

*D_NET *206 0.00149055
*CONN
*I *568:A2 I *D sky130_fd_sc_hd__a21oi_4
*I *579:Y O *D sky130_fd_sc_hd__nor2_2
*CAP
1 *568:A2 0.000472706
2 *579:Y 0.000472706
3 *568:A2 *506:B1 1.62592e-05
4 *568:A2 *509:A 0.000458365
5 *568:A2 *519:B1 4.06402e-05
6 *568:A2 *579:B 5.04829e-06
7 *107:16 *568:A2 2.48286e-05
*RES
1 *579:Y *568:A2 36.015 
*END

*D_NET *204 0.00317692
*CONN
*I *524:C I *D sky130_fd_sc_hd__nand3_2
*I *573:B I *D sky130_fd_sc_hd__nor2_1
*I *577:B I *D sky130_fd_sc_hd__nand2_1
*I *578:X O *D sky130_fd_sc_hd__xor2_4
*CAP
1 *524:C 0.000307271
2 *573:B 0
3 *577:B 0.000131733
4 *578:X 0.000373456
5 *204:28 0.000548995
6 *524:C *524:A 6.08467e-05
7 *524:C *525:A 4.78816e-05
8 *524:C *1046:A 0.000481147
9 *524:C *300:10 0.000214038
10 *524:C *390:12 2.20796e-05
11 *204:28 *526:A 0.000351818
12 *204:28 *578:A 0.000157107
13 *204:28 *259:38 2.60765e-05
14 *204:28 *426:31 0.000351818
15 *571:A1 *524:C 2.16355e-05
16 *913:A *577:B 7.79998e-05
17 *931:A *524:C 3.01683e-06
*RES
1 *578:X *577:B 30.9913 
2 *578:X *204:28 27.5907 
3 *204:28 *573:B 9.24915 
4 *204:28 *524:C 20.0519 
*END

*D_NET *202 0.00139767
*CONN
*I *571:B1 I *D sky130_fd_sc_hd__o21ai_4
*I *577:Y O *D sky130_fd_sc_hd__nand2_1
*CAP
1 *571:B1 0.000323884
2 *577:Y 0.000323884
3 *571:B1 *526:A 7.50799e-05
4 *571:B1 *578:A 5.65046e-05
5 *571:B1 *661:S 0.000111352
6 *571:B1 *390:12 3.34802e-05
7 *571:A2 *571:B1 1.55462e-05
8 *913:A *571:B1 0.000457942
*RES
1 *577:Y *571:B1 38.0828 
*END

*D_NET *200 0.00122125
*CONN
*I *978:A I *D sky130_fd_sc_hd__buf_4
*I *574:B I *D sky130_fd_sc_hd__maj3_2
*I *576:Y O *D sky130_fd_sc_hd__xnor2_2
*CAP
1 *978:A 6.73967e-05
2 *574:B 0
3 *576:Y 0.000256048
4 *200:12 0.000323444
5 *978:A *575:A 0.000171288
6 *978:A *679:A 3.81056e-05
7 *200:12 *679:B 0
8 *200:12 *426:14 0.00016195
9 *200:12 *426:31 9.626e-05
10 *913:A *200:12 5.11107e-05
11 *196:12 *978:A 5.56461e-05
*RES
1 *576:Y *200:12 23.4382 
2 *200:12 *574:B 9.24915 
3 *200:12 *978:A 12.191 
*END

*D_NET *198 0.00134952
*CONN
*I *528:B I *D sky130_fd_sc_hd__xnor2_2
*I *575:Y O *D sky130_fd_sc_hd__xnor2_2
*CAP
1 *528:B 0.000203732
2 *575:Y 0.000203732
3 *528:B resp_msg[0] 1.19721e-05
4 *528:B *575:A 0.000441022
5 *528:B *575:B 0.000135706
6 *528:B *910:A 0.000177787
7 *882:A *528:B 0.000164843
8 *1028:A *528:B 1.07248e-05
*RES
1 *575:Y *528:B 36.8455 
*END

*D_NET *196 0.00578691
*CONN
*I *979:A I *D sky130_fd_sc_hd__buf_4
*I *523:A2 I *D sky130_fd_sc_hd__o211ai_1
*I *1037:A I *D sky130_fd_sc_hd__buf_6
*I *571:A2 I *D sky130_fd_sc_hd__o21ai_4
*I *574:X O *D sky130_fd_sc_hd__maj3_2
*CAP
1 *979:A 0.000403522
2 *523:A2 7.67905e-05
3 *1037:A 0
4 *571:A2 0.000382504
5 *574:X 0.000333763
6 *196:40 0.000825793
7 *196:12 0.00106175
8 *523:A2 *300:10 4.95311e-05
9 *571:A2 *571:B1 1.55462e-05
10 *571:A2 *391:18 0
11 *571:A2 *479:16 8.74978e-05
12 *979:A *518:A 0
13 *979:A *526:B 0
14 *979:A *918:A 0
15 *979:A *924:A 7.61424e-05
16 *979:A *208:12 0
17 *979:A *306:12 0
18 *979:A *310:12 0.000118116
19 *979:A *387:12 0.000111658
20 *979:A *434:61 8.27416e-06
21 *979:A *479:14 1.77537e-06
22 *979:A *493:16 0
23 *196:12 *575:A 9.82896e-06
24 *196:12 *679:B 0.000100484
25 *196:12 *978:A 5.56461e-05
26 *196:12 *372:10 0.000488572
27 *196:12 *426:31 0.000163805
28 *196:40 *518:A 0.000120962
29 *196:40 *918:A 0
30 *196:40 *982:A 5.90501e-05
31 *196:40 *208:12 0
32 *196:40 *479:14 1.47102e-05
33 *196:40 *479:16 0.00086318
34 *196:40 *493:16 6.36477e-05
35 *525:B *979:A 4.5539e-05
36 *571:A1 *571:A2 6.50586e-05
37 *913:A *571:A2 0.000165051
38 *928:A *571:A2 1.36691e-05
39 *18:12 *571:A2 0
40 *163:10 *571:A2 5.04829e-06
*RES
1 *574:X *196:12 28.973 
2 *196:12 *571:A2 28.041 
3 *196:12 *1037:A 9.24915 
4 *196:12 *196:40 16.9177 
5 *196:40 *523:A2 15.0271 
6 *196:40 *979:A 24.7517 
*END

*D_NET *195 0.000908661
*CONN
*I *571:A1 I *D sky130_fd_sc_hd__o21ai_4
*I *573:Y O *D sky130_fd_sc_hd__nor2_1
*CAP
1 *571:A1 0.000246293
2 *573:Y 0.000246293
3 *571:A1 *524:C 2.16355e-05
4 *571:A1 *571:A2 6.50586e-05
5 *571:A1 *390:12 5.481e-05
6 *928:A *571:A1 0.000213725
7 *193:6 *571:A1 6.08467e-05
*RES
1 *573:Y *571:A1 25.3223 
*END

*D_NET *194 0.00850308
*CONN
*I *525:B I *D sky130_fd_sc_hd__nand2_1
*I *1045:A I *D sky130_fd_sc_hd__buf_4
*I *572:X O *D sky130_fd_sc_hd__xor3_1
*CAP
1 *525:B 0.00161435
2 *1045:A 0.000135253
3 *572:X 0.000863669
4 *194:14 0.00261328
5 *525:B *522:A 9.99702e-05
6 *525:B *526:B 0
7 *525:B *660:A0 0.0012362
8 *525:B *900:A 1.65872e-05
9 *525:B *979:A 4.5539e-05
10 *525:B *982:A 0.000364383
11 *525:B *208:12 0
12 *1045:A *940:A 0.000269551
13 *1045:A *424:18 5.5413e-05
14 *1045:A *479:33 0
15 *194:14 *617:S 0
16 *194:14 *619:A2 0.000256307
17 *194:14 *660:A0 0.000118166
18 *194:14 *424:18 0.000120546
19 *194:14 *436:39 0.000101148
20 *194:14 *436:41 0.000349168
21 *194:14 *479:33 0
22 *572:C *194:14 6.0497e-05
23 *660:A1 *194:14 1.99271e-05
24 *718:D *525:B 0.000163122
*RES
1 *572:X *194:14 36.0758 
2 *194:14 *1045:A 22.9879 
3 *194:14 *525:B 46.177 
*END

*D_NET *193 0.00404479
*CONN
*I *913:A I *D sky130_fd_sc_hd__buf_6
*I *928:A I *D sky130_fd_sc_hd__buf_6
*I *571:Y O *D sky130_fd_sc_hd__o21ai_4
*CAP
1 *913:A 0.000674656
2 *928:A 0.00065254
3 *571:Y 2.52683e-05
4 *193:6 0.00135246
5 *913:A *528:A 4.70005e-05
6 *913:A *571:A2 0.000165051
7 *913:A *571:B1 0.000457942
8 *913:A *574:C 3.44886e-05
9 *913:A *575:A 0
10 *913:A *575:B 0
11 *913:A *574:A 0
12 *913:A *577:B 7.79998e-05
13 *913:A *578:A 7.74044e-06
14 *913:A *200:12 5.11107e-05
15 *913:A *372:10 0
16 *913:A *426:14 0
17 *928:A *571:A1 0.000213725
18 *928:A *571:A2 1.36691e-05
19 *928:A *387:12 0.000141179
20 *928:A *390:12 0
21 *928:A *391:18 6.91044e-05
22 *193:6 *571:A1 6.08467e-05
23 *1028:A *913:A 0
24 *165:22 *928:A 0
*RES
1 *571:Y *193:6 9.97254 
2 *193:6 *928:A 35.1059 
3 *193:6 *913:A 37.5217 
*END

*D_NET *199 0.00205345
*CONN
*I *574:A I *D sky130_fd_sc_hd__maj3_2
*I *937:A I *D sky130_fd_sc_hd__buf_4
*I *570:Y O *D sky130_fd_sc_hd__clkinv_1
*CAP
1 *574:A 0.000252003
2 *937:A 0
3 *570:Y 0.000111351
4 *199:10 0.000363354
5 *574:A *679:A 0.000139959
6 *574:A *719:DE 3.31745e-05
7 *574:A *910:A 6.50727e-05
8 *574:A *426:14 0.000171288
9 *574:A *431:56 3.82228e-05
10 *199:10 *719:DE 0.000401951
11 *199:10 *417:8 6.50727e-05
12 *199:10 *431:56 0.000129447
13 *913:A *574:A 0
14 *958:A *199:10 6.64392e-05
15 *1028:A *574:A 0.000216118
*RES
1 *570:Y *199:10 15.7115 
2 *199:10 *937:A 9.24915 
3 *199:10 *574:A 27.4864 
*END

*D_NET *191 0.00306719
*CONN
*I *902:A I *D sky130_fd_sc_hd__buf_4
*I *912:A I *D sky130_fd_sc_hd__buf_4
*I *569:Y O *D sky130_fd_sc_hd__o21ai_2
*CAP
1 *902:A 0.000374616
2 *912:A 0.000204495
3 *569:Y 0.000140779
4 *191:8 0.00071989
5 *902:A *588:A 2.29454e-05
6 *902:A *734:C 0
7 *902:A *905:A 0.00018643
8 *902:A *228:39 0.000275126
9 *902:A *465:24 0.000120384
10 *902:A *499:16 2.40736e-05
11 *912:A *506:C1 3.11933e-06
12 *912:A *568:B1 0.000319382
13 *912:A *579:B 0.000204442
14 *912:A *905:A 0.000176222
15 *912:A *228:39 7.14746e-05
16 *912:A *239:16 1.23455e-05
17 *912:A *306:12 0
18 *191:8 *304:20 0.000211464
*RES
1 *569:Y *191:8 16.1364 
2 *191:8 *912:A 21.8099 
3 *191:8 *902:A 24.4786 
*END

*D_NET *190 0.00551593
*CONN
*I *567:A2 I *D sky130_fd_sc_hd__o21ai_4
*I *1009:A I *D sky130_fd_sc_hd__buf_6
*I *568:Y O *D sky130_fd_sc_hd__a21oi_4
*CAP
1 *567:A2 0.00181075
2 *1009:A 0.000243191
3 *568:Y 0.000245962
4 *190:12 0.0022999
5 *567:A2 *512:C1 0.000100869
6 *567:A2 *601:B 0
7 *567:A2 *505:A 9.5538e-06
8 *567:A2 *914:A 2.51809e-05
9 *567:A2 *221:12 1.03594e-05
10 *567:A2 *238:14 0
11 *1009:A *595:A 2.58757e-05
12 *1009:A *942:A 6.08467e-05
13 *1009:A *390:12 3.97785e-05
14 *1009:A *467:18 3.61045e-05
15 *190:12 *568:A1 2.65831e-05
16 *190:12 *680:A 0.000213964
17 *190:12 *220:31 0.000234308
18 *190:12 *220:33 0.000127194
19 *190:12 *460:24 5.51483e-06
20 *167:22 *567:A2 0
*RES
1 *568:Y *190:12 25.5579 
2 *190:12 *1009:A 18.991 
3 *190:12 *567:A2 23.2833 
*END

*D_NET *189 0.00344854
*CONN
*I *1024:A I *D sky130_fd_sc_hd__buf_6
*I *529:A1 I *D sky130_fd_sc_hd__a21o_4
*I *567:Y O *D sky130_fd_sc_hd__o21ai_4
*CAP
1 *1024:A 0
2 *529:A1 0.000286982
3 *567:Y 0.000546506
4 *189:8 0.000833488
5 *529:A1 *529:A2 7.71671e-05
6 *529:A1 *529:B1 0.000502453
7 *529:A1 *530:A2 5.95374e-05
8 *529:A1 *537:A 7.68087e-05
9 *529:A1 *537:B 0.000114584
10 *529:A1 *749:A 1.00901e-05
11 *529:A1 *981:A 0.00012719
12 *529:A1 *334:14 2.19186e-05
13 *529:A1 *480:24 3.96696e-05
14 *189:8 *532:A2 3.31745e-05
15 *189:8 *552:B 6.08467e-05
16 *189:8 *753:C1 9.81698e-05
17 *189:8 *1014:A 6.46815e-05
18 *189:8 *291:6 0.000110297
19 *189:8 *373:16 8.20382e-05
20 *552:A *189:8 0.000302934
*RES
1 *567:Y *189:8 22.7525 
2 *189:8 *529:A1 29.1449 
3 *189:8 *1024:A 9.24915 
*END

*D_NET *187 0.0010173
*CONN
*I *565:B I *D sky130_fd_sc_hd__nand2_1
*I *564:B I *D sky130_fd_sc_hd__xnor2_2
*I *566:X O *D sky130_fd_sc_hd__xor2_2
*CAP
1 *565:B 0.00015046
2 *564:B 0.000203774
3 *566:X 5.33143e-05
4 *564:B *647:A0 1.03594e-05
5 *564:B *647:A1 0.000156823
6 *565:B *919:A 9.87648e-05
7 *565:B *283:14 1.37531e-05
8 *540:A *564:B 1.51189e-05
9 *564:A *565:B 0.000111722
10 *160:18 *564:B 0.000203209
*RES
1 *566:X *564:B 30.9913 
2 *564:B *565:B 23.128 
*END

*D_NET *185 0.00628179
*CONN
*I *533:B1 I *D sky130_fd_sc_hd__o21ai_1
*I *755:A1 I *D sky130_fd_sc_hd__o21ai_0
*I *565:Y O *D sky130_fd_sc_hd__nand2_1
*CAP
1 *533:B1 0.000735821
2 *755:A1 0
3 *565:Y 0.000542148
4 *185:10 0.00127797
5 *533:B1 *539:A 4.9278e-05
6 *533:B1 *587:B 1.12605e-05
7 *533:B1 *647:A1 2.29414e-05
8 *533:B1 *759:A1 0.000542051
9 *533:B1 *766:B1 5.04829e-06
10 *533:B1 *766:C1 7.92757e-06
11 *533:B1 *768:B 2.29386e-05
12 *533:B1 *284:16 0.000969698
13 *533:B1 *284:47 0.000116433
14 *533:B1 *284:72 0.000286046
15 *533:B1 *336:10 0.000243242
16 *533:B1 *336:12 0.000261744
17 *533:B1 *352:24 3.87297e-05
18 *185:10 *539:A 2.99997e-05
19 *185:10 *647:A1 0.000133922
20 *185:10 *919:A 0.000111802
21 *185:10 *283:14 0.000409584
22 *540:A *185:10 2.65831e-05
23 *184:14 *533:B1 0.000101489
24 *184:14 *185:10 0.000335141
*RES
1 *565:Y *185:10 26.5577 
2 *185:10 *755:A1 13.7491 
3 *185:10 *533:B1 41.6646 
*END

*D_NET *184 0.00867481
*CONN
*I *533:A1 I *D sky130_fd_sc_hd__o21ai_1
*I *560:A I *D sky130_fd_sc_hd__nor2_4
*I *751:B I *D sky130_fd_sc_hd__xnor2_1
*I *756:A I *D sky130_fd_sc_hd__nor2_1
*I *564:Y O *D sky130_fd_sc_hd__xnor2_2
*CAP
1 *533:A1 0.000498453
2 *560:A 0.000617394
3 *751:B 0.000117433
4 *756:A 8.9246e-05
5 *564:Y 0.000672609
6 *184:40 0.00148988
7 *184:27 0.000601606
8 *184:14 0.00087199
9 *533:A1 *766:C1 5.78196e-06
10 *533:A1 *285:18 0.00061689
11 *533:A1 *336:10 2.61381e-05
12 *533:A1 *336:12 2.55692e-05
13 *533:A1 *352:24 0.000309579
14 *533:A1 *370:24 0.000153679
15 *560:A *530:A2 0
16 *560:A *532:A2 0.000172091
17 *560:A *753:A1 4.40115e-06
18 *560:A *753:A2 0
19 *560:A *763:D 1.09013e-05
20 *560:A *907:A 4.45115e-05
21 *560:A *285:18 0.000258323
22 *751:B *751:A 0.000117376
23 *751:B *758:B1 8.12793e-05
24 *751:B *344:20 3.82228e-05
25 *756:A *604:C1 1.32504e-05
26 *184:14 *533:B1 0.000101489
27 *184:14 *603:A 7.66482e-06
28 *184:14 *604:C1 2.67125e-06
29 *184:14 *755:B1 0
30 *184:14 *768:B 5.04829e-06
31 *184:14 *884:A 0.000112361
32 *184:14 *185:10 0.000335141
33 *184:14 *253:14 3.56296e-05
34 *184:14 *282:10 0
35 *184:14 *352:24 0.000101489
36 *184:27 *428:8 0.000217641
37 *184:40 *750:A2 0
38 *184:40 *750:B1 0.000113374
39 *184:40 *250:8 0
40 *184:40 *334:14 5.26865e-05
41 *184:40 *334:18 0.000152199
42 *184:40 *428:8 8.36586e-06
43 *540:A *184:14 5.56461e-05
44 *560:B *560:A 4.81452e-05
45 *743:A *560:A 1.55025e-05
46 *969:A *184:27 0.000217641
47 *969:A *184:40 2.43779e-05
48 *1018:A *184:14 4.64416e-05
49 *1018:A *184:40 0
50 *157:26 *533:A1 6.37264e-05
51 *178:10 *560:A 0.000105456
52 *178:30 *560:A 1.55025e-05
*RES
1 *564:Y *184:14 32.7481 
2 *184:14 *756:A 10.9612 
3 *184:14 *184:27 8.82351 
4 *184:27 *751:B 17.2456 
5 *184:27 *184:40 13.2982 
6 *184:40 *560:A 26.3531 
7 *184:40 *533:A1 25.2368 
*END

*D_NET *182 0.00233085
*CONN
*I *938:A I *D sky130_fd_sc_hd__buf_4
*I *561:B I *D sky130_fd_sc_hd__xnor2_2
*I *563:X O *D sky130_fd_sc_hd__xor2_2
*CAP
1 *938:A 0.000363487
2 *561:B 1.94603e-05
3 *563:X 9.38262e-05
4 *182:10 0.000476774
5 *938:A *562:A 0.000154145
6 *938:A *669:A0 4.85806e-05
7 *938:A *397:32 7.92757e-06
8 *938:A *478:24 0.000441308
9 *182:10 *644:A0 3.24699e-05
10 *182:10 *392:213 5.51453e-05
11 *561:A *561:B 0.000110458
12 *561:A *938:A 0.000269033
13 *646:A1 *938:A 6.08467e-05
14 *746:B1 *561:B 0.000112367
15 *746:B1 *938:A 4.95892e-05
16 *24:14 *938:A 3.54295e-05
*RES
1 *563:X *182:10 20.9116 
2 *182:10 *561:B 10.5271 
3 *182:10 *938:A 22.4391 
*END

*D_NET *180 0.00264697
*CONN
*I *533:A2 I *D sky130_fd_sc_hd__o21ai_1
*I *747:B1 I *D sky130_fd_sc_hd__o21ai_0
*I *562:Y O *D sky130_fd_sc_hd__nand2_1
*CAP
1 *533:A2 0.000333225
2 *747:B1 0
3 *562:Y 0.00022536
4 *180:14 0.000558585
5 *533:A2 *534:A1 1.65872e-05
6 *533:A2 *534:A2 0.000258128
7 *533:A2 *744:B 0.000157338
8 *533:A2 *753:A1 3.31705e-05
9 *533:A2 *753:A2 4.04556e-05
10 *533:A2 *218:24 0.000111722
11 *533:A2 *334:14 0.000162649
12 *533:A2 *336:10 1.00981e-05
13 *533:A2 *375:40 0.000107496
14 *533:A2 *392:213 0.000255695
15 *533:A2 *457:16 8.03699e-06
16 *180:14 *562:A 2.33554e-05
17 *747:A1 *180:14 1.95672e-05
18 *747:A2 *533:A2 6.12997e-05
19 *747:A2 *180:14 1.41181e-05
20 *763:B *180:14 0
21 *157:26 *533:A2 0.000238768
22 *179:30 *180:14 1.1312e-05
*RES
1 *562:Y *180:14 22.2313 
2 *180:14 *747:B1 9.24915 
3 *180:14 *533:A2 32.0276 
*END

*D_NET *179 0.00417317
*CONN
*I *744:A I *D sky130_fd_sc_hd__nor2_1
*I *747:A1 I *D sky130_fd_sc_hd__o21ai_0
*I *560:B I *D sky130_fd_sc_hd__nor2_4
*I *743:A I *D sky130_fd_sc_hd__xnor2_1
*I *746:B1 I *D sky130_fd_sc_hd__a211oi_1
*I *561:Y O *D sky130_fd_sc_hd__xnor2_2
*CAP
1 *744:A 0
2 *747:A1 0.000112095
3 *560:B 5.08245e-05
4 *743:A 0.000158439
5 *746:B1 0.000328131
6 *561:Y 0.000206736
7 *179:40 0.000517657
8 *179:30 0.000750868
9 *179:20 0.000451775
10 *560:B *532:A2 1.41976e-05
11 *560:B *560:A 4.81452e-05
12 *560:B *764:A1 0
13 *560:B *764:A2 4.36818e-05
14 *743:A *560:A 1.55025e-05
15 *743:A *743:B 0.000173538
16 *743:A *764:A2 0.000113877
17 *746:B1 *534:A2 0.000111584
18 *746:B1 *561:B 0.000112367
19 *746:B1 *763:A 0.000352392
20 *746:B1 *938:A 4.95892e-05
21 *746:B1 *397:32 1.56049e-05
22 *747:A1 *739:B 0
23 *747:A1 *742:A1 1.53046e-05
24 *747:A1 *742:B1 8.47173e-06
25 *747:A1 *180:14 1.95672e-05
26 *747:A1 *397:32 5.85325e-05
27 *179:20 *766:A2 8.36586e-06
28 *179:20 *334:14 4.49767e-05
29 *179:20 *335:8 2.7736e-05
30 *179:30 *742:B1 1.99699e-05
31 *179:30 *753:C1 0
32 *179:30 *180:14 1.1312e-05
33 *179:30 *334:14 4.91074e-05
34 *179:40 *532:A2 3.5534e-06
35 *179:40 *739:B 2.52912e-05
36 *179:40 *753:C1 0
37 *179:40 *763:D 3.49097e-05
38 *561:A *746:B1 8.35465e-05
39 *157:26 *743:A 1.80176e-05
40 *169:12 *743:A 5.9036e-05
41 *178:30 *743:A 5.84684e-05
*RES
1 *561:Y *746:B1 26.4315 
2 *746:B1 *179:20 16.4116 
3 *179:20 *179:30 6.92494 
4 *179:30 *179:40 10.3915 
5 *179:40 *743:A 14.9881 
6 *179:40 *560:B 11.1059 
7 *179:30 *747:A1 16.6193 
8 *179:20 *744:A 13.7491 
*END

*D_NET *178 0.00564478
*CONN
*I *764:B1 I *D sky130_fd_sc_hd__o211ai_1
*I *763:B I *D sky130_fd_sc_hd__nand4_1
*I *752:C I *D sky130_fd_sc_hd__nand4_1
*I *532:A1 I *D sky130_fd_sc_hd__a21oi_2
*I *552:A I *D sky130_fd_sc_hd__nand2_2
*I *560:Y O *D sky130_fd_sc_hd__nor2_4
*CAP
1 *764:B1 0.000123131
2 *763:B 0.000431359
3 *752:C 0.000583341
4 *532:A1 0
5 *552:A 7.27033e-05
6 *560:Y 0.000123131
7 *178:30 0.00117623
8 *178:10 0.000163007
9 *178:4 0.000251839
10 *552:A *532:A2 0.000112361
11 *552:A *189:8 0.000302934
12 *552:A *267:8 6.08467e-05
13 *552:A *373:16 2.56816e-05
14 *752:C *590:A2 5.04829e-06
15 *752:C *737:B 0
16 *752:C *752:A 0
17 *752:C *752:D 3.6654e-05
18 *752:C *753:A2 0.000112987
19 *752:C *753:B1 3.43755e-05
20 *752:C *764:A2 4.3663e-05
21 *752:C *766:A1 0.000154937
22 *752:C *375:8 7.83059e-05
23 *752:C *477:35 0
24 *752:C *480:24 0.000219526
25 *763:B *732:A 0.000244586
26 *763:B *739:B 6.63186e-05
27 *763:B *741:B 5.08751e-05
28 *763:B *742:A1 6.56365e-05
29 *763:B *743:B 1.64999e-05
30 *763:B *746:A2 5.69782e-06
31 *763:B *763:C 1.41976e-05
32 *763:B *763:D 5.01835e-05
33 *763:B *766:A2 0
34 *763:B *180:14 0
35 *763:B *218:24 1.86487e-05
36 *763:B *264:27 7.26959e-06
37 *763:B *341:12 4.31485e-06
38 *763:B *375:23 0.000196453
39 *763:B *375:40 2.39952e-05
40 *763:B *381:6 6.08467e-05
41 *763:B *381:10 2.73145e-05
42 *763:B *397:32 2.35428e-05
43 *764:B1 *532:A2 1.81476e-05
44 *764:B1 *764:A1 3.13805e-06
45 *764:B1 *289:25 3.21238e-05
46 *178:10 *560:A 0.000105456
47 *178:10 *763:D 1.27119e-05
48 *178:30 *560:A 1.55025e-05
49 *178:30 *743:A 5.84684e-05
50 *178:30 *753:A2 0.000102981
51 *178:30 *763:D 0.000133973
52 *178:30 *341:12 1.30981e-05
53 *33:32 *752:C 3.55968e-05
54 *157:26 *178:10 1.5714e-05
55 *157:26 *178:30 0.000109421
*RES
1 *560:Y *178:4 9.24915 
2 *178:4 *178:10 11.2472 
3 *178:10 *552:A 12.7456 
4 *178:10 *532:A1 9.24915 
5 *178:4 *178:30 9.78145 
6 *178:30 *752:C 26.0582 
7 *178:30 *763:B 34.7278 
8 *560:Y *764:B1 21.4642 
*END

*D_NET *176 0.00017628
*CONN
*I *558:B I *D sky130_fd_sc_hd__nand2_1
*I *559:X O *D sky130_fd_sc_hd__xor2_1
*CAP
1 *558:B 3.29004e-05
2 *559:X 3.29004e-05
3 *558:B *558:A 1.59756e-05
4 *558:B *446:53 6.3657e-05
5 *557:B *558:B 5.04829e-06
6 *959:A *558:B 2.57986e-05
*RES
1 *559:X *558:B 19.8004 
*END

*D_NET *174 0.00675568
*CONN
*I *747:A2 I *D sky130_fd_sc_hd__o21ai_0
*I *534:B1 I *D sky130_fd_sc_hd__o21ai_2
*I *558:Y O *D sky130_fd_sc_hd__nand2_1
*CAP
1 *747:A2 0.00105755
2 *534:B1 0.000300297
3 *558:Y 0.000624909
4 *174:10 0.00198275
5 *534:B1 *534:A2 8.13812e-06
6 *534:B1 *696:DE 2.57585e-05
7 *534:B1 *696:CLK 3.84199e-05
8 *534:B1 *392:213 9.75148e-06
9 *534:B1 *450:72 0.000215776
10 *534:B1 *478:18 2.35073e-05
11 *747:A2 *533:A2 6.12997e-05
12 *747:A2 *534:A2 0.000759185
13 *747:A2 *562:A 4.49182e-05
14 *747:A2 *883:A 3.82176e-05
15 *747:A2 *180:14 1.41181e-05
16 *747:A2 *218:24 0.000107496
17 *747:A2 *334:14 0.000162649
18 *174:10 *562:A 9.31143e-05
19 *174:10 *677:A 9.42624e-05
20 *174:10 *726:DE 1.87825e-05
21 *174:10 *403:52 0.00014527
22 *174:10 *450:68 0.000315009
23 *174:10 *450:72 0.000470232
24 *174:10 *478:18 2.25583e-07
25 *643:A2 *174:10 0
26 *646:B1 *747:A2 4.82001e-06
27 *696:D *534:B1 7.5889e-05
28 *959:A *174:10 6.33402e-05
*RES
1 *558:Y *174:10 32.4994 
2 *174:10 *534:B1 21.4022 
3 *174:10 *747:A2 32.6057 
*END

*D_NET *1 0.00198174
*CONN
*I *1020:A I *D sky130_fd_sc_hd__buf_4
*I *553:A I *D sky130_fd_sc_hd__nor2_2
*I *1001:A I *D sky130_fd_sc_hd__buf_4
*I *557:X O *D sky130_fd_sc_hd__xnor3_2
*CAP
1 *1020:A 2.41032e-05
2 *553:A 0.000161838
3 *1001:A 0
4 *557:X 0.00019605
5 *1:16 0.000369221
6 *1:10 0.000427536
7 *553:A *553:B 0.000164829
8 *553:A *731:A1 5.03013e-06
9 *553:A *266:14 2.8212e-05
10 *1020:A *419:14 6.36477e-05
11 *1:10 *259:290 1.31897e-05
12 *1:10 *450:40 0.0001251
13 *1:16 *731:A1 7.5034e-05
14 *1:16 *450:40 0.000162423
15 *1:16 *457:16 0.00016553
*RES
1 *557:X *1:10 17.6896 
2 *1:10 *1:16 11.0742 
3 *1:16 *1001:A 9.24915 
4 *1:16 *553:A 13.903 
5 *1:10 *1020:A 14.4725 
*END

*D_NET *262 0.00257714
*CONN
*I *555:B I *D sky130_fd_sc_hd__nand2_1
*I *731:A2 I *D sky130_fd_sc_hd__o211ai_1
*I *556:X O *D sky130_fd_sc_hd__xor2_1
*CAP
1 *555:B 0
2 *731:A2 0.000521358
3 *556:X 0.000170373
4 *262:10 0.000691731
5 *731:A2 *553:B 3.75608e-05
6 *731:A2 *731:A1 0.000100515
7 *731:A2 *264:10 0.000250199
8 *731:A2 *450:8 0.000547832
9 *262:10 *553:B 6.94439e-05
10 *262:10 *731:A1 4.94e-06
11 *262:10 *1021:A 7.14746e-05
12 *262:10 *477:10 0.000111708
*RES
1 *556:X *262:10 17.6896 
2 *262:10 *731:A2 25.5878 
3 *262:10 *555:B 13.7491 
*END

*D_NET *264 0.00607559
*CONN
*I *534:A2 I *D sky130_fd_sc_hd__o21ai_2
*I *746:A1 I *D sky130_fd_sc_hd__a211oi_1
*I *732:A I *D sky130_fd_sc_hd__nand2_1
*I *555:Y O *D sky130_fd_sc_hd__nand2_1
*CAP
1 *534:A2 0.000466515
2 *746:A1 0
3 *732:A 0.000184342
4 *555:Y 0.000303852
5 *264:27 0.000749525
6 *264:10 0.000771204
7 *534:A2 *644:A1 0.000222438
8 *534:A2 *753:B2 0.000172003
9 *534:A2 *763:A 1.76193e-05
10 *534:A2 *766:A2 4.00876e-05
11 *534:A2 *397:32 0.000358177
12 *534:A2 *478:18 1.82719e-05
13 *732:A *607:B 1.23606e-05
14 *732:A *739:B 7.74361e-05
15 *732:A *742:B1 1.02986e-05
16 *732:A *763:D 3.60618e-05
17 *732:A *456:18 5.39264e-05
18 *264:10 *553:B 0.000122098
19 *264:10 *607:B 3.26966e-05
20 *264:10 *385:16 4.30616e-05
21 *264:10 *456:18 1.01585e-05
22 *264:10 *466:18 1.29665e-05
23 *264:27 *737:B 0
24 *264:27 *746:A2 0.000214106
25 *264:27 *763:A 1.4106e-05
26 *264:27 *397:32 0.000240092
27 *533:A2 *534:A2 0.000258128
28 *534:B1 *534:A2 8.13812e-06
29 *646:B1 *534:A2 0.000126058
30 *731:A2 *264:10 0.000250199
31 *746:B1 *534:A2 0.000111584
32 *747:A2 *534:A2 0.000759185
33 *763:B *732:A 0.000244586
34 *763:B *264:27 7.26959e-06
35 *1026:A *534:A2 9.16785e-05
36 *157:26 *534:A2 1.65872e-05
37 *218:24 *534:A2 7.09666e-06
38 *259:253 *534:A2 1.16709e-05
*RES
1 *555:Y *264:10 22.0498 
2 *264:10 *732:A 19.526 
3 *264:10 *264:27 10.9226 
4 *264:27 *746:A1 9.24915 
5 *264:27 *534:A2 47.1893 
*END

*D_NET *265 0.0028955
*CONN
*I *1021:A I *D sky130_fd_sc_hd__buf_4
*I *553:B I *D sky130_fd_sc_hd__nor2_2
*I *554:X O *D sky130_fd_sc_hd__xnor3_2
*CAP
1 *1021:A 9.04626e-05
2 *553:B 0.000156944
3 *554:X 0.000489485
4 *265:8 0.000736891
5 *553:B *607:B 9.61668e-05
6 *553:B *731:A1 3.61531e-05
7 *553:B *266:14 7.01935e-06
8 *1021:A *607:B 3.51249e-05
9 *1021:A *450:40 0
10 *265:8 *466:18 0.000610559
11 *265:8 *466:33 0.000171288
12 *553:A *553:B 0.000164829
13 *731:A2 *553:B 3.75608e-05
14 *262:10 *553:B 6.94439e-05
15 *262:10 *1021:A 7.14746e-05
16 *264:10 *553:B 0.000122098
*RES
1 *554:X *265:8 22.237 
2 *265:8 *553:B 20.809 
3 *265:8 *1021:A 16.4116 
*END

*D_NET *266 0.00299502
*CONN
*I *922:A I *D sky130_fd_sc_hd__buf_4
*I *738:B1_N I *D sky130_fd_sc_hd__a21boi_0
*I *553:Y O *D sky130_fd_sc_hd__nor2_2
*CAP
1 *922:A 0.000416114
2 *738:B1_N 0
3 *553:Y 0.00032136
4 *266:14 0.000737474
5 *922:A *552:B 9.13616e-06
6 *922:A *732:B 0.000109409
7 *922:A *742:A2 0.000137861
8 *922:A *752:D 0.000123665
9 *922:A *763:C 2.9784e-05
10 *922:A *375:8 2.96784e-06
11 *922:A *375:23 1.2954e-05
12 *922:A *381:10 0
13 *922:A *478:18 1.5714e-05
14 *922:A *491:46 1.80425e-05
15 *922:A *496:18 1.79196e-05
16 *266:14 *731:A1 0.000488107
17 *266:14 *742:A2 4.01777e-06
18 *266:14 *491:46 0.000123651
19 *553:A *266:14 2.8212e-05
20 *553:B *266:14 7.01935e-06
21 *738:A1 *266:14 6.13051e-05
22 *738:A2 *922:A 3.35194e-05
23 *980:A *266:14 0.000296789
*RES
1 *553:Y *266:14 29.8279 
2 *266:14 *738:B1_N 9.24915 
3 *266:14 *922:A 28.3946 
*END

*D_NET *267 0.00439342
*CONN
*I *907:A I *D sky130_fd_sc_hd__buf_4
*I *753:A2 I *D sky130_fd_sc_hd__o221ai_4
*I *552:Y O *D sky130_fd_sc_hd__nand2_2
*CAP
1 *907:A 0.000362271
2 *753:A2 0.00103136
3 *552:Y 1.58074e-05
4 *267:8 0.00140944
5 *753:A2 *753:A1 3.89811e-05
6 *753:A2 *753:B1 0.000259838
7 *753:A2 *763:D 2.79269e-05
8 *753:A2 *766:A1 0.000207993
9 *753:A2 *289:6 4.31539e-05
10 *753:A2 *341:12 0.000253678
11 *753:A2 *478:18 6.4963e-05
12 *907:A *537:A 5.31286e-05
13 *907:A *749:A 0.000121019
14 *907:A *341:12 6.85851e-05
15 *267:8 *373:16 2.58757e-05
16 *533:A2 *753:A2 4.04556e-05
17 *552:A *267:8 6.08467e-05
18 *560:A *753:A2 0
19 *560:A *907:A 4.45115e-05
20 *752:C *753:A2 0.000112987
21 *157:26 *753:A2 4.7618e-05
22 *178:30 *753:A2 0.000102981
*RES
1 *552:Y *267:8 14.4725 
2 *267:8 *753:A2 30.3198 
3 *267:8 *907:A 22.3473 
*END

*D_NET *269 0.00159853
*CONN
*I *550:B I *D sky130_fd_sc_hd__xnor2_2
*I *531:A2 I *D sky130_fd_sc_hd__a221oi_2
*I *551:X O *D sky130_fd_sc_hd__xor2_2
*CAP
1 *550:B 0.000143355
2 *531:A2 6.71243e-05
3 *551:X 0.00022702
4 *269:6 0.0004375
5 *550:B *531:C1 0
6 *550:B *700:DE 1.01794e-05
7 *550:B *701:DE 2.81892e-06
8 *550:B *392:230 9.04668e-05
9 *546:B *550:B 0.000114594
10 *550:A *550:B 0.000111802
11 *551:B *531:A2 6.36477e-05
12 *551:B *269:6 0.00015147
13 *953:A *531:A2 2.29454e-05
14 *953:A *269:6 2.23519e-05
15 *36:10 *269:6 0.000116754
16 *246:21 *550:B 1.64983e-05
*RES
1 *551:X *269:6 14.964 
2 *269:6 *531:A2 11.1059 
3 *269:6 *550:B 22.6049 
*END

*D_NET *246 0.00271912
*CONN
*I *921:A I *D sky130_fd_sc_hd__buf_4
*I *536:A I *D sky130_fd_sc_hd__nor2_1
*I *546:A I *D sky130_fd_sc_hd__nor2_1
*I *550:Y O *D sky130_fd_sc_hd__xnor2_2
*CAP
1 *921:A 0.000117782
2 *536:A 0
3 *546:A 0.000184844
4 *550:Y 5.93915e-05
5 *246:21 0.00028507
6 *246:6 0.000411524
7 *546:A *546:B 7.01704e-05
8 *546:A *701:DE 6.08467e-05
9 *921:A *536:B 0.000216535
10 *921:A *603:B 3.31745e-05
11 *921:A *701:DE 0.000360784
12 *246:6 *700:DE 0.000102003
13 *246:6 *701:DE 0.000162677
14 *246:21 *531:C1 4.7903e-06
15 *246:21 *546:B 3.74601e-05
16 *246:21 *550:B 1.64983e-05
17 *246:21 *701:DE 0.0001729
18 *550:A *546:A 6.08467e-05
19 *550:A *246:6 0.000297132
20 *701:D *921:A 4.58907e-05
21 *162:6 *921:A 1.88014e-05
*RES
1 *550:Y *246:6 12.7456 
2 *246:6 *546:A 13.8789 
3 *246:6 *246:21 13.3235 
4 *246:21 *536:A 9.24915 
5 *246:21 *921:A 15.0122 
*END

*D_NET *272 0.00216199
*CONN
*I *547:A I *D sky130_fd_sc_hd__xnor2_2
*I *548:B I *D sky130_fd_sc_hd__nand2_1
*I *549:X O *D sky130_fd_sc_hd__xor2_2
*CAP
1 *547:A 0.000301323
2 *548:B 0.000312149
3 *549:X 0
4 *272:4 0.000613472
5 *547:A *715:DE 3.39313e-06
6 *547:A *278:12 0.000370684
7 *547:A *448:93 0.000204562
8 *547:A *491:52 4.81452e-05
9 *548:B *701:CLK 1.91246e-05
10 *548:B *448:103 7.79956e-05
11 *548:B *491:52 0.000114655
12 *547:B *547:A 7.01935e-06
13 *548:A *548:B 2.30306e-05
14 *256:10 *548:B 6.64392e-05
15 *257:10 *548:B 0
*RES
1 *549:X *272:4 9.24915 
2 *272:4 *548:B 27.2318 
3 *272:4 *547:A 27.7595 
*END

*D_NET *256 0.00473962
*CONN
*I *536:B I *D sky130_fd_sc_hd__nor2_1
*I *606:B1 I *D sky130_fd_sc_hd__o21ai_0
*I *548:Y O *D sky130_fd_sc_hd__nand2_1
*CAP
1 *536:B 0.00038332
2 *606:B1 0.000531586
3 *548:Y 0.000215109
4 *256:10 0.00113002
5 *536:B *531:C1 4.3116e-06
6 *536:B *539:A 7.91423e-05
7 *536:B *546:B 0
8 *536:B *603:B 6.50727e-05
9 *536:B *288:10 0.000643535
10 *606:B1 *606:A2 2.20702e-05
11 *606:B1 *656:S 7.70918e-05
12 *606:B1 *700:DE 2.22198e-05
13 *606:B1 *920:A 0.000559559
14 *256:10 *548:B 6.64392e-05
15 *256:10 *257:10 9.96342e-05
16 *256:10 *259:243 8.20492e-06
17 *256:10 *278:12 0
18 *256:10 *278:31 1.55462e-05
19 *256:10 *288:10 8.62625e-06
20 *605:A2 *536:B 4.82313e-05
21 *658:A2 *256:10 0
22 *701:D *536:B 0.000174934
23 *887:A *606:B1 0.00033733
24 *921:A *536:B 0.000216535
25 *161:12 *536:B 2.07055e-05
26 *161:12 *256:10 1.03986e-05
*RES
1 *548:Y *256:10 18.5201 
2 *256:10 *606:B1 34.0711 
3 *256:10 *536:B 28.3497 
*END

*D_NET *258 0.00670163
*CONN
*I *546:B I *D sky130_fd_sc_hd__nor2_1
*I *767:A I *D sky130_fd_sc_hd__xnor2_1
*I *768:A I *D sky130_fd_sc_hd__nor2_1
*I *606:A1 I *D sky130_fd_sc_hd__o21ai_0
*I *547:Y O *D sky130_fd_sc_hd__xnor2_2
*CAP
1 *546:B 0.000717974
2 *767:A 2.0864e-05
3 *768:A 0.000161371
4 *606:A1 0
5 *547:Y 0.000681364
6 *258:25 0.000451567
7 *258:23 0.00125241
8 *258:10 0.000946471
9 *546:B *550:B 0.000114594
10 *546:B *700:DE 0.000303709
11 *546:B *911:A 1.31657e-05
12 *546:B *259:243 0.000160617
13 *767:A *352:24 9.95922e-06
14 *768:A *759:A1 2.64259e-06
15 *768:A *761:C1 5.42603e-05
16 *768:A *352:24 9.49279e-05
17 *258:10 *656:S 3.31882e-05
18 *258:10 *700:DE 0
19 *258:10 *278:12 0
20 *258:10 *360:8 0
21 *258:23 *656:S 0.000221678
22 *258:23 *658:A1 0.000143918
23 *258:23 *360:8 0
24 *258:25 *658:A1 6.55651e-05
25 *258:25 *884:A 0.000200794
26 *536:B *546:B 0
27 *546:A *546:B 7.01704e-05
28 *547:B *258:10 9.45563e-05
29 *550:A *546:B 3.53886e-05
30 *604:C1 *546:B 0
31 *605:A2 *546:B 0
32 *605:A2 *768:A 2.41274e-06
33 *605:A2 *258:25 4.34442e-05
34 *605:B1 *258:23 6.79827e-05
35 *657:A *258:23 2.16355e-05
36 *658:A2 *258:25 3.52622e-05
37 *658:B1 *258:23 2.30636e-05
38 *701:D *546:B 0
39 *769:B *546:B 0
40 *20:19 *258:10 3.58185e-05
41 *161:12 *258:25 0.00025175
42 *246:21 *546:B 3.74601e-05
43 *253:14 *768:A 9.07988e-05
44 *253:18 *768:A 1.80225e-05
45 *254:12 *768:A 0.000110458
46 *254:12 *258:25 0.000112367
*RES
1 *547:Y *258:10 29.7348 
2 *258:10 *606:A1 13.7491 
3 *258:10 *258:23 12.3199 
4 *258:23 *258:25 8.48785 
5 *258:25 *768:A 22.3827 
6 *258:25 *767:A 9.82786 
7 *258:23 *546:B 38.2751 
*END

*D_NET *274 0.00211053
*CONN
*I *531:B2 I *D sky130_fd_sc_hd__a221oi_2
*I *911:A I *D sky130_fd_sc_hd__buf_4
*I *546:Y O *D sky130_fd_sc_hd__nor2_1
*CAP
1 *531:B2 6.8815e-05
2 *911:A 0.000604846
3 *546:Y 0
4 *274:4 0.000673661
5 *531:B2 *765:B1 3.20407e-05
6 *531:B2 *288:10 0.000124086
7 *911:A *748:A 0.000418787
8 *911:A *1040:A 2.41483e-05
9 *911:A *334:14 0.000117594
10 *546:B *911:A 1.31657e-05
11 *769:B *911:A 3.24105e-05
12 *770:C1 *531:B2 0
13 *249:18 *911:A 9.80242e-07
*RES
1 *546:Y *274:4 9.24915 
2 *274:4 *911:A 28.9842 
3 *274:4 *531:B2 20.4964 
*END

*D_NET *276 0.00113843
*CONN
*I *543:B I *D sky130_fd_sc_hd__xnor2_2
*I *544:B I *D sky130_fd_sc_hd__nand2_1
*I *545:X O *D sky130_fd_sc_hd__xor2_2
*CAP
1 *543:B 8.50872e-05
2 *544:B 0.000110642
3 *545:X 0.000173673
4 *276:6 0.000369402
5 *543:B *448:93 0
6 *543:A *543:B 2.29838e-05
7 *545:B *543:B 9.64718e-05
8 *545:B *544:B 6.50727e-05
9 *545:B *276:6 4.39405e-05
10 *955:A *544:B 6.79171e-05
11 *955:A *276:6 2.6437e-05
12 *6:16 *276:6 7.68039e-05
*RES
1 *545:X *276:6 13.8548 
2 *276:6 *544:B 12.2151 
3 *276:6 *543:B 20.9116 
*END

*D_NET *257 0.00361546
*CONN
*I *535:B1 I *D sky130_fd_sc_hd__o21ai_2
*I *606:A2 I *D sky130_fd_sc_hd__o21ai_0
*I *544:Y O *D sky130_fd_sc_hd__nand2_1
*CAP
1 *535:B1 0
2 *606:A2 0.000635524
3 *544:Y 0.000415685
4 *257:10 0.00105121
5 *606:A2 *656:A0 2.16355e-05
6 *606:A2 *656:S 0.000364665
7 *606:A2 *278:18 6.60082e-05
8 *257:10 *545:B 0.000132114
9 *257:10 *548:B 0
10 *257:10 *701:CLK 0
11 *257:10 *259:231 6.04133e-05
12 *257:10 *259:243 0.000158358
13 *257:10 *278:12 0
14 *257:10 *413:14 6.49659e-05
15 *257:10 *448:103 6.6339e-05
16 *543:A *257:10 0.000122842
17 *549:B *257:10 0.000166836
18 *606:B1 *606:A2 2.20702e-05
19 *658:A2 *606:A2 0.000167163
20 *887:A *606:A2 0
21 *7:10 *257:10 0
22 *256:10 *257:10 9.96342e-05
*RES
1 *544:Y *257:10 33.3692 
2 *257:10 *606:A2 20.4136 
3 *257:10 *535:B1 9.24915 
*END

*D_NET *278 0.0052389
*CONN
*I *1038:A I *D sky130_fd_sc_hd__buf_4
*I *768:B I *D sky130_fd_sc_hd__nor2_1
*I *1042:A I *D sky130_fd_sc_hd__buf_4
*I *535:A2 I *D sky130_fd_sc_hd__o21ai_2
*I *543:Y O *D sky130_fd_sc_hd__xnor2_2
*CAP
1 *1038:A 0
2 *768:B 0.000232944
3 *1042:A 0
4 *535:A2 5.53553e-05
5 *543:Y 0.000472916
6 *278:31 0.000392529
7 *278:18 0.000309075
8 *278:12 0.000567051
9 *535:A2 *656:A0 0.000111722
10 *535:A2 *920:A 0.000164815
11 *768:B *539:A 9.13731e-05
12 *768:B *701:CLK 0.000107865
13 *768:B *759:A1 2.16355e-05
14 *768:B *761:C1 0.000242278
15 *768:B *352:24 1.06199e-05
16 *278:12 *715:DE 9.31914e-05
17 *278:18 *656:A0 0.000102003
18 *278:18 *656:S 0.000114584
19 *278:18 *920:A 0.00017939
20 *278:31 *288:10 0.000280034
21 *533:B1 *768:B 2.29386e-05
22 *547:A *278:12 0.000370684
23 *547:B *278:12 4.40966e-05
24 *604:B1 *768:B 0.000104064
25 *604:C1 *768:B 6.18243e-06
26 *606:A2 *278:18 6.60082e-05
27 *656:A1 *278:18 6.64392e-05
28 *658:A2 *278:18 0.000165521
29 *700:D *278:12 0.000160384
30 *887:A *278:18 0.00029856
31 *20:19 *278:12 3.21432e-05
32 *184:14 *768:B 5.04829e-06
33 *256:10 *278:12 0
34 *256:10 *278:31 1.55462e-05
35 *257:10 *278:12 0
36 *258:10 *278:12 0
37 *259:243 *278:31 0.000331903
*RES
1 *543:Y *278:12 32.5709 
2 *278:12 *278:18 7.01694 
3 *278:18 *535:A2 11.6605 
4 *278:18 *278:31 10.8998 
5 *278:31 *1042:A 13.7491 
6 *278:31 *768:B 22.327 
7 *278:12 *1038:A 9.24915 
*END

*D_NET *280 0.00198463
*CONN
*I *540:B I *D sky130_fd_sc_hd__xnor2_1
*I *541:B I *D sky130_fd_sc_hd__nand2_1
*I *542:X O *D sky130_fd_sc_hd__xor2_1
*CAP
1 *540:B 0.000140382
2 *541:B 0.000158672
3 *542:X 4.95906e-05
4 *280:10 0.000348645
5 *540:B *656:A0 0.00033601
6 *540:B *282:10 0.00012958
7 *541:B *282:10 0.000307806
8 *541:B *416:10 6.59098e-05
9 *280:10 *656:A0 4.9e-05
10 *280:10 *435:75 6.27718e-05
11 *542:A *280:10 8.62474e-06
12 *259:196 *541:B 0.000154434
13 *259:211 *541:B 0.000112361
14 *259:211 *280:10 6.08467e-05
*RES
1 *542:X *280:10 15.474 
2 *280:10 *541:B 20.0427 
3 *280:10 *540:B 19.7337 
*END

*D_NET *282 0.00216071
*CONN
*I *755:B1 I *D sky130_fd_sc_hd__o21ai_0
*I *535:A1 I *D sky130_fd_sc_hd__o21ai_2
*I *541:Y O *D sky130_fd_sc_hd__nand2_1
*CAP
1 *755:B1 0.000206194
2 *535:A1 0
3 *541:Y 0.000535521
4 *282:10 0.000741715
5 *755:B1 *656:A0 3.67528e-06
6 *755:B1 *352:24 6.27782e-05
7 *282:10 *647:A1 0
8 *282:10 *656:A0 5.75903e-05
9 *540:B *282:10 0.00012958
10 *541:B *282:10 0.000307806
11 *540:A *282:10 0
12 *184:14 *755:B1 0
13 *184:14 *282:10 0
14 *253:14 *755:B1 8.38102e-05
15 *253:18 *755:B1 3.20407e-05
16 *259:243 *755:B1 0
*RES
1 *541:Y *282:10 26.1368 
2 *282:10 *535:A1 13.7491 
3 *282:10 *755:B1 18.6983 
*END

*D_NET *283 0.00482525
*CONN
*I *756:B I *D sky130_fd_sc_hd__nor2_1
*I *755:A2 I *D sky130_fd_sc_hd__o21ai_0
*I *539:B I *D sky130_fd_sc_hd__nor2_4
*I *919:A I *D sky130_fd_sc_hd__buf_4
*I *540:Y O *D sky130_fd_sc_hd__xnor2_1
*CAP
1 *756:B 9.93202e-05
2 *755:A2 0.000159427
3 *539:B 1.43525e-05
4 *919:A 0.000229515
5 *540:Y 0.000627356
6 *283:31 0.000330126
7 *283:27 0.000464067
8 *283:14 0.00106527
9 *539:B *539:A 4.76161e-06
10 *755:A2 *539:A 5.8493e-05
11 *756:B *344:20 0.000126253
12 *283:27 *565:A 3.01797e-05
13 *283:27 *754:B 0
14 *283:27 *344:20 8.03393e-06
15 *283:31 *539:A 5.31465e-05
16 *540:A *283:14 0.000138211
17 *564:A *283:14 0.000160617
18 *565:B *919:A 9.87648e-05
19 *565:B *283:14 1.37531e-05
20 *604:C1 *756:B 6.08467e-05
21 *969:A *756:B 0.000134287
22 *969:A *283:27 0.000351444
23 *159:20 *283:27 5.31805e-05
24 *159:20 *283:31 2.24582e-05
25 *185:10 *919:A 0.000111802
26 *185:10 *283:14 0.000409584
*RES
1 *540:Y *283:14 23.3795 
2 *283:14 *919:A 15.5427 
3 *283:14 *283:27 11.315 
4 *283:27 *283:31 7.99641 
5 *283:31 *539:B 9.82786 
6 *283:31 *755:A2 12.7697 
7 *283:27 *756:B 17.135 
*END

*D_NET *284 0.0103125
*CONN
*I *538:B I *D sky130_fd_sc_hd__nand2_1
*I *765:A1 I *D sky130_fd_sc_hd__a21oi_1
*I *764:C1 I *D sky130_fd_sc_hd__o211ai_1
*I *763:D I *D sky130_fd_sc_hd__nand4_1
*I *539:Y O *D sky130_fd_sc_hd__nor2_4
*CAP
1 *538:B 0
2 *765:A1 0.000329247
3 *764:C1 8.99891e-05
4 *763:D 0.000871145
5 *539:Y 0.000649517
6 *284:72 0.000656684
7 *284:47 0.000493684
8 *284:16 0.00159692
9 *763:D *532:A2 0
10 *763:D *532:B1 0.000560113
11 *763:D *607:B 0.000200382
12 *763:D *739:B 0.000191715
13 *763:D *742:A2 0
14 *763:D *742:B1 5.04829e-06
15 *763:D *743:B 2.86876e-05
16 *763:D *746:A2 8.20618e-05
17 *763:D *753:A1 0.000104239
18 *763:D *763:C 1.78868e-05
19 *763:D *766:A1 1.32412e-05
20 *764:C1 *766:A2 2.16355e-05
21 *764:C1 *766:B1 6.13051e-05
22 *764:C1 *289:25 1.61631e-05
23 *765:A1 *765:B1 7.92757e-06
24 *765:A1 *1039:A 3.54295e-05
25 *765:A1 *285:18 7.26748e-05
26 *765:A1 *290:10 7.60183e-05
27 *765:A1 *370:24 0.000133879
28 *284:16 *587:B 0.000129853
29 *284:16 *647:A1 0.000347419
30 *284:16 *761:C1 0.000301742
31 *284:16 *884:A 1.85534e-05
32 *284:16 *1040:A 6.47897e-05
33 *284:16 *334:18 0
34 *284:16 *370:24 8.65066e-05
35 *284:16 *428:8 0.000101782
36 *284:47 *587:B 0.000108388
37 *284:72 *766:B1 2.77625e-06
38 *284:72 *289:25 0
39 *533:B1 *284:16 0.000969698
40 *533:B1 *284:47 0.000116433
41 *533:B1 *284:72 0.000286046
42 *560:A *763:D 1.09013e-05
43 *604:B1 *284:16 0.000308088
44 *732:A *763:D 3.60618e-05
45 *753:A2 *763:D 2.79269e-05
46 *763:B *763:D 5.01835e-05
47 *1012:A *284:16 8.92568e-06
48 *157:26 *763:D 0.000839248
49 *178:10 *763:D 1.27119e-05
50 *178:30 *763:D 0.000133973
51 *179:40 *763:D 3.49097e-05
*RES
1 *539:Y *284:16 41.4008 
2 *284:16 *763:D 36.8705 
3 *284:16 *284:47 6.95487 
4 *284:47 *764:C1 11.6364 
5 *284:47 *284:72 8.82543 
6 *284:72 *765:A1 24.5474 
7 *284:72 *538:B 9.24915 
*END

*D_NET *285 0.00317742
*CONN
*I *530:A1 I *D sky130_fd_sc_hd__o21ai_2
*I *537:B I *D sky130_fd_sc_hd__nor2_2
*I *538:Y O *D sky130_fd_sc_hd__nand2_1
*CAP
1 *530:A1 0
2 *537:B 3.49859e-05
3 *538:Y 0.000706757
4 *285:18 0.000741743
5 *537:B *537:A 1.55025e-05
6 *285:18 *530:A2 9.84424e-06
7 *285:18 *753:A1 0.000175026
8 *285:18 *765:B1 0.000149313
9 *285:18 *766:C1 7.49936e-05
10 *285:18 *770:B1 2.55661e-06
11 *285:18 *290:10 9.82838e-06
12 *285:18 *370:24 9.08421e-05
13 *529:A1 *537:B 0.000114584
14 *533:A1 *285:18 0.00061689
15 *560:A *285:18 0.000258323
16 *765:A1 *285:18 7.26748e-05
17 *770:C1 *285:18 9.43751e-05
18 *259:253 *285:18 9.17656e-06
*RES
1 *538:Y *285:18 32.7219 
2 *285:18 *537:B 10.5271 
3 *285:18 *530:A1 9.24915 
*END

*D_NET *286 0.000366616
*CONN
*I *529:A2 I *D sky130_fd_sc_hd__a21o_4
*I *537:Y O *D sky130_fd_sc_hd__nor2_2
*CAP
1 *529:A2 7.05471e-05
2 *537:Y 7.05471e-05
3 *529:A2 *537:A 3.59934e-05
4 *529:A2 *749:A 0.000112361
5 *529:A1 *529:A2 7.71671e-05
*RES
1 *537:Y *529:A2 21.4883 
*END

*D_NET *287 0.0017894
*CONN
*I *531:C1 I *D sky130_fd_sc_hd__a221oi_2
*I *536:Y O *D sky130_fd_sc_hd__nor2_1
*CAP
1 *531:C1 0.000578752
2 *536:Y 0.000578752
3 *531:C1 *531:B1 6.08467e-05
4 *531:C1 *701:DE 0
5 *531:C1 *765:B1 4.89251e-05
6 *531:C1 *288:10 3.88655e-05
7 *536:B *531:C1 4.3116e-06
8 *550:B *531:C1 0
9 *551:B *531:C1 1.65872e-05
10 *701:D *531:C1 0.000145773
11 *953:A *531:C1 8.36586e-06
12 *246:21 *531:C1 4.7903e-06
13 *259:243 *531:C1 0.000260978
14 *259:253 *531:C1 4.24488e-05
*RES
1 *536:Y *531:C1 41.7991 
*END

*D_NET *288 0.00394388
*CONN
*I *1039:A I *D sky130_fd_sc_hd__buf_4
*I *531:B1 I *D sky130_fd_sc_hd__a221oi_2
*I *535:Y O *D sky130_fd_sc_hd__o21ai_2
*CAP
1 *1039:A 0.000193614
2 *531:B1 2.86212e-05
3 *535:Y 0.000532932
4 *288:10 0.000755167
5 *1039:A *765:B1 0.000134151
6 *1039:A *766:C1 1.91246e-05
7 *1039:A *981:A 1.65872e-05
8 *1039:A *370:24 0.000160942
9 *288:10 *701:DE 0.000191556
10 *288:10 *920:A 6.50727e-05
11 *531:C1 *531:B1 6.08467e-05
12 *531:C1 *288:10 3.88655e-05
13 *531:B2 *288:10 0.000124086
14 *536:B *288:10 0.000643535
15 *765:A1 *1039:A 3.54295e-05
16 *770:C1 *1039:A 6.27718e-05
17 *770:C1 *288:10 0
18 *953:A *1039:A 2.26028e-05
19 *253:18 *288:10 0
20 *256:10 *288:10 8.62625e-06
21 *259:243 *1039:A 7.40248e-05
22 *259:243 *288:10 0.000363719
23 *259:253 *1039:A 0.000131571
24 *278:31 *288:10 0.000280034
*RES
1 *535:Y *288:10 33.3299 
2 *288:10 *531:B1 14.4725 
3 *288:10 *1039:A 20.5992 
*END

*D_NET *289 0.0039829
*CONN
*I *764:A1 I *D sky130_fd_sc_hd__o211ai_1
*I *532:A2 I *D sky130_fd_sc_hd__a21oi_2
*I *739:A I *D sky130_fd_sc_hd__nor2_1
*I *534:Y O *D sky130_fd_sc_hd__o21ai_2
*CAP
1 *764:A1 3.54588e-05
2 *532:A2 0.000293531
3 *739:A 0.000150208
4 *534:Y 0.000381251
5 *289:25 0.000482066
6 *289:6 0.000684535
7 *532:A2 *530:A2 6.39382e-06
8 *532:A2 *532:B1 1.70272e-05
9 *532:A2 *753:C1 0
10 *532:A2 *764:A2 0.000217887
11 *532:A2 *373:16 9.05448e-05
12 *739:A *753:B1 5.04829e-06
13 *739:A *341:12 0.000170809
14 *739:A *375:23 1.35155e-05
15 *739:A *375:40 7.07285e-05
16 *289:6 *534:A1 0.000108038
17 *289:6 *753:B1 2.16355e-05
18 *289:6 *753:B2 2.65667e-05
19 *289:6 *375:40 2.78407e-05
20 *289:6 *392:213 0.000457655
21 *289:25 *764:A2 6.50586e-05
22 *289:25 *334:14 9.8511e-05
23 *289:25 *335:8 9.8511e-05
24 *552:A *532:A2 0.000112361
25 *560:A *532:A2 0.000172091
26 *560:B *532:A2 1.41976e-05
27 *560:B *764:A1 0
28 *696:D *289:6 1.19751e-05
29 *753:A2 *289:6 4.31539e-05
30 *763:D *532:A2 0
31 *764:B1 *532:A2 1.81476e-05
32 *764:B1 *764:A1 3.13805e-06
33 *764:B1 *289:25 3.21238e-05
34 *764:C1 *289:25 1.61631e-05
35 *179:40 *532:A2 3.5534e-06
36 *189:8 *532:A2 3.31745e-05
37 *284:72 *289:25 0
*RES
1 *534:Y *289:6 19.9554 
2 *289:6 *739:A 13.7342 
3 *289:6 *289:25 13.7979 
4 *289:25 *532:A2 27.3471 
5 *289:25 *764:A1 10.2378 
*END

*D_NET *290 0.00345162
*CONN
*I *765:A2 I *D sky130_fd_sc_hd__a21oi_1
*I *532:B1 I *D sky130_fd_sc_hd__a21oi_2
*I *533:Y O *D sky130_fd_sc_hd__o21ai_1
*CAP
1 *765:A2 0.000280712
2 *532:B1 0.000384444
3 *533:Y 7.28346e-05
4 *290:10 0.00073799
5 *532:B1 *530:A2 4.12833e-05
6 *532:B1 *753:A1 0.000241619
7 *532:B1 *766:C1 0.000493143
8 *765:A2 *753:A1 5.9936e-06
9 *765:A2 *766:C1 0.000313213
10 *290:10 *352:24 2.52796e-05
11 *532:A2 *532:B1 1.70272e-05
12 *604:B1 *532:B1 0.000107593
13 *604:B1 *290:10 1.91246e-05
14 *763:D *532:B1 0.000560113
15 *765:A1 *290:10 7.60183e-05
16 *953:A *765:A2 2.02035e-05
17 *157:26 *532:B1 4.52011e-05
18 *285:18 *290:10 9.82838e-06
*RES
1 *533:Y *290:10 19.1576 
2 *290:10 *532:B1 19.262 
3 *290:10 *765:A2 18.2348 
*END

*D_NET *291 0.00184364
*CONN
*I *753:C1 I *D sky130_fd_sc_hd__o221ai_4
*I *530:A2 I *D sky130_fd_sc_hd__o21ai_2
*I *532:Y O *D sky130_fd_sc_hd__a21oi_2
*CAP
1 *753:C1 0.000367855
2 *530:A2 0.000218075
3 *532:Y 7.65915e-05
4 *291:6 0.000662521
5 *753:C1 *334:14 0.000193069
6 *529:A1 *530:A2 5.95374e-05
7 *532:A2 *530:A2 6.39382e-06
8 *532:A2 *753:C1 0
9 *532:B1 *530:A2 4.12833e-05
10 *560:A *530:A2 0
11 *179:30 *753:C1 0
12 *179:40 *753:C1 0
13 *189:8 *753:C1 9.81698e-05
14 *189:8 *291:6 0.000110297
15 *285:18 *530:A2 9.84424e-06
*RES
1 *532:Y *291:6 10.5271 
2 *291:6 *530:A2 22.9879 
3 *291:6 *753:C1 26.4154 
*END

*D_NET *292 0.00139363
*CONN
*I *530:B1 I *D sky130_fd_sc_hd__o21ai_2
*I *531:Y O *D sky130_fd_sc_hd__a221oi_2
*CAP
1 *530:B1 0.000476291
2 *531:Y 0.000476291
3 *530:B1 *765:B1 0.000205666
4 *530:B1 *981:A 0.000230453
5 *530:B1 *370:24 4.92617e-06
*RES
1 *531:Y *530:B1 28.6741 
*END

*D_NET *293 0.00157635
*CONN
*I *529:B1 I *D sky130_fd_sc_hd__a21o_4
*I *530:Y O *D sky130_fd_sc_hd__o21ai_2
*CAP
1 *529:B1 0.000200927
2 *530:Y 0.000200927
3 *529:B1 *749:A 2.66849e-05
4 *529:B1 *480:24 0.000645362
5 *529:A1 *529:B1 0.000502453
*RES
1 *530:Y *529:B1 27.4202 
*END

*D_NET *299 0.00248691
*CONN
*I *523:A1 I *D sky130_fd_sc_hd__o211ai_1
*I *1046:A I *D sky130_fd_sc_hd__buf_4
*I *525:Y O *D sky130_fd_sc_hd__nand2_1
*CAP
1 *523:A1 0.000104592
2 *1046:A 0.000631785
3 *525:Y 0
4 *299:4 0.000736377
5 *523:A1 *300:10 1.1718e-05
6 *1046:A *526:A 7.58217e-06
7 *1046:A *568:A1 1.07248e-05
8 *1046:A *660:A0 9.60216e-05
9 *1046:A *372:10 4.52469e-05
10 *524:C *1046:A 0.000481147
11 *525:A *523:A1 8.64558e-05
12 *525:A *1046:A 0.000275256
*RES
1 *525:Y *299:4 9.24915 
2 *299:4 *1046:A 30.0934 
3 *299:4 *523:A1 11.5158 
*END

*D_NET *300 0.00204952
*CONN
*I *523:B1 I *D sky130_fd_sc_hd__o211ai_1
*I *918:A I *D sky130_fd_sc_hd__buf_4
*I *524:Y O *D sky130_fd_sc_hd__nand3_2
*CAP
1 *523:B1 0
2 *918:A 0.000272202
3 *524:Y 0.000273838
4 *300:10 0.00054604
5 *918:A *518:A 0.000179722
6 *918:A *431:12 0.000310499
7 *918:A *479:14 7.14746e-05
8 *300:10 *479:14 2.16355e-05
9 *523:A1 *300:10 1.1718e-05
10 *523:A2 *300:10 4.95311e-05
11 *524:C *300:10 0.000214038
12 *525:A *300:10 9.88214e-05
13 *979:A *918:A 0
14 *196:40 *918:A 0
15 *208:12 *918:A 0
16 *209:10 *918:A 0
*RES
1 *524:Y *300:10 17.3753 
2 *300:10 *918:A 26.3478 
3 *300:10 *523:B1 9.24915 
*END

*D_NET *301 0.00220931
*CONN
*I *506:B2 I *D sky130_fd_sc_hd__a221oi_4
*I *909:A I *D sky130_fd_sc_hd__buf_4
*I *523:Y O *D sky130_fd_sc_hd__o211ai_1
*CAP
1 *506:B2 0.000102263
2 *909:A 0
3 *523:Y 0.000583351
4 *301:10 0.000685615
5 *506:B2 *310:12 0.000188503
6 *301:10 *523:C1 5.40713e-05
7 *301:10 *310:12 0.00011815
8 *301:10 *358:20 0
9 *301:10 *368:14 0
10 *301:10 *479:14 6.48675e-06
11 *301:10 *500:18 5.20002e-05
12 *259:22 *506:B2 0.000198429
13 *259:22 *301:10 5.37077e-05
14 *259:26 *301:10 0.000166732
*RES
1 *523:Y *301:10 26.6914 
2 *301:10 *909:A 13.7491 
3 *301:10 *506:B2 17.9655 
*END

*D_NET *304 0.00374557
*CONN
*I *1044:A I *D sky130_fd_sc_hd__buf_6
*I *509:B I *D sky130_fd_sc_hd__nor3_4
*I *520:X O *D sky130_fd_sc_hd__or2_4
*CAP
1 *1044:A 0
2 *509:B 0.000111559
3 *520:X 0.000614438
4 *304:20 0.000725996
5 *509:B *568:A1 0.000212881
6 *509:B *1041:A 3.82228e-05
7 *509:B *493:16 0.000107496
8 *304:20 *514:A 7.73227e-05
9 *304:20 *1041:A 0.000145802
10 *304:20 *306:12 4.27148e-05
11 *304:20 *493:16 0.000274904
12 *514:B *509:B 0.000209537
13 *519:B1 *304:20 5.26725e-05
14 *569:A1 *304:20 0.000621126
15 *905:A *304:20 0
16 *997:A *304:20 0.000176833
17 *191:8 *304:20 0.000211464
18 *213:27 *304:20 7.54269e-06
19 *213:44 *304:20 5.07719e-05
20 *213:50 *304:20 6.42825e-05
21 *239:16 *304:20 0
*RES
1 *520:X *304:20 48.1563 
2 *304:20 *509:B 23.4354 
3 *304:20 *1044:A 9.24915 
*END

*D_NET *305 0.0052499
*CONN
*I *735:A1 I *D sky130_fd_sc_hd__o31ai_2
*I *506:A1 I *D sky130_fd_sc_hd__a221oi_4
*I *516:A I *D sky130_fd_sc_hd__nor3_2
*I *519:Y O *D sky130_fd_sc_hd__o21ai_1
*CAP
1 *735:A1 0.000621513
2 *506:A1 1.55585e-05
3 *516:A 9.37349e-05
4 *519:Y 0.00065443
5 *305:23 0.00121084
6 *305:8 0.00132194
7 *506:A1 *310:12 4.19401e-06
8 *506:A1 *461:24 4.19401e-06
9 *516:A *306:12 0.00013832
10 *735:A1 *505:A 0
11 *735:A1 *505:B 1.91246e-05
12 *735:A1 *737:B 0.000418036
13 *735:A1 *758:B1 7.09666e-06
14 *305:8 *506:B1 0.000200412
15 *305:23 *579:B 0
16 *305:23 *505:A 0
17 *305:23 *306:12 8.64209e-05
18 *569:B1 *305:8 0.000451509
19 *1025:A *735:A1 2.57465e-06
*RES
1 *519:Y *305:8 24.4554 
2 *305:8 *516:A 16.4116 
3 *305:8 *305:23 5.88443 
4 *305:23 *506:A1 17.4965 
5 *305:23 *735:A1 18.6938 
*END

*D_NET *306 0.00728718
*CONN
*I *735:A3 I *D sky130_fd_sc_hd__o31ai_2
*I *1019:A I *D sky130_fd_sc_hd__buf_4
*I *518:Y O *D sky130_fd_sc_hd__nor3_4
*CAP
1 *735:A3 0
2 *1019:A 0
3 *518:Y 0.00164441
4 *306:44 0.000880302
5 *306:12 0.000764104
6 *306:12 *516:C 0.000720896
7 *306:12 *518:A 5.77352e-05
8 *306:12 *734:C 0.000419436
9 *306:12 *1000:A 6.90775e-05
10 *306:12 *367:14 7.28994e-06
11 *306:12 *434:61 4.32975e-05
12 *306:44 *516:B 1.4091e-06
13 *306:44 *517:B1 7.45422e-05
14 *306:44 *522:A 4.87301e-05
15 *306:44 *505:A 5.65354e-05
16 *306:44 *505:B 8.96342e-05
17 *306:44 *758:B1 0.000236309
18 *306:44 *758:C1 0.000107496
19 *306:44 *761:B1 0.000274627
20 *306:44 *325:14 0.000135191
21 *306:44 *358:20 0.000116284
22 *306:44 *368:14 0
23 *516:A *306:12 0.00013832
24 *569:A1 *306:12 0.000784943
25 *905:A *306:12 0
26 *912:A *306:12 0
27 *915:A *306:12 0.000213775
28 *979:A *306:12 0
29 *1025:A *306:44 2.3301e-05
30 *207:12 *306:44 0.000250405
31 *304:20 *306:12 4.27148e-05
32 *305:23 *306:12 8.64209e-05
*RES
1 *518:Y *306:12 48.214 
2 *306:12 *1019:A 9.24915 
3 *518:Y *306:44 48.0974 
4 *306:44 *735:A3 9.24915 
*END

*D_NET *307 0.00522556
*CONN
*I *735:A2 I *D sky130_fd_sc_hd__o31ai_2
*I *516:B I *D sky130_fd_sc_hd__nor3_2
*I *517:Y O *D sky130_fd_sc_hd__a21oi_4
*CAP
1 *735:A2 9.61195e-05
2 *516:B 0.00100283
3 *517:Y 0.000462915
4 *307:8 0.00156187
5 *516:B *506:A2 4.41889e-05
6 *516:B *515:B 2.16355e-05
7 *516:B *758:C1 5.20546e-06
8 *516:B *368:14 0.000139065
9 *735:A2 *505:B 5.3526e-05
10 *735:A2 *758:C1 0.000134976
11 *735:A2 *491:50 0.00025769
12 *307:8 *505:B 8.73669e-05
13 *307:8 *761:C1 0.000125825
14 *307:8 *481:16 0.000284261
15 *307:8 *491:50 0.000756867
16 *510:A *516:B 8.07517e-05
17 *1025:A *516:B 8.21325e-05
18 *207:12 *516:B 2.69339e-05
19 *306:44 *516:B 1.4091e-06
*RES
1 *517:Y *307:8 32.1912 
2 *307:8 *516:B 30.8213 
3 *307:8 *735:A2 18.4879 
*END

*D_NET *308 0.00252461
*CONN
*I *515:B I *D sky130_fd_sc_hd__xor2_2
*I *516:Y O *D sky130_fd_sc_hd__nor3_2
*CAP
1 *515:B 0.000449403
2 *516:Y 0.000449403
3 *515:B *516:C 0.000496369
4 *515:B *310:12 3.00539e-05
5 *515:B *320:16 0.000560578
6 *515:B *367:14 3.82145e-05
7 *510:A *515:B 6.08467e-05
8 *516:B *515:B 2.16355e-05
9 *734:A *515:B 0.000184249
10 *259:22 *515:B 0.000233853
*RES
1 *516:Y *515:B 36.9017 
*END

*D_NET *310 0.00529154
*CONN
*I *512:B1 I *D sky130_fd_sc_hd__a221oi_4
*I *514:Y O *D sky130_fd_sc_hd__nor4_4
*CAP
1 *512:B1 0.00051624
2 *514:Y 0.00137286
3 *310:12 0.0018891
4 *512:B1 *512:B2 0.000122083
5 *512:B1 *729:B 0.000426044
6 *512:B1 *934:A 9.24241e-05
7 *512:B1 *320:16 0.000133963
8 *512:B1 *477:35 0
9 *310:12 *514:A 8.56366e-05
10 *310:12 *972:A 4.89251e-05
11 *310:12 *320:16 2.71542e-05
12 *310:12 *387:12 9.10064e-05
13 *310:12 *461:24 0
14 *506:A1 *310:12 4.19401e-06
15 *506:B2 *310:12 0.000188503
16 *515:B *310:12 3.00539e-05
17 *979:A *310:12 0.000118116
18 *33:8 *512:B1 1.2693e-05
19 *259:22 *310:12 1.43991e-05
20 *301:10 *310:12 0.00011815
*RES
1 *514:Y *310:12 43.5293 
2 *310:12 *512:B1 28.8449 
*END

*D_NET *197 0.000419537
*CONN
*I *574:C I *D sky130_fd_sc_hd__maj3_2
*I *513:Y O *D sky130_fd_sc_hd__clkinv_1
*CAP
1 *574:C 9.68402e-05
2 *513:Y 9.68402e-05
3 *574:C *575:A 0.000122098
4 *574:C *431:56 6.92705e-05
5 *913:A *574:C 3.44886e-05
*RES
1 *513:Y *574:C 30.4689 
*END

*D_NET *311 0.00489128
*CONN
*I *906:A I *D sky130_fd_sc_hd__buf_6
*I *1017:A I *D sky130_fd_sc_hd__buf_6
*I *512:Y O *D sky130_fd_sc_hd__a221oi_4
*CAP
1 *906:A 0.000175946
2 *1017:A 0.000226041
3 *512:Y 0.000411041
4 *311:12 0.000813028
5 *906:A *511:B 7.28784e-05
6 *906:A *1000:A 0.000151758
7 *906:A *473:18 0.000154366
8 *1017:A *730:A1 0.000511473
9 *1017:A *730:B1 6.08467e-05
10 *311:12 *512:C1 0
11 *311:12 *729:B 0
12 *311:12 *734:C 3.07133e-05
13 *311:12 *734:D 0.000196442
14 *311:12 *1000:A 0.000262304
15 *311:12 *320:16 0.000406678
16 *599:B *1017:A 0.000178523
17 *904:A *1017:A 6.50727e-05
18 *219:8 *311:12 0.00046401
19 *238:10 *906:A 0.000109859
20 *238:14 *906:A 5.05252e-05
21 *238:14 *311:12 0.00054978
*RES
1 *512:Y *311:12 32.5319 
2 *311:12 *1017:A 22.7916 
3 *311:12 *906:A 20.8779 
*END

*D_NET *313 0.000638778
*CONN
*I *506:A2 I *D sky130_fd_sc_hd__a221oi_4
*I *510:Y O *D sky130_fd_sc_hd__nor2_2
*CAP
1 *506:A2 0.000119058
2 *510:Y 0.000119058
3 *506:A2 *736:B 9.12416e-06
4 *506:A2 *737:B 2.33789e-05
5 *506:A2 *761:A2 1.95059e-05
6 *506:A2 *461:24 0.000195035
7 *516:B *506:A2 4.41889e-05
8 *207:12 *506:A2 0.000109427
*RES
1 *510:Y *506:A2 32.2693 
*END

*D_NET *314 0.00242299
*CONN
*I *506:B1 I *D sky130_fd_sc_hd__a221oi_4
*I *509:Y O *D sky130_fd_sc_hd__nor3_4
*CAP
1 *506:B1 0.000509067
2 *509:Y 0.000509067
3 *506:B1 *514:A 6.27718e-05
4 *506:B1 *579:B 6.08467e-05
5 *509:A *506:B1 0.000345301
6 *568:A2 *506:B1 1.62592e-05
7 *569:B1 *506:B1 0.000412645
8 *579:A *506:B1 6.08467e-05
9 *905:A *506:B1 2.56903e-05
10 *997:A *506:B1 6.08467e-05
11 *107:16 *506:B1 5.05252e-05
12 *214:12 *506:B1 1.84125e-05
13 *251:29 *506:B1 9.0297e-05
14 *305:8 *506:B1 0.000200412
*RES
1 *509:Y *506:B1 44.5833 
*END

*D_NET *315 0.00389348
*CONN
*I *507:B I *D sky130_fd_sc_hd__nand2_1
*I *730:A1 I *D sky130_fd_sc_hd__a211oi_2
*I *508:Y O *D sky130_fd_sc_hd__o211ai_1
*CAP
1 *507:B 0.000262883
2 *730:A1 0.000275839
3 *508:Y 0.000279637
4 *315:8 0.000818359
5 *507:B *506:C1 0.000150784
6 *507:B *511:A 0
7 *730:A1 *511:A 0
8 *730:A1 *730:B1 3.73375e-05
9 *730:A1 *473:18 0.000101118
10 *315:8 *508:A1 7.38456e-05
11 *315:8 *473:18 6.08467e-05
12 *593:B1 *315:8 0.00031772
13 *599:A *730:A1 4.94594e-05
14 *600:B *315:8 7.16893e-05
15 *730:C1 *730:A1 0.000207266
16 *904:A *507:B 0
17 *1017:A *730:A1 0.000511473
18 *1048:A *315:8 0.000464113
19 *169:28 *507:B 0.000103263
20 *169:28 *730:A1 4.70005e-05
21 *239:10 *315:8 6.08467e-05
*RES
1 *508:Y *315:8 23.9008 
2 *315:8 *730:A1 23.3991 
3 *315:8 *507:B 20.9794 
*END

*D_NET *316 0.00428676
*CONN
*I *506:C1 I *D sky130_fd_sc_hd__a221oi_4
*I *507:Y O *D sky130_fd_sc_hd__nand2_1
*CAP
1 *506:C1 0.000824154
2 *507:Y 0.000824154
3 *506:C1 *579:B 3.20069e-06
4 *506:C1 *679:D 0.000676567
5 *506:C1 *385:16 0
6 *506:C1 *434:27 3.59445e-05
7 *506:C1 *435:37 0.00162282
8 *507:B *506:C1 0.000150784
9 *912:A *506:C1 3.11933e-06
10 *169:28 *506:C1 0.000146017
*RES
1 *507:Y *506:C1 42.0845 
*END

*D_NET *251 0.00818509
*CONN
*I *750:A2 I *D sky130_fd_sc_hd__o21ai_2
*I *604:A3 I *D sky130_fd_sc_hd__o311ai_2
*I *905:A I *D sky130_fd_sc_hd__buf_6
*I *506:Y O *D sky130_fd_sc_hd__a221oi_4
*CAP
1 *750:A2 0.000108859
2 *604:A3 0.00022923
3 *905:A 0.000834583
4 *506:Y 0
5 *251:29 0.00175245
6 *251:4 0.00224895
7 *604:A3 *604:C1 0
8 *604:A3 *751:A 0
9 *604:A3 *758:C1 0.000107496
10 *604:A3 *344:20 0
11 *750:A2 *751:A 0
12 *905:A *506:B1 2.56903e-05
13 *905:A *579:B 5.04829e-06
14 *905:A *588:A 2.41483e-05
15 *905:A *588:B 0.000147526
16 *905:A *595:A 3.8122e-05
17 *905:A *734:C 0
18 *905:A *304:20 0
19 *905:A *306:12 0
20 *251:29 *506:B1 9.0297e-05
21 *251:29 *758:B1 0.000208247
22 *251:29 *259:22 0.000561739
23 *251:29 *325:14 0.000700254
24 *520:B *905:A 3.20632e-05
25 *595:B *905:A 0.000434673
26 *604:A2 *604:A3 9.02403e-05
27 *604:A2 *750:A2 2.33193e-05
28 *604:B1 *604:A3 1.5714e-05
29 *734:B *905:A 1.58551e-05
30 *902:A *905:A 0.00018643
31 *903:A *750:A2 2.57986e-05
32 *912:A *905:A 0.000176222
33 *969:A *604:A3 0
34 *184:40 *750:A2 0
35 *219:8 *905:A 0
36 *229:8 *905:A 6.08467e-05
37 *249:18 *750:A2 1.41307e-05
38 *250:8 *750:A2 2.71542e-05
*RES
1 *506:Y *251:4 9.24915 
2 *251:4 *905:A 38.3747 
3 *251:4 *251:29 27.4075 
4 *251:29 *604:A3 19.9294 
5 *251:29 *750:A2 16.7198 
*END

*D_NET *319 0.00293558
*CONN
*I *749:A I *D sky130_fd_sc_hd__nand2_1
*I *729:Y O *D sky130_fd_sc_hd__nor2_1
*CAP
1 *749:A 0.000938048
2 *729:Y 0.000938048
3 *749:A *505:B 0.000483596
4 *749:A *729:A 0.000255369
5 *749:A *729:B 6.60095e-06
6 *749:A *341:12 3.50791e-05
7 *529:A1 *749:A 1.00901e-05
8 *529:A2 *749:A 0.000112361
9 *529:B1 *749:A 2.66849e-05
10 *907:A *749:A 0.000121019
11 *917:A *749:A 8.68769e-06
*RES
1 *729:Y *749:A 43.7794 
*END

*D_NET *320 0.00398496
*CONN
*I *733:A I *D sky130_fd_sc_hd__nor2_1
*I *758:A1 I *D sky130_fd_sc_hd__o211ai_1
*I *730:Y O *D sky130_fd_sc_hd__a211oi_2
*CAP
1 *733:A 2.67637e-05
2 *758:A1 0.00014965
3 *730:Y 0.000586174
4 *320:16 0.000762587
5 *733:A *729:B 6.80895e-05
6 *733:A *733:B 2.63412e-05
7 *733:A *322:18 1.21558e-05
8 *758:A1 *512:B2 0
9 *758:A1 *736:B 2.27118e-06
10 *758:A1 *758:A2 0.000110473
11 *758:A1 *761:A2 9.12416e-06
12 *758:A1 *934:A 1.44467e-05
13 *320:16 *729:B 0.000275322
14 *320:16 *733:B 2.57847e-05
15 *320:16 *736:B 7.54269e-06
16 *320:16 *1000:A 0.000218907
17 *320:16 *367:14 0.000123939
18 *320:16 *461:24 0.000331876
19 *512:B1 *320:16 0.000133963
20 *515:B *320:16 0.000560578
21 *259:22 *758:A1 4.02362e-05
22 *259:22 *320:16 6.49003e-05
23 *310:12 *320:16 2.71542e-05
24 *311:12 *320:16 0.000406678
*RES
1 *730:Y *320:16 42.4821 
2 *320:16 *758:A1 21.7421 
3 *320:16 *733:A 10.5513 
*END

*D_NET *321 0.00267714
*CONN
*I *746:A2 I *D sky130_fd_sc_hd__a211oi_1
*I *732:B I *D sky130_fd_sc_hd__nand2_1
*I *731:Y O *D sky130_fd_sc_hd__o211ai_1
*CAP
1 *746:A2 0.000460961
2 *732:B 0.000158342
3 *731:Y 0.00012653
4 *321:8 0.000745834
5 *732:B *562:A 0
6 *732:B *742:A1 3.82228e-05
7 *732:B *763:C 0.00011231
8 *732:B *322:18 7.68538e-06
9 *732:B *478:18 4.31539e-05
10 *746:A2 *742:A2 3.82228e-05
11 *746:A2 *742:B1 9.95542e-06
12 *746:A2 *763:A 9.63402e-05
13 *746:A2 *763:C 1.90649e-05
14 *746:A2 *766:A2 1.52886e-05
15 *321:8 *607:B 0
16 *321:8 *742:A2 1.07549e-05
17 *321:8 *763:C 9.75003e-05
18 *321:8 *491:46 0
19 *738:A1 *321:8 3.82533e-05
20 *763:B *746:A2 5.69782e-06
21 *763:D *746:A2 8.20618e-05
22 *922:A *732:B 0.000109409
23 *218:24 *732:B 0.000247443
24 *264:27 *746:A2 0.000214106
*RES
1 *731:Y *321:8 17.2421 
2 *321:8 *732:B 19.5169 
3 *321:8 *746:A2 23.5873 
*END

*D_NET *322 0.00498254
*CONN
*I *758:A2 I *D sky130_fd_sc_hd__o211ai_1
*I *733:B I *D sky130_fd_sc_hd__nor2_1
*I *732:Y O *D sky130_fd_sc_hd__nand2_1
*CAP
1 *758:A2 0.000129279
2 *733:B 5.43712e-05
3 *732:Y 0.000911065
4 *322:18 0.00109471
5 *733:B *736:B 6.36477e-05
6 *758:A2 *761:A2 1.3706e-05
7 *758:A2 *761:B1 2.99273e-05
8 *758:A2 *358:20 6.84667e-05
9 *322:18 *512:A2 0.000211821
10 *322:18 *505:B 9.11135e-05
11 *322:18 *729:B 5.05248e-05
12 *322:18 *742:A1 0.000158357
13 *322:18 *753:A1 2.29386e-05
14 *322:18 *358:20 6.81223e-05
15 *322:18 *478:18 0.000210067
16 *322:18 *491:46 0.000368343
17 *322:18 *496:18 6.08956e-05
18 *732:B *322:18 7.68538e-06
19 *733:A *733:B 2.63412e-05
20 *733:A *322:18 1.21558e-05
21 *758:A1 *758:A2 0.000110473
22 *899:A *322:18 6.08467e-05
23 *1022:A *322:18 5.8059e-05
24 *1025:A *322:18 2.95757e-05
25 *33:8 *322:18 0.000379665
26 *33:32 *322:18 0.000664591
27 *259:22 *733:B 0
28 *259:22 *758:A2 0
29 *320:16 *733:B 2.57847e-05
*RES
1 *732:Y *322:18 47.4805 
2 *322:18 *733:B 11.1059 
3 *322:18 *758:A2 22.3209 
*END

*D_NET *323 0.000654783
*CONN
*I *736:B I *D sky130_fd_sc_hd__nand2_1
*I *733:Y O *D sky130_fd_sc_hd__nor2_1
*CAP
1 *736:B 0.000188996
2 *733:Y 0.000188996
3 *736:B *761:A2 3.5534e-06
4 *736:B *461:24 3.99778e-05
5 *506:A2 *736:B 9.12416e-06
6 *733:B *736:B 6.36477e-05
7 *758:A1 *736:B 2.27118e-06
8 *259:22 *736:B 0.000150675
9 *320:16 *736:B 7.54269e-06
*RES
1 *733:Y *736:B 31.5781 
*END

*D_NET *324 0.00330357
*CONN
*I *735:B1 I *D sky130_fd_sc_hd__o31ai_2
*I *734:Y O *D sky130_fd_sc_hd__nor4_2
*CAP
1 *735:B1 0.000943853
2 *734:Y 0.000943853
3 *735:B1 *734:D 0.000264379
4 *735:B1 *758:B1 6.08467e-05
5 *735:B1 *934:A 0.000152189
6 *735:B1 *341:12 0.000310064
7 *735:B1 *496:18 0.000311235
8 *512:A1 *735:B1 1.06769e-05
9 *604:A2 *735:B1 0.000116986
10 *250:8 *735:B1 0.000189481
*RES
1 *734:Y *735:B1 47.1497 
*END

*D_NET *325 0.0030423
*CONN
*I *736:A I *D sky130_fd_sc_hd__nand2_1
*I *761:A2 I *D sky130_fd_sc_hd__o211ai_1
*I *735:Y O *D sky130_fd_sc_hd__o31ai_2
*CAP
1 *736:A 0
2 *761:A2 0.000272963
3 *735:Y 0.000243307
4 *325:14 0.00051627
5 *761:A2 *737:B 4.44823e-05
6 *761:A2 *761:B1 0.000341051
7 *761:A2 *761:C1 0.000115157
8 *761:A2 *344:20 0.000259086
9 *761:A2 *461:24 2.8322e-05
10 *325:14 *758:B1 0.000254091
11 *325:14 *758:C1 5.62568e-05
12 *325:14 *761:B1 2.99747e-05
13 *506:A2 *761:A2 1.95059e-05
14 *736:B *761:A2 3.5534e-06
15 *758:A1 *761:A2 9.12416e-06
16 *758:A2 *761:A2 1.3706e-05
17 *251:29 *325:14 0.000700254
18 *306:44 *325:14 0.000135191
*RES
1 *735:Y *325:14 20.0519 
2 *325:14 *761:A2 28.006 
3 *325:14 *736:A 9.24915 
*END

*D_NET *326 0.00803701
*CONN
*I *737:B I *D sky130_fd_sc_hd__xnor2_2
*I *736:Y O *D sky130_fd_sc_hd__nand2_1
*CAP
1 *737:B 0.00279808
2 *736:Y 0.00279808
3 *737:B *562:A 2.41307e-05
4 *737:B *601:B 0
5 *737:B *505:A 0
6 *737:B *742:B1 0.000567245
7 *737:B *746:C1 8.38678e-05
8 *737:B *766:A1 0.000190569
9 *737:B *385:16 9.00691e-06
10 *737:B *397:32 0.000262182
11 *737:B *434:55 0.000431477
12 *737:B *434:103 7.28582e-05
13 *737:B *450:40 0.000168903
14 *737:B *478:18 2.8655e-05
15 *737:B *480:24 0
16 *506:A2 *737:B 2.33789e-05
17 *735:A1 *737:B 0.000418036
18 *752:C *737:B 0
19 *761:A2 *737:B 4.44823e-05
20 *169:12 *737:B 0.000109488
21 *218:24 *737:B 6.57652e-06
22 *264:27 *737:B 0
*RES
1 *736:Y *737:B 48.4543 
*END

*D_NET *328 0.00601326
*CONN
*I *739:B I *D sky130_fd_sc_hd__nor2_1
*I *764:A2 I *D sky130_fd_sc_hd__o211ai_1
*I *738:Y O *D sky130_fd_sc_hd__a21boi_0
*CAP
1 *739:B 0.000624058
2 *764:A2 0.00113233
3 *738:Y 4.15763e-05
4 *328:10 0.00179797
5 *764:A2 *590:A1 7.22106e-05
6 *764:A2 *743:B 0.000200794
7 *764:A2 *477:16 0.000213437
8 *328:10 *742:A2 2.91752e-05
9 *328:10 *491:46 7.37686e-05
10 *532:A2 *764:A2 0.000217887
11 *560:B *764:A2 4.36818e-05
12 *590:A2 *764:A2 0.000179286
13 *732:A *739:B 7.74361e-05
14 *743:A *764:A2 0.000113877
15 *747:A1 *739:B 0
16 *752:C *764:A2 4.3663e-05
17 *763:B *739:B 6.63186e-05
18 *763:D *739:B 0.000191715
19 *980:A *764:A2 2.47663e-05
20 *33:32 *764:A2 3.81452e-05
21 *169:12 *764:A2 3.79614e-05
22 *169:28 *764:A2 1.61631e-05
23 *179:40 *739:B 2.52912e-05
24 *218:24 *739:B 0.000475196
25 *218:24 *764:A2 0.000211492
26 *289:25 *764:A2 6.50586e-05
*RES
1 *738:Y *328:10 19.6659 
2 *328:10 *764:A2 40.376 
3 *328:10 *739:B 31.0477 
*END

*D_NET *329 0.00359521
*CONN
*I *742:B1 I *D sky130_fd_sc_hd__o21ai_2
*I *739:Y O *D sky130_fd_sc_hd__nor2_1
*CAP
1 *742:B1 0.0011617
2 *739:Y 0.0011617
3 *742:B1 *562:A 7.82724e-06
4 *742:B1 *607:B 5.73369e-05
5 *742:B1 *753:B1 0.000170471
6 *742:B1 *763:C 6.27782e-05
7 *742:B1 *375:40 0.000166951
8 *742:B1 *385:16 2.58954e-06
9 *742:B1 *456:18 1.5714e-05
10 *742:B1 *478:18 0.000167154
11 *732:A *742:B1 1.02986e-05
12 *737:B *742:B1 0.000567245
13 *746:A2 *742:B1 9.95542e-06
14 *747:A1 *742:B1 8.47173e-06
15 *763:D *742:B1 5.04829e-06
16 *179:30 *742:B1 1.99699e-05
*RES
1 *739:Y *742:B1 41.9846 
*END

*D_NET *225 0.00491358
*CONN
*I *592:A2 I *D sky130_fd_sc_hd__o211ai_1
*I *745:B I *D sky130_fd_sc_hd__nand2_1
*I *731:B1 I *D sky130_fd_sc_hd__o211ai_1
*I *760:B I *D sky130_fd_sc_hd__xnor2_2
*I *740:X O *D sky130_fd_sc_hd__xor2_2
*CAP
1 *592:A2 0.000148511
2 *745:B 0
3 *731:B1 0.00067484
4 *760:B 0.000217673
5 *740:X 4.94601e-05
6 *225:38 0.00017731
7 *225:16 0.00118148
8 *225:6 0.000367228
9 *592:A2 *666:A0 0.000371537
10 *592:A2 *420:10 8.62625e-06
11 *592:A2 *466:18 2.16355e-05
12 *731:B1 *731:C1 7.21701e-05
13 *731:B1 *994:A 0.000113368
14 *731:B1 *450:8 3.68737e-05
15 *760:B *507:A 8.82312e-05
16 *760:B *238:10 0.000212485
17 *225:6 *466:18 4.87301e-05
18 *225:16 *507:A 4.70559e-05
19 *225:16 *708:CLK 0
20 *225:16 *404:14 1.93539e-05
21 *225:38 *466:18 2.16355e-05
22 *592:A1 *592:A2 0.000249355
23 *760:A *731:B1 1.37531e-05
24 *760:A *760:B 0.000414735
25 *760:A *225:16 7.39263e-05
26 *27:10 *592:A2 0.000139435
27 *27:10 *225:16 0.000144167
*RES
1 *740:X *225:6 10.5271 
2 *225:6 *225:16 17.1341 
3 *225:16 *760:B 16.6519 
4 *225:16 *731:B1 19.859 
5 *225:6 *225:38 0.723396 
6 *225:38 *745:B 9.24915 
7 *225:38 *592:A2 25.7876 
*END

*D_NET *331 0.00137039
*CONN
*I *742:A1 I *D sky130_fd_sc_hd__o21ai_2
*I *741:Y O *D sky130_fd_sc_hd__nand2_1
*CAP
1 *742:A1 0.000298083
2 *741:Y 0.000298083
3 *742:A1 *562:B 6.3657e-05
4 *742:A1 *607:B 0.00020159
5 *742:A1 *743:B 0.000176431
6 *742:A1 *763:C 8.70662e-06
7 *742:A1 *397:32 1.91391e-05
8 *732:B *742:A1 3.82228e-05
9 *747:A1 *742:A1 1.53046e-05
10 *763:B *742:A1 6.56365e-05
11 *218:24 *742:A1 2.71757e-05
12 *322:18 *742:A1 0.000158357
*RES
1 *741:Y *742:A1 45.8984 
*END

*D_NET *332 0.00190728
*CONN
*I *743:B I *D sky130_fd_sc_hd__xnor2_1
*I *742:Y O *D sky130_fd_sc_hd__o21ai_2
*CAP
1 *743:B 0.0004036
2 *742:Y 0.0004036
3 *743:B *552:B 0.000147528
4 *743:B *607:B 7.72394e-06
5 *743:B *763:C 0.000239328
6 *743:B *341:12 9.94561e-05
7 *742:A1 *743:B 0.000176431
8 *743:A *743:B 0.000173538
9 *763:B *743:B 1.64999e-05
10 *763:D *743:B 2.86876e-05
11 *764:A2 *743:B 0.000200794
12 *169:12 *743:B 1.00901e-05
*RES
1 *742:Y *743:B 41.1631 
*END

*D_NET *334 0.0075993
*CONN
*I *749:B I *D sky130_fd_sc_hd__nand2_1
*I *757:A I *D sky130_fd_sc_hd__nand2_1
*I *758:B1 I *D sky130_fd_sc_hd__o211ai_1
*I *744:Y O *D sky130_fd_sc_hd__nor2_1
*CAP
1 *749:B 0.000301235
2 *757:A 0.000135528
3 *758:B1 0.000683318
4 *744:Y 0.000633874
5 *334:18 0.00106434
6 *334:14 0.00118061
7 *749:B *1040:A 0.000113968
8 *749:B *496:18 0.000150803
9 *757:A *343:31 4.30291e-05
10 *757:A *344:20 1.72527e-05
11 *758:B1 *505:B 9.17656e-06
12 *758:B1 *751:A 0.000165521
13 *758:B1 *758:C1 0.000124083
14 *758:B1 *761:B1 1.60939e-05
15 *758:B1 *344:20 7.98171e-06
16 *334:14 *748:A 3.73569e-05
17 *334:14 *753:B1 2.26985e-05
18 *334:14 *766:A2 0
19 *334:14 *981:A 0.000123773
20 *334:14 *335:8 0.000241734
21 *334:14 *480:24 0.000107187
22 *334:18 *748:A 3.20069e-06
23 *334:18 *1040:A 4.3116e-06
24 *512:A1 *749:B 0
25 *529:A1 *334:14 2.19186e-05
26 *533:A2 *334:14 0.000162649
27 *735:A1 *758:B1 7.09666e-06
28 *735:B1 *758:B1 6.08467e-05
29 *747:A2 *334:14 0.000162649
30 *751:B *758:B1 8.12793e-05
31 *753:C1 *334:14 0.000193069
32 *911:A *334:14 0.000117594
33 *1012:A *334:18 5.21927e-05
34 *1018:A *334:18 1.09738e-05
35 *1025:A *758:B1 6.43967e-05
36 *158:8 *757:A 0.000113968
37 *158:8 *758:B1 0.000267462
38 *179:20 *334:14 4.49767e-05
39 *179:30 *334:14 4.91074e-05
40 *184:40 *334:14 5.26865e-05
41 *184:40 *334:18 0.000152199
42 *251:29 *758:B1 0.000208247
43 *284:16 *334:18 0
44 *289:25 *334:14 9.8511e-05
45 *306:44 *758:B1 0.000236309
46 *325:14 *758:B1 0.000254091
*RES
1 *744:Y *334:14 33.2666 
2 *334:14 *334:18 11.315 
3 *334:18 *758:B1 36.3884 
4 *334:18 *757:A 12.9385 
5 *334:14 *749:B 21.7065 
*END

*D_NET *223 0.00206108
*CONN
*I *738:A1 I *D sky130_fd_sc_hd__a21boi_0
*I *591:A I *D sky130_fd_sc_hd__nand2_1
*I *745:Y O *D sky130_fd_sc_hd__nand2_1
*CAP
1 *738:A1 0.000344269
2 *591:A 0
3 *745:Y 0.000396837
4 *223:12 0.000741107
5 *738:A1 *607:B 0
6 *738:A1 *266:14 6.13051e-05
7 *738:A1 *321:8 3.82533e-05
8 *738:A1 *434:103 1.31444e-06
9 *738:A1 *491:46 0.000276439
10 *223:12 *466:18 4.53737e-05
11 *223:12 *491:46 2.90208e-05
12 *980:A *223:12 0.000127164
*RES
1 *745:Y *223:12 25.102 
2 *223:12 *591:A 9.24915 
3 *223:12 *738:A1 26.8968 
*END

*D_NET *335 0.00360597
*CONN
*I *770:A1 I *D sky130_fd_sc_hd__o211ai_1
*I *748:A I *D sky130_fd_sc_hd__nor2_1
*I *746:Y O *D sky130_fd_sc_hd__a211oi_1
*CAP
1 *770:A1 0.000105131
2 *748:A 0.000286925
3 *746:Y 0.000378109
4 *335:8 0.000770165
5 *748:A *587:B 7.32576e-06
6 *748:A *748:B 6.08467e-05
7 *748:A *750:B1 1.89836e-05
8 *748:A *766:C1 4.145e-05
9 *748:A *1040:A 0.000312012
10 *748:A *373:16 8.61737e-06
11 *748:A *480:24 0.000107187
12 *770:A1 *981:A 7.78924e-05
13 *335:8 *587:B 2.40135e-05
14 *335:8 *753:B1 1.9101e-05
15 *335:8 *766:A1 3.95077e-05
16 *335:8 *766:A2 0.000402781
17 *335:8 *766:C1 0.000106427
18 *769:B *748:A 1.09551e-05
19 *911:A *748:A 0.000418787
20 *179:20 *335:8 2.7736e-05
21 *249:18 *748:A 1.21461e-06
22 *289:25 *335:8 9.8511e-05
23 *334:14 *748:A 3.73569e-05
24 *334:14 *335:8 0.000241734
25 *334:18 *748:A 3.20069e-06
*RES
1 *746:Y *335:8 25.9624 
2 *335:8 *748:A 24.224 
3 *335:8 *770:A1 16.1364 
*END

*D_NET *336 0.00560076
*CONN
*I *770:A2 I *D sky130_fd_sc_hd__o211ai_1
*I *748:B I *D sky130_fd_sc_hd__nor2_1
*I *759:A1 I *D sky130_fd_sc_hd__a21oi_1
*I *747:Y O *D sky130_fd_sc_hd__o21ai_0
*CAP
1 *770:A2 0
2 *748:B 2.68274e-05
3 *759:A1 0.000479472
4 *747:Y 0.000656631
5 *336:12 0.000713062
6 *336:10 0.000863394
7 *748:B *750:B1 2.41274e-06
8 *759:A1 *352:24 7.11609e-05
9 *336:10 *587:B 3.4902e-05
10 *336:10 *744:B 0.000442558
11 *336:10 *753:B2 0.000123582
12 *336:10 *370:24 9.49044e-05
13 *336:12 *352:24 3.51337e-05
14 *336:12 *370:24 7.26748e-05
15 *533:A1 *336:10 2.61381e-05
16 *533:A1 *336:12 2.55692e-05
17 *533:A2 *336:10 1.00981e-05
18 *533:B1 *759:A1 0.000542051
19 *533:B1 *336:10 0.000243242
20 *533:B1 *336:12 0.000261744
21 *603:A *759:A1 0.00036758
22 *748:A *748:B 6.08467e-05
23 *759:B1 *759:A1 1.67256e-05
24 *768:A *759:A1 2.64259e-06
25 *768:B *759:A1 2.16355e-05
26 *157:26 *336:10 0.00033069
27 *249:18 *759:A1 7.50872e-05
*RES
1 *747:Y *336:10 29.601 
2 *336:10 *336:12 5.56926 
3 *336:12 *759:A1 29.3425 
4 *336:12 *748:B 14.4725 
5 *336:10 *770:A2 13.7491 
*END

*D_NET *337 0.0014148
*CONN
*I *750:B1 I *D sky130_fd_sc_hd__o21ai_2
*I *748:Y O *D sky130_fd_sc_hd__nor2_1
*CAP
1 *750:B1 0.000444859
2 *748:Y 0.000444859
3 *750:B1 *750:A1 0.000122154
4 *750:B1 *1040:A 2.82583e-05
5 *750:B1 *496:18 0.000211492
6 *748:A *750:B1 1.89836e-05
7 *748:B *750:B1 2.41274e-06
8 *903:A *750:B1 2.84048e-05
9 *184:40 *750:B1 0.000113374
10 *250:8 *750:B1 0
*RES
1 *748:Y *750:B1 36.7625 
*END

*D_NET *250 0.00202397
*CONN
*I *903:A I *D sky130_fd_sc_hd__buf_4
*I *604:A2 I *D sky130_fd_sc_hd__o311ai_2
*I *749:Y O *D sky130_fd_sc_hd__nand2_1
*CAP
1 *903:A 0.000343602
2 *604:A2 0.000236466
3 *749:Y 9.14653e-05
4 *250:8 0.000671533
5 *604:A2 *604:A3 9.02403e-05
6 *604:A2 *735:B1 0.000116986
7 *604:A2 *750:A2 2.33193e-05
8 *604:A2 *758:C1 2.58757e-05
9 *604:A2 *341:12 8.68198e-05
10 *903:A *750:A1 1.37563e-05
11 *903:A *750:A2 2.57986e-05
12 *903:A *750:B1 2.84048e-05
13 *250:8 *735:B1 0.000189481
14 *250:8 *750:A2 2.71542e-05
15 *250:8 *750:B1 0
16 *604:B1 *604:A2 4.2185e-05
17 *184:40 *250:8 0
18 *249:18 *903:A 1.08857e-05
*RES
1 *749:Y *250:8 17.2421 
2 *250:8 *604:A2 21.1899 
3 *250:8 *903:A 19.3434 
*END

*D_NET *338 0.00061185
*CONN
*I *751:A I *D sky130_fd_sc_hd__xnor2_1
*I *750:Y O *D sky130_fd_sc_hd__o21ai_2
*CAP
1 *751:A 0.000163778
2 *750:Y 0.000163778
3 *604:A3 *751:A 0
4 *750:A2 *751:A 0
5 *751:B *751:A 0.000117376
6 *758:B1 *751:A 0.000165521
7 *969:A *751:A 1.39717e-06
*RES
1 *750:Y *751:A 31.9934 
*END

*D_NET *340 0.00306185
*CONN
*I *753:B1 I *D sky130_fd_sc_hd__o221ai_4
*I *752:Y O *D sky130_fd_sc_hd__nand4_1
*CAP
1 *753:B1 0.000757227
2 *752:Y 0.000757227
3 *753:B1 *552:B 1.03171e-05
4 *753:B1 *375:40 6.08467e-05
5 *753:B1 *397:32 0.000213529
6 *753:B1 *478:18 0.000122802
7 *753:B1 *480:24 0.000542595
8 *753:B1 *496:18 6.41384e-05
9 *739:A *753:B1 5.04829e-06
10 *742:B1 *753:B1 0.000170471
11 *752:C *753:B1 3.43755e-05
12 *753:A2 *753:B1 0.000259838
13 *289:6 *753:B1 2.16355e-05
14 *334:14 *753:B1 2.26985e-05
15 *335:8 *753:B1 1.9101e-05
*RES
1 *752:Y *753:B1 38.4526 
*END

*D_NET *341 0.00479473
*CONN
*I *754:A I *D sky130_fd_sc_hd__xnor2_2
*I *753:Y O *D sky130_fd_sc_hd__o221ai_4
*CAP
1 *754:A 0
2 *753:Y 0.00111621
3 *341:12 0.00111621
4 *341:12 *537:A 0
5 *341:12 *552:B 2.10168e-05
6 *341:12 *344:20 0
7 *341:12 *375:23 0.00025874
8 *341:12 *375:40 1.84133e-05
9 *604:A2 *341:12 8.68198e-05
10 *735:B1 *341:12 0.000310064
11 *739:A *341:12 0.000170809
12 *743:B *341:12 9.94561e-05
13 *749:A *341:12 3.50791e-05
14 *753:A2 *341:12 0.000253678
15 *763:B *341:12 4.31485e-06
16 *907:A *341:12 6.85851e-05
17 *169:12 *341:12 0.00122224
18 *178:30 *341:12 1.30981e-05
*RES
1 *753:Y *341:12 46.2527 
2 *341:12 *754:A 13.7491 
*END

*D_NET *254 0.00219506
*CONN
*I *605:A1 I *D sky130_fd_sc_hd__a21oi_1
*I *759:B1 I *D sky130_fd_sc_hd__a21oi_1
*I *755:Y O *D sky130_fd_sc_hd__o21ai_0
*CAP
1 *605:A1 0.000403485
2 *759:B1 0.000208397
3 *755:Y 0.000236013
4 *254:12 0.000847895
5 *605:A1 *605:B1 0.000114595
6 *759:B1 *759:A1 1.67256e-05
7 *254:12 *768:A 0.000110458
8 *254:12 *258:25 0.000112367
9 *254:12 *259:243 6.40849e-05
10 *254:12 *352:24 1.88563e-05
11 *605:A2 *605:A1 4.09437e-05
12 *253:18 *254:12 2.12421e-05
*RES
1 *755:Y *254:12 22.6077 
2 *254:12 *759:B1 12.9385 
3 *254:12 *605:A1 14.964 
*END

*D_NET *343 0.00680513
*CONN
*I *757:B I *D sky130_fd_sc_hd__nand2_1
*I *770:B1 I *D sky130_fd_sc_hd__o211ai_1
*I *769:A I *D sky130_fd_sc_hd__nand2_1
*I *759:A2 I *D sky130_fd_sc_hd__a21oi_1
*I *758:C1 I *D sky130_fd_sc_hd__o211ai_1
*I *756:Y O *D sky130_fd_sc_hd__nor2_1
*CAP
1 *757:B 0
2 *770:B1 0.000198063
3 *769:A 0
4 *759:A2 0.000322103
5 *758:C1 0.000501653
6 *756:Y 0
7 *343:52 0.00037398
8 *343:31 0.000720839
9 *343:27 0.000412633
10 *343:4 0.000691467
11 *758:C1 *505:B 0.000138453
12 *758:C1 *761:B1 6.08467e-05
13 *770:B1 *981:A 1.65872e-05
14 *770:B1 *352:24 0.000335602
15 *770:B1 *370:24 0.000107496
16 *343:27 *647:A1 0.000151142
17 *343:27 *884:A 1.00766e-05
18 *343:31 *344:20 2.16355e-05
19 *343:52 *701:CLK 8.36586e-06
20 *343:52 *352:24 0.000428804
21 *516:B *758:C1 5.20546e-06
22 *603:A *758:C1 6.36477e-05
23 *603:A *343:27 0.000390353
24 *604:A1 *758:C1 2.16355e-05
25 *604:A2 *758:C1 2.58757e-05
26 *604:A3 *758:C1 0.000107496
27 *604:C1 *758:C1 6.36477e-05
28 *604:C1 *343:27 0.000237552
29 *735:A2 *758:C1 0.000134976
30 *757:A *343:31 4.30291e-05
31 *758:B1 *758:C1 0.000124083
32 *770:C1 *770:B1 0.000366909
33 *770:C1 *343:52 6.03391e-06
34 *1018:A *343:27 0.000195713
35 *253:18 *759:A2 4.96454e-05
36 *253:18 *343:52 0.000168566
37 *259:243 *759:A2 0.000134701
38 *285:18 *770:B1 2.55661e-06
39 *306:44 *758:C1 0.000107496
40 *325:14 *758:C1 5.62568e-05
*RES
1 *756:Y *343:4 9.24915 
2 *343:4 *758:C1 31.7867 
3 *343:4 *343:27 16.6834 
4 *343:27 *343:31 4.62973 
5 *343:31 *759:A2 24.2875 
6 *343:31 *343:52 12.4631 
7 *343:52 *769:A 13.7491 
8 *343:52 *770:B1 21.8422 
9 *343:27 *757:B 9.24915 
*END

*D_NET *344 0.00384709
*CONN
*I *761:A1 I *D sky130_fd_sc_hd__o211ai_1
*I *757:Y O *D sky130_fd_sc_hd__nand2_1
*CAP
1 *761:A1 0
2 *757:Y 0.00122862
3 *344:20 0.00122862
4 *344:20 *761:C1 0.000187553
5 *344:20 *762:A 3.91885e-05
6 *344:20 *387:12 0.000584198
7 *604:A3 *344:20 0
8 *604:B1 *344:20 0
9 *751:B *344:20 3.82228e-05
10 *756:B *344:20 0.000126253
11 *757:A *344:20 1.72527e-05
12 *758:B1 *344:20 7.98171e-06
13 *761:A2 *344:20 0.000259086
14 *969:A *344:20 9.92327e-05
15 *159:20 *344:20 1.21461e-06
16 *283:27 *344:20 8.03393e-06
17 *341:12 *344:20 0
18 *343:31 *344:20 2.16355e-05
*RES
1 *757:Y *344:20 46.2982 
2 *344:20 *761:A1 9.24915 
*END

*D_NET *345 0.00177936
*CONN
*I *761:B1 I *D sky130_fd_sc_hd__o211ai_1
*I *758:Y O *D sky130_fd_sc_hd__o211ai_1
*CAP
1 *761:B1 0.000367202
2 *758:Y 0.000367202
3 *761:B1 *761:C1 0.000163302
4 *761:B1 *762:A 0.000116505
5 *761:B1 *358:20 1.26246e-05
6 *758:A2 *761:B1 2.99273e-05
7 *758:B1 *761:B1 1.60939e-05
8 *758:C1 *761:B1 6.08467e-05
9 *761:A2 *761:B1 0.000341051
10 *306:44 *761:B1 0.000274627
11 *325:14 *761:B1 2.99747e-05
*RES
1 *758:Y *761:B1 40.221 
*END

*D_NET *346 0.00451563
*CONN
*I *761:C1 I *D sky130_fd_sc_hd__o211ai_1
*I *759:Y O *D sky130_fd_sc_hd__a21oi_1
*CAP
1 *761:C1 0.00115903
2 *759:Y 0.00115903
3 *761:C1 *539:A 0.000350438
4 *761:C1 *505:B 0.000129525
5 *761:C1 *762:A 0.000168711
6 *761:C1 *884:A 3.34614e-05
7 *761:C1 *352:24 1.96351e-05
8 *604:B1 *761:C1 0.000202616
9 *761:A2 *761:C1 0.000115157
10 *761:B1 *761:C1 0.000163302
11 *768:A *761:C1 5.42603e-05
12 *768:B *761:C1 0.000242278
13 *253:18 *761:C1 0.000103055
14 *284:16 *761:C1 0.000301742
15 *307:8 *761:C1 0.000125825
16 *344:20 *761:C1 0.000187553
*RES
1 *759:Y *761:C1 47.899 
*END

*D_NET *238 0.00551593
*CONN
*I *599:A I *D sky130_fd_sc_hd__nor2_2
*I *730:C1 I *D sky130_fd_sc_hd__a211oi_2
*I *917:A I *D sky130_fd_sc_hd__buf_4
*I *734:A I *D sky130_fd_sc_hd__nor4_2
*I *760:Y O *D sky130_fd_sc_hd__xnor2_2
*CAP
1 *599:A 0.00024798
2 *730:C1 0.000180325
3 *917:A 8.49895e-05
4 *734:A 0.000178197
5 *760:Y 0.000448252
6 *238:38 0.000428305
7 *238:14 0.000638459
8 *238:10 0.000823524
9 *599:A *730:A1 4.94594e-05
10 *599:A *730:B1 9.58961e-05
11 *599:A *477:35 0
12 *730:C1 *730:A1 0.000207266
13 *730:C1 *1000:A 2.99929e-05
14 *730:C1 *367:14 7.86847e-05
15 *734:A *512:A2 0.000261641
16 *734:A *515:B 0.000184249
17 *734:A *516:C 7.73813e-05
18 *917:A *512:A2 0.000317466
19 *917:A *729:A 5.16457e-05
20 *917:A *729:B 6.64392e-05
21 *917:A *749:A 8.68769e-06
22 *238:10 *507:A 0
23 *238:10 *906:A 0.000109859
24 *238:10 *1000:A 9.78177e-05
25 *238:10 *367:14 1.9939e-05
26 *238:10 *434:13 0
27 *238:14 *601:B 1.66824e-05
28 *238:14 *906:A 5.05252e-05
29 *238:14 *311:12 0.00054978
30 *567:A2 *238:14 0
31 *760:B *238:10 0.000212485
*RES
1 *760:Y *238:10 24.1971 
2 *238:10 *238:14 15.4675 
3 *238:14 *734:A 24.1294 
4 *238:14 *917:A 13.3243 
5 *238:10 *238:38 4.5 
6 *238:38 *730:C1 22.0531 
7 *238:38 *599:A 13.7342 
*END

*D_NET *347 0.00241176
*CONN
*I *762:A I *D sky130_fd_sc_hd__xnor2_1
*I *761:Y O *D sky130_fd_sc_hd__o211ai_1
*CAP
1 *762:A 0.000947553
2 *761:Y 0.000947553
3 *762:A *565:A 6.11872e-05
4 *762:A *754:B 6.38038e-05
5 *761:B1 *762:A 0.000116505
6 *761:C1 *762:A 0.000168711
7 *169:12 *762:A 6.72622e-05
8 *344:20 *762:A 3.91885e-05
*RES
1 *761:Y *762:A 45.4727 
*END

*D_NET *349 0.00239563
*CONN
*I *766:A2 I *D sky130_fd_sc_hd__o211ai_1
*I *763:Y O *D sky130_fd_sc_hd__nand4_1
*CAP
1 *766:A2 0.000667478
2 *763:Y 0.000667478
3 *766:A2 *587:B 0.000290847
4 *766:A2 *753:B2 3.54949e-06
5 *766:A2 *763:A 0.000262406
6 *534:A2 *766:A2 4.00876e-05
7 *746:A2 *766:A2 1.52886e-05
8 *763:B *766:A2 0
9 *764:C1 *766:A2 2.16355e-05
10 *179:20 *766:A2 8.36586e-06
11 *218:24 *766:A2 1.5714e-05
12 *334:14 *766:A2 0
13 *335:8 *766:A2 0.000402781
*RES
1 *763:Y *766:A2 43.6139 
*END

*D_NET *350 0.000434696
*CONN
*I *766:B1 I *D sky130_fd_sc_hd__o211ai_1
*I *764:Y O *D sky130_fd_sc_hd__o211ai_1
*CAP
1 *766:B1 8.81789e-05
2 *764:Y 8.81789e-05
3 *766:B1 *766:C1 0.000189208
4 *533:B1 *766:B1 5.04829e-06
5 *764:C1 *766:B1 6.13051e-05
6 *284:72 *766:B1 2.77625e-06
*RES
1 *764:Y *766:B1 21.4642 
*END

*D_NET *351 0.0028386
*CONN
*I *766:C1 I *D sky130_fd_sc_hd__o211ai_1
*I *765:Y O *D sky130_fd_sc_hd__a21oi_1
*CAP
1 *766:C1 0.00064344
2 *765:Y 0.00064344
3 *766:C1 *587:B 0.000133663
4 *766:C1 *753:A1 0.000159664
5 *532:B1 *766:C1 0.000493143
6 *533:A1 *766:C1 5.78196e-06
7 *533:B1 *766:C1 7.92757e-06
8 *748:A *766:C1 4.145e-05
9 *765:A2 *766:C1 0.000313213
10 *766:B1 *766:C1 0.000189208
11 *953:A *766:C1 7.12632e-06
12 *1039:A *766:C1 1.91246e-05
13 *285:18 *766:C1 7.49936e-05
14 *335:8 *766:C1 0.000106427
*RES
1 *765:Y *766:C1 42.0577 
*END

*D_NET *352 0.00383267
*CONN
*I *767:B I *D sky130_fd_sc_hd__xnor2_1
*I *766:Y O *D sky130_fd_sc_hd__o211ai_1
*CAP
1 *767:B 0
2 *766:Y 0.000857816
3 *352:24 0.000857816
4 *352:24 *701:CLK 3.43223e-05
5 *533:A1 *352:24 0.000309579
6 *533:B1 *352:24 3.87297e-05
7 *603:A *352:24 0.000301105
8 *604:B1 *352:24 1.91246e-05
9 *755:B1 *352:24 6.27782e-05
10 *759:A1 *352:24 7.11609e-05
11 *761:C1 *352:24 1.96351e-05
12 *767:A *352:24 9.95922e-06
13 *768:A *352:24 9.49279e-05
14 *768:B *352:24 1.06199e-05
15 *770:B1 *352:24 0.000335602
16 *184:14 *352:24 0.000101489
17 *249:18 *352:24 7.14746e-05
18 *253:14 *352:24 0.00012527
19 *253:18 *352:24 3.18342e-06
20 *254:12 *352:24 1.88563e-05
21 *290:10 *352:24 2.52796e-05
22 *336:12 *352:24 3.51337e-05
23 *343:52 *352:24 0.000428804
*RES
1 *766:Y *352:24 45.9254 
2 *352:24 *767:B 9.24915 
*END

*D_NET *253 0.0053017
*CONN
*I *605:A2 I *D sky130_fd_sc_hd__a21oi_1
*I *770:C1 I *D sky130_fd_sc_hd__o211ai_1
*I *769:B I *D sky130_fd_sc_hd__nand2_1
*I *768:Y O *D sky130_fd_sc_hd__nor2_1
*CAP
1 *605:A2 0.000417794
2 *770:C1 0.000287066
3 *769:B 9.2451e-05
4 *768:Y 0.000214617
5 *253:18 0.000861906
6 *253:14 0.0011148
7 *605:A2 *536:B 4.82313e-05
8 *605:A2 *539:A 7.91423e-05
9 *605:A2 *546:B 0
10 *605:A2 *605:A1 4.09437e-05
11 *605:A2 *605:B1 0.000168313
12 *605:A2 *768:A 2.41274e-06
13 *605:A2 *884:A 7.56233e-05
14 *605:A2 *258:25 4.34442e-05
15 *769:B *546:B 0
16 *769:B *748:A 1.09551e-05
17 *769:B *911:A 3.24105e-05
18 *770:C1 *531:B2 0
19 *770:C1 *765:B1 1.52299e-05
20 *770:C1 *770:B1 0.000366909
21 *770:C1 *981:A 0.000157107
22 *770:C1 *1039:A 6.27718e-05
23 *770:C1 *285:18 9.43751e-05
24 *770:C1 *288:10 0
25 *770:C1 *343:52 6.03391e-06
26 *770:C1 *370:24 1.3808e-05
27 *253:14 *755:B1 8.38102e-05
28 *253:14 *768:A 9.07988e-05
29 *253:14 *352:24 0.00012527
30 *253:18 *701:CLK 9.81959e-05
31 *253:18 *755:B1 3.20407e-05
32 *253:18 *759:A2 4.96454e-05
33 *253:18 *761:C1 0.000103055
34 *253:18 *768:A 1.80225e-05
35 *253:18 *884:A 7.12632e-06
36 *253:18 *254:12 2.12421e-05
37 *253:18 *259:243 0.000140114
38 *253:18 *288:10 0
39 *253:18 *343:52 0.000168566
40 *253:18 *352:24 3.18342e-06
41 *161:12 *605:A2 9.70244e-05
42 *184:14 *253:14 3.56296e-05
43 *249:18 *769:B 2.16355e-05
*RES
1 *768:Y *253:14 24.1535 
2 *253:14 *253:18 18.3743 
3 *253:18 *769:B 16.1605 
4 *253:18 *770:C1 23.3006 
5 *253:14 *605:A2 29.7048 
*END

*D_NET *249 0.00393527
*CONN
*I *604:A1 I *D sky130_fd_sc_hd__o311ai_2
*I *769:Y O *D sky130_fd_sc_hd__nand2_1
*CAP
1 *604:A1 3.10742e-05
2 *769:Y 0.00125423
3 *249:18 0.0012853
4 *604:A1 *758:C1 2.16355e-05
5 *249:18 *647:A1 5.20546e-06
6 *249:18 *748:A 1.21461e-06
7 *249:18 *750:A1 0.000263107
8 *249:18 *750:A2 1.41307e-05
9 *249:18 *759:A1 7.50872e-05
10 *249:18 *769:B 2.16355e-05
11 *249:18 *903:A 1.08857e-05
12 *249:18 *911:A 9.80242e-07
13 *249:18 *352:24 7.14746e-05
14 *249:18 *358:20 1.83795e-06
15 *249:18 *491:50 0.000439359
16 *603:A *249:18 2.41274e-06
17 *169:12 *249:18 0.000435702
*RES
1 *769:Y *249:18 46.9839 
2 *249:18 *604:A1 14.4725 
*END

*D_NET *248 0.00539869
*CONN
*I *604:B1 I *D sky130_fd_sc_hd__o311ai_2
*I *770:Y O *D sky130_fd_sc_hd__o211ai_1
*CAP
1 *604:B1 0.0021273
2 *770:Y 0.0021273
3 *604:B1 *532:B1 0.000107593
4 *604:B1 *604:A2 4.2185e-05
5 *604:B1 *604:A3 1.5714e-05
6 *604:B1 *604:C1 0.000278403
7 *604:B1 *753:A1 4.71743e-05
8 *604:B1 *761:C1 0.000202616
9 *604:B1 *768:B 0.000104064
10 *604:B1 *284:16 0.000308088
11 *604:B1 *290:10 1.91246e-05
12 *604:B1 *344:20 0
13 *604:B1 *352:24 1.91246e-05
*RES
1 *770:Y *604:B1 40.4935 
*END

*D_NET *362 0.000585185
*CONN
*I *750:A1 I *D sky130_fd_sc_hd__o21ai_2
*I *903:X O *D sky130_fd_sc_hd__buf_4
*CAP
1 *750:A1 9.30838e-05
2 *903:X 9.30838e-05
3 *750:B1 *750:A1 0.000122154
4 *903:A *750:A1 1.37563e-05
5 *249:18 *750:A1 0.000263107
*RES
1 *903:X *750:A1 22.5975 
*END

*D_NET *364 0.00678579
*CONN
*I *505:A I *D sky130_fd_sc_hd__xor2_4
*I *905:X O *D sky130_fd_sc_hd__buf_6
*CAP
1 *505:A 0.00306639
2 *905:X 0.00306639
3 *505:A *517:B1 8.62625e-06
4 *505:A *595:A 3.5534e-06
5 *505:A *368:14 0
6 *505:A *434:55 1.57481e-05
7 *505:A *434:61 0.000398639
8 *505:A *434:81 9.45551e-06
9 *505:A *435:37 0
10 *519:B1 *505:A 2.05342e-06
11 *567:A2 *505:A 9.5538e-06
12 *735:A1 *505:A 0
13 *737:B *505:A 0
14 *931:A *505:A 0
15 *107:16 *505:A 1.05746e-05
16 *305:23 *505:A 0
17 *306:44 *505:A 5.65354e-05
18 *358:20 *505:A 0.000138271
*RES
1 *905:X *505:A 42.9756 
*END

*D_NET *365 0.000800443
*CONN
*I *511:B I *D sky130_fd_sc_hd__xor2_2
*I *906:X O *D sky130_fd_sc_hd__buf_6
*CAP
1 *511:B 0.000222765
2 *906:X 0.000222765
3 *511:B *367:14 2.865e-05
4 *511:B *400:16 2.01508e-05
5 *511:B *444:10 1.65872e-05
6 *906:A *511:B 7.28784e-05
7 *168:10 *511:B 5.37479e-05
8 *169:28 *511:B 0.000162898
*RES
1 *906:X *511:B 24.9318 
*END

*D_NET *366 0.00053686
*CONN
*I *537:A I *D sky130_fd_sc_hd__nor2_2
*I *907:X O *D sky130_fd_sc_hd__buf_4
*CAP
1 *537:A 0.000177713
2 *907:X 0.000177713
3 *529:A1 *537:A 7.68087e-05
4 *529:A2 *537:A 3.59934e-05
5 *537:B *537:A 1.55025e-05
6 *907:A *537:A 5.31286e-05
7 *341:12 *537:A 0
*RES
1 *907:X *537:A 32.765 
*END

*D_NET *368 0.00439229
*CONN
*I *522:A I *D sky130_fd_sc_hd__xnor2_4
*I *909:X O *D sky130_fd_sc_hd__buf_4
*CAP
1 *522:A 0.00101482
2 *909:X 0.000398467
3 *368:14 0.00141328
4 *522:A *517:B1 0.000268824
5 *522:A *518:B 0.000141229
6 *522:A *660:A0 0.00037115
7 *522:A *900:A 0.000263116
8 *522:A *982:A 5.95533e-05
9 *368:14 *434:81 7.37904e-07
10 *368:14 *461:24 5.03545e-06
11 *368:14 *500:18 0
12 *510:A *368:14 0.000168313
13 *516:B *368:14 0.000139065
14 *525:B *522:A 9.99702e-05
15 *505:A *368:14 0
16 *301:10 *368:14 0
17 *306:44 *522:A 4.87301e-05
18 *306:44 *368:14 0
*RES
1 *909:X *368:14 27.2143 
2 *368:14 *522:A 37.8956 
*END

*D_NET *440 0.00127789
*CONN
*I *765:B1 I *D sky130_fd_sc_hd__a21oi_1
*I *981:X O *D sky130_fd_sc_hd__buf_4
*CAP
1 *765:B1 0.000283477
2 *981:X 0.000283477
3 *530:B1 *765:B1 0.000205666
4 *531:C1 *765:B1 4.89251e-05
5 *531:B2 *765:B1 3.20407e-05
6 *765:A1 *765:B1 7.92757e-06
7 *770:C1 *765:B1 1.52299e-05
8 *1039:A *765:B1 0.000134151
9 *259:253 *765:B1 0.00011768
10 *285:18 *765:B1 0.000149313
*RES
1 *981:X *765:B1 36.7597 
*END

*D_NET *370 0.00216786
*CONN
*I *538:A I *D sky130_fd_sc_hd__nand2_1
*I *911:X O *D sky130_fd_sc_hd__buf_4
*CAP
1 *538:A 0
2 *911:X 0.000505393
3 *370:24 0.000505393
4 *370:24 *981:A 6.27376e-05
5 *370:24 *1040:A 8.65136e-05
6 *530:B1 *370:24 4.92617e-06
7 *533:A1 *370:24 0.000153679
8 *646:A1 *370:24 1.03594e-05
9 *765:A1 *370:24 0.000133879
10 *770:B1 *370:24 0.000107496
11 *770:C1 *370:24 1.3808e-05
12 *1039:A *370:24 0.000160942
13 *259:253 *370:24 7.78039e-05
14 *284:16 *370:24 8.65066e-05
15 *285:18 *370:24 9.08421e-05
16 *336:10 *370:24 9.49044e-05
17 *336:12 *370:24 7.26748e-05
*RES
1 *911:X *370:24 45.7596 
2 *370:24 *538:A 13.7491 
*END

*D_NET *371 0.0034525
*CONN
*I *568:B1 I *D sky130_fd_sc_hd__a21oi_4
*I *912:X O *D sky130_fd_sc_hd__buf_4
*CAP
1 *568:B1 0.00090336
2 *912:X 0.00090336
3 *568:B1 *579:B 0.000121082
4 *568:B1 *680:A 2.4706e-05
5 *568:B1 *460:24 0.000792868
6 *510:A *568:B1 0.00029532
7 *912:A *568:B1 0.000319382
8 *239:16 *568:B1 9.24241e-05
*RES
1 *912:X *568:B1 47.9802 
*END

*D_NET *372 0.00564932
*CONN
*I *900:A I *D sky130_fd_sc_hd__buf_6
*I *568:A1 I *D sky130_fd_sc_hd__a21oi_4
*I *913:X O *D sky130_fd_sc_hd__buf_6
*CAP
1 *900:A 4.24765e-05
2 *568:A1 0.000451896
3 *913:X 0.000763147
4 *372:10 0.00125752
5 *568:A1 *514:C 0.000294779
6 *568:A1 *526:A 0
7 *568:A1 *460:24 0.000208105
8 *568:A1 *467:18 1.2693e-05
9 *900:A *982:A 0.000216467
10 *372:10 *524:A 7.12632e-06
11 *372:10 *575:A 0
12 *372:10 *660:A0 6.06269e-06
13 *372:10 *679:B 3.25312e-05
14 *372:10 *382:90 7.48633e-05
15 *372:10 *426:31 1.78168e-05
16 *509:B *568:A1 0.000212881
17 *514:B *568:A1 0.000107583
18 *522:A *900:A 0.000263116
19 *525:B *900:A 1.65872e-05
20 *661:A1 *372:10 0
21 *913:A *372:10 0
22 *931:A *372:10 0.000123956
23 *1046:A *568:A1 1.07248e-05
24 *1046:A *372:10 4.52469e-05
25 *107:12 *372:10 1.95347e-05
26 *107:16 *568:A1 9.30514e-05
27 *107:16 *372:10 0.000795204
28 *190:12 *568:A1 2.65831e-05
29 *196:12 *372:10 0.000488572
30 *220:33 *568:A1 6.07931e-05
*RES
1 *913:X *372:10 39.0069 
2 *372:10 *568:A1 29.5682 
3 *372:10 *900:A 16.691 
*END

*D_NET *373 0.00585035
*CONN
*I *587:B I *D sky130_fd_sc_hd__nand2_4
*I *1040:A I *D sky130_fd_sc_hd__buf_6
*I *914:X O *D sky130_fd_sc_hd__buf_6
*CAP
1 *587:B 0.000361432
2 *1040:A 0.000237412
3 *914:X 0.001211
4 *373:16 0.00180984
5 *587:B *753:B2 1.1246e-05
6 *587:B *766:A1 3.95077e-05
7 *587:B *375:40 0.000136538
8 *1040:A *496:18 6.73351e-05
9 *373:16 *552:B 1.43832e-05
10 *373:16 *601:A 3.00174e-06
11 *373:16 *981:A 0.000200794
12 *373:16 *477:35 6.0378e-05
13 *532:A2 *373:16 9.05448e-05
14 *533:B1 *587:B 1.12605e-05
15 *552:A *373:16 2.56816e-05
16 *748:A *587:B 7.32576e-06
17 *748:A *1040:A 0.000312012
18 *748:A *373:16 8.61737e-06
19 *749:B *1040:A 0.000113968
20 *750:B1 *1040:A 2.82583e-05
21 *766:A2 *587:B 0.000290847
22 *766:C1 *587:B 0.000133663
23 *911:A *1040:A 2.41483e-05
24 *1014:A *373:16 2.84892e-05
25 *33:32 *373:16 6.19849e-05
26 *189:8 *373:16 8.20382e-05
27 *267:8 *373:16 2.58757e-05
28 *284:16 *587:B 0.000129853
29 *284:16 *1040:A 6.47897e-05
30 *284:47 *587:B 0.000108388
31 *334:18 *1040:A 4.3116e-06
32 *335:8 *587:B 2.40135e-05
33 *336:10 *587:B 3.4902e-05
34 *370:24 *1040:A 8.65136e-05
*RES
1 *914:X *373:16 43.2883 
2 *373:16 *1040:A 22.0526 
3 *373:16 *587:B 25.6571 
*END

*D_NET *374 0.00207144
*CONN
*I *590:A1 I *D sky130_fd_sc_hd__a21oi_4
*I *915:X O *D sky130_fd_sc_hd__buf_4
*CAP
1 *590:A1 0.000337124
2 *915:X 0.000337124
3 *590:A1 *601:A 0.000468944
4 *590:A1 *477:16 0.000146609
5 *764:A2 *590:A1 7.22106e-05
6 *914:A *590:A1 6.08467e-05
7 *33:32 *590:A1 0
8 *169:28 *590:A1 0.000648584
*RES
1 *915:X *590:A1 41.2767 
*END

*D_NET *375 0.00519986
*CONN
*I *587:A I *D sky130_fd_sc_hd__nand2_4
*I *763:A I *D sky130_fd_sc_hd__nand4_1
*I *741:A I *D sky130_fd_sc_hd__nand2_1
*I *752:A I *D sky130_fd_sc_hd__nand4_1
*I *916:X O *D sky130_fd_sc_hd__buf_4
*CAP
1 *587:A 0
2 *763:A 0.000325563
3 *741:A 0
4 *752:A 2.23916e-05
5 *916:X 0.000313989
6 *375:40 0.000727577
7 *375:23 0.000672629
8 *375:8 0.000606995
9 *763:A *753:B2 0.000148284
10 *763:A *457:16 0.000148284
11 *375:8 *752:D 3.10571e-05
12 *375:23 *381:6 2.07365e-05
13 *375:23 *381:10 1.09789e-05
14 *375:40 *744:B 0.000111722
15 *375:40 *753:B2 0.000133113
16 *533:A2 *375:40 0.000107496
17 *534:A2 *763:A 1.76193e-05
18 *587:B *375:40 0.000136538
19 *590:A2 *375:8 7.92757e-06
20 *599:B *375:8 0
21 *739:A *375:23 1.35155e-05
22 *739:A *375:40 7.07285e-05
23 *742:B1 *375:40 0.000166951
24 *746:A2 *763:A 9.63402e-05
25 *746:B1 *763:A 0.000352392
26 *752:C *752:A 0
27 *752:C *375:8 7.83059e-05
28 *753:B1 *375:40 6.08467e-05
29 *763:B *375:23 0.000196453
30 *763:B *375:40 2.39952e-05
31 *766:A2 *763:A 0.000262406
32 *922:A *375:8 2.96784e-06
33 *922:A *375:23 1.2954e-05
34 *264:27 *763:A 1.4106e-05
35 *289:6 *375:40 2.78407e-05
36 *341:12 *375:23 0.00025874
37 *341:12 *375:40 1.84133e-05
*RES
1 *916:X *375:8 14.2888 
2 *375:8 *752:A 10.2378 
3 *375:8 *375:23 7.45098 
4 *375:23 *741:A 9.24915 
5 *375:23 *375:40 20.8979 
6 *375:40 *763:A 29.2843 
7 *375:40 *587:A 9.24915 
*END

*D_NET *376 0.00387436
*CONN
*I *505:B I *D sky130_fd_sc_hd__xor2_4
*I *729:A I *D sky130_fd_sc_hd__nor2_1
*I *917:X O *D sky130_fd_sc_hd__buf_4
*CAP
1 *505:B 0.0006555
2 *729:A 9.33672e-05
3 *917:X 0
4 *376:4 0.000748867
5 *505:B *481:16 0.000352481
6 *505:B *491:50 7.97982e-05
7 *505:B *496:18 0.000193413
8 *512:A2 *505:B 0.000249631
9 *512:A2 *729:A 2.78256e-05
10 *735:A1 *505:B 1.91246e-05
11 *735:A2 *505:B 5.3526e-05
12 *749:A *505:B 0.000483596
13 *749:A *729:A 0.000255369
14 *758:B1 *505:B 9.17656e-06
15 *758:C1 *505:B 0.000138453
16 *761:C1 *505:B 0.000129525
17 *917:A *729:A 5.16457e-05
18 *1025:A *505:B 3.17794e-05
19 *207:10 *505:B 3.31645e-05
20 *306:44 *505:B 8.96342e-05
21 *307:8 *505:B 8.73669e-05
22 *322:18 *505:B 9.11135e-05
*RES
1 *917:X *376:4 9.24915 
2 *376:4 *729:A 12.7697 
3 *376:4 *505:B 43.6518 
*END

*D_NET *377 0.00376289
*CONN
*I *517:A2 I *D sky130_fd_sc_hd__a21oi_4
*I *918:X O *D sky130_fd_sc_hd__buf_4
*CAP
1 *517:A2 0
2 *918:X 0.00131977
3 *377:20 0.00131977
4 *377:20 *580:A 5.04423e-06
5 *377:20 *1007:A 2.81678e-06
6 *377:20 *388:28 0.000857172
7 *580:B *377:20 0.000126978
8 *581:A *377:20 8.2654e-05
9 *649:B1 *377:20 0
10 *76:22 *377:20 0
11 *259:26 *377:20 3.71003e-05
12 *259:192 *377:20 1.15862e-05
*RES
1 *918:X *377:20 43.2455 
2 *377:20 *517:A2 9.24915 
*END

*D_NET *441 0.00127979
*CONN
*I *518:A I *D sky130_fd_sc_hd__nor3_4
*I *982:X O *D sky130_fd_sc_hd__buf_4
*CAP
1 *518:A 0.00033081
2 *982:X 0.00033081
3 *518:A *479:16 7.08262e-05
4 *569:A1 *518:A 4.34932e-05
5 *918:A *518:A 0.000179722
6 *979:A *518:A 0
7 *992:A *518:A 2.57847e-05
8 *196:40 *518:A 0.000120962
9 *209:10 *518:A 7.77284e-05
10 *306:12 *518:A 5.77352e-05
11 *431:12 *518:A 4.19199e-05
*RES
1 *982:X *518:A 38.5037 
*END

*D_NET *378 0.000565495
*CONN
*I *754:B I *D sky130_fd_sc_hd__xnor2_2
*I *919:X O *D sky130_fd_sc_hd__buf_4
*CAP
1 *754:B 0.000250846
2 *919:X 0.000250846
3 *754:B *565:A 0
4 *754:B *491:50 0
5 *762:A *754:B 6.38038e-05
6 *169:12 *754:B 0
7 *283:27 *754:B 0
*RES
1 *919:X *754:B 33.8981 
*END

*D_NET *379 0.000594245
*CONN
*I *762:B I *D sky130_fd_sc_hd__xnor2_1
*I *920:X O *D sky130_fd_sc_hd__buf_4
*CAP
1 *762:B 0.000228571
2 *920:X 0.000228571
3 *762:B *565:A 1.03403e-05
4 *762:B *920:A 0.000112377
5 *160:18 *762:B 1.43848e-05
*RES
1 *920:X *762:B 23.6585 
*END

*D_NET *380 0.000564848
*CONN
*I *603:B I *D sky130_fd_sc_hd__xnor2_1
*I *921:X O *D sky130_fd_sc_hd__buf_4
*CAP
1 *603:B 0.000227319
2 *921:X 0.000227319
3 *536:B *603:B 6.50727e-05
4 *921:A *603:B 3.31745e-05
5 *162:6 *603:B 1.19618e-05
*RES
1 *921:X *603:B 23.538 
*END

*D_NET *381 0.00414502
*CONN
*I *741:B I *D sky130_fd_sc_hd__nand2_1
*I *763:C I *D sky130_fd_sc_hd__nand4_1
*I *552:B I *D sky130_fd_sc_hd__nand2_2
*I *752:D I *D sky130_fd_sc_hd__nand4_1
*I *922:X O *D sky130_fd_sc_hd__buf_4
*CAP
1 *741:B 2.06971e-05
2 *763:C 0.000366886
3 *552:B 0.000244845
4 *752:D 0.000219359
5 *922:X 2.04299e-05
6 *381:25 0.000611731
7 *381:10 0.000437542
8 *381:6 0.00025931
9 *552:B *480:24 0.00030831
10 *552:B *496:18 0
11 *763:C *607:B 8.16007e-06
12 *763:C *742:A2 2.58757e-05
13 *763:C *456:18 0.000255277
14 *732:B *763:C 0.00011231
15 *742:A1 *763:C 8.70662e-06
16 *742:B1 *763:C 6.27782e-05
17 *743:B *552:B 0.000147528
18 *743:B *763:C 0.000239328
19 *746:A2 *763:C 1.90649e-05
20 *752:C *752:D 3.6654e-05
21 *753:B1 *552:B 1.03171e-05
22 *763:B *741:B 5.08751e-05
23 *763:B *763:C 1.41976e-05
24 *763:B *381:6 6.08467e-05
25 *763:B *381:10 2.73145e-05
26 *763:D *763:C 1.78868e-05
27 *922:A *552:B 9.13616e-06
28 *922:A *752:D 0.000123665
29 *922:A *763:C 2.9784e-05
30 *922:A *381:10 0
31 *169:12 *552:B 0.000139684
32 *189:8 *552:B 6.08467e-05
33 *321:8 *763:C 9.75003e-05
34 *341:12 *552:B 2.10168e-05
35 *373:16 *552:B 1.43832e-05
36 *375:8 *752:D 3.10571e-05
37 *375:23 *381:6 2.07365e-05
38 *375:23 *381:10 1.09789e-05
*RES
1 *922:X *381:6 10.5271 
2 *381:6 *381:10 3.93045 
3 *381:10 *752:D 14.0718 
4 *381:10 *381:25 4.5 
5 *381:25 *552:B 22.1181 
6 *381:25 *763:C 24.7787 
7 *381:6 *741:B 9.97254 
*END

*D_NET *384 0.00207076
*CONN
*I *527:B I *D sky130_fd_sc_hd__xnor2_4
*I *925:X O *D sky130_fd_sc_hd__buf_6
*CAP
1 *527:B 0.000414195
2 *925:X 0.000414195
3 *527:B *522:B 0.000139931
4 *527:B *614:S 0
5 *527:B *447:44 0
6 *527:B *447:52 0
7 *527:B *493:16 9.50664e-05
8 *892:A *527:B 1.97124e-05
9 *165:22 *527:B 0.000258195
10 *259:73 *527:B 0.000729468
*RES
1 *925:X *527:B 43.4839 
*END

*D_NET *383 0.000524119
*CONN
*I *518:B I *D sky130_fd_sc_hd__nor3_4
*I *924:X O *D sky130_fd_sc_hd__buf_6
*CAP
1 *518:B 0.000191445
2 *924:X 0.000191445
3 *522:A *518:B 0.000141229
*RES
1 *924:X *518:B 23.128 
*END

*D_NET *388 0.00396094
*CONN
*I *517:A1 I *D sky130_fd_sc_hd__a21oi_4
*I *523:C1 I *D sky130_fd_sc_hd__o211ai_1
*I *929:X O *D sky130_fd_sc_hd__buf_6
*CAP
1 *517:A1 0
2 *523:C1 0.00010645
3 *929:X 0.000765375
4 *388:28 0.000658925
5 *523:C1 *479:14 0.000123458
6 *388:28 *517:B1 0.000357388
7 *388:28 *580:A 1.43832e-05
8 *388:28 *448:27 0.00022511
9 *388:28 *448:49 9.24832e-05
10 *388:28 *479:14 0.000188808
11 *649:A2 *388:28 0.000163344
12 *649:B1 *388:28 1.45799e-05
13 *1023:A *388:28 0.000118796
14 *76:22 *388:28 0.000160001
15 *259:192 *388:28 6.05974e-05
16 *301:10 *523:C1 5.40713e-05
17 *377:20 *388:28 0.000857172
*RES
1 *929:X *523:C1 21.9947 
2 *929:X *388:28 43.5828 
3 *388:28 *517:A1 9.24915 
*END

*D_NET *386 0.00274051
*CONN
*I *734:C I *D sky130_fd_sc_hd__nor4_2
*I *515:A I *D sky130_fd_sc_hd__xor2_2
*I *927:X O *D sky130_fd_sc_hd__buf_4
*CAP
1 *734:C 0.000484013
2 *515:A 2.12792e-05
3 *927:X 0.000165676
4 *386:6 0.000670968
5 *734:C *465:24 0
6 *520:B *734:C 0
7 *734:B *734:C 0.000124517
8 *902:A *734:C 0
9 *905:A *734:C 0
10 *167:22 *734:C 0.000112361
11 *167:22 *386:6 0.000546753
12 *219:8 *734:C 7.68538e-06
13 *228:31 *386:6 0.000157107
14 *306:12 *734:C 0.000419436
15 *311:12 *734:C 3.07133e-05
*RES
1 *927:X *386:6 15.5186 
2 *386:6 *515:A 9.82786 
3 *386:6 *734:C 32.357 
*END

*D_NET *389 0.00152054
*CONN
*I *511:A I *D sky130_fd_sc_hd__xor2_2
*I *930:X O *D sky130_fd_sc_hd__buf_4
*CAP
1 *511:A 0.000466195
2 *930:X 0.000466195
3 *511:A *473:18 3.01634e-05
4 *511:A *499:16 6.58857e-05
5 *507:B *511:A 0
6 *730:A1 *511:A 0
7 *904:A *511:A 0.000310205
8 *169:28 *511:A 0
9 *239:10 *511:A 4.09467e-05
10 *239:12 *511:A 0.00012369
11 *239:14 *511:A 1.72644e-05
12 *367:14 *511:A 0
*RES
1 *930:X *511:A 40.9573 
*END

*D_NET *395 0.000746968
*CONN
*I *607:A I *D sky130_fd_sc_hd__xnor2_4
*I *936:X O *D sky130_fd_sc_hd__buf_4
*CAP
1 *607:A 0.000190264
2 *936:X 0.000190264
3 *607:A *446:53 1.19705e-05
4 *607:A *491:18 0.00035447
*RES
1 *936:X *607:A 23.6826 
*END

*D_NET *393 0.00208058
*CONN
*I *729:B I *D sky130_fd_sc_hd__nor2_1
*I *934:X O *D sky130_fd_sc_hd__buf_4
*CAP
1 *729:B 0.000515631
2 *934:X 0.000515631
3 *729:B *477:35 0
4 *512:B1 *729:B 0.000426044
5 *512:C1 *729:B 0.000156302
6 *733:A *729:B 6.80895e-05
7 *749:A *729:B 6.60095e-06
8 *899:A *729:B 0
9 *917:A *729:B 6.64392e-05
10 *311:12 *729:B 0
11 *320:16 *729:B 0.000275322
12 *322:18 *729:B 5.05248e-05
*RES
1 *934:X *729:B 41.8016 
*END

*D_NET *397 0.00691587
*CONN
*I *562:B I *D sky130_fd_sc_hd__nand2_1
*I *938:X O *D sky130_fd_sc_hd__buf_4
*CAP
1 *562:B 1.39384e-05
2 *938:X 0.00203532
3 *397:32 0.00204926
4 *397:32 *766:A1 5.86491e-06
5 *397:32 *478:18 0.00021505
6 *397:32 *478:24 2.49496e-05
7 *534:A2 *397:32 0.000358177
8 *561:A *397:32 0.000958016
9 *669:A1 *397:32 0.000112361
10 *737:B *397:32 0.000262182
11 *742:A1 *562:B 6.3657e-05
12 *742:A1 *397:32 1.91391e-05
13 *746:B1 *397:32 1.56049e-05
14 *747:A1 *397:32 5.85325e-05
15 *753:B1 *397:32 0.000213529
16 *763:B *397:32 2.35428e-05
17 *938:A *397:32 7.92757e-06
18 *24:14 *397:32 0.000212333
19 *218:24 *562:B 2.57986e-05
20 *218:24 *397:32 5.86309e-07
21 *264:27 *397:32 0.000240092
*RES
1 *938:X *397:32 49.795 
2 *397:32 *562:B 14.4725 
*END

*D_NET *396 0.000896092
*CONN
*I *575:B I *D sky130_fd_sc_hd__xnor2_2
*I *937:X O *D sky130_fd_sc_hd__buf_4
*CAP
1 *575:B 0.000227953
2 *937:X 0.000227953
3 *575:B *910:A 5.68225e-06
4 resp_msg[0] *575:B 5.04829e-06
5 *528:A *575:B 0
6 *528:B *575:B 0.000135706
7 *882:A *575:B 0.000149643
8 *913:A *575:B 0
9 *1028:A *575:B 0.000144107
*RES
1 *937:X *575:B 34.6215 
*END

*D_NET *391 0.00323524
*CONN
*I *527:A I *D sky130_fd_sc_hd__xnor2_4
*I *932:X O *D sky130_fd_sc_hd__buf_4
*CAP
1 *527:A 0
2 *932:X 0.00105348
3 *391:18 0.00105348
4 *391:18 *932:A 3.51852e-05
5 *391:18 *436:39 2.1032e-05
6 *571:A2 *391:18 0
7 *625:A2 *391:18 1.03594e-05
8 *625:B1 *391:18 0.000304866
9 *928:A *391:18 6.91044e-05
10 *18:12 *391:18 0.000146006
11 *259:73 *391:18 0.000527516
12 *387:12 *391:18 1.41976e-05
*RES
1 *932:X *391:18 49.3726 
2 *391:18 *527:A 9.24915 
*END

*D_NET *399 0.00110511
*CONN
*I *522:B I *D sky130_fd_sc_hd__xnor2_4
*I *940:X O *D sky130_fd_sc_hd__buf_4
*CAP
1 *522:B 0.000348891
2 *940:X 0.000348891
3 *522:B *614:S 0
4 *522:B *447:52 0
5 *527:B *522:B 0.000139931
6 *718:D *522:B 0
7 *163:10 *522:B 0.000267394
*RES
1 *940:X *522:B 36.8399 
*END

*D_NET *401 0.000600139
*CONN
*I *521:A I *D sky130_fd_sc_hd__xor2_2
*I *942:X O *D sky130_fd_sc_hd__buf_4
*CAP
1 *521:A 3.26749e-05
2 *942:X 3.26749e-05
3 *521:A *663:A0 0.000267394
4 *521:A *942:A 0.000267394
*RES
1 *942:X *521:A 21.4401 
*END

*D_NET *402 0.00121251
*CONN
*I *508:C1 I *D sky130_fd_sc_hd__o211ai_1
*I *597:B I *D sky130_fd_sc_hd__nand2_1
*I *943:X O *D sky130_fd_sc_hd__buf_4
*CAP
1 *508:C1 0.000103747
2 *597:B 0.000133096
3 *943:X 0
4 *402:4 0.000236843
5 *508:C1 *508:A1 1.00937e-05
6 *597:B *664:A0 2.01188e-05
7 *508:A2 *508:C1 3.14978e-05
8 *593:B1 *508:C1 0.000416183
9 *593:B1 *597:B 0.000220183
10 *600:B *508:C1 4.0752e-05
*RES
1 *943:X *402:4 9.24915 
2 *402:4 *597:B 13.3243 
3 *402:4 *508:C1 14.4335 
*END

*D_NET *400 0.00807372
*CONN
*I *592:B1 I *D sky130_fd_sc_hd__o211ai_1
*I *601:B I *D sky130_fd_sc_hd__nand2_1
*I *941:X O *D sky130_fd_sc_hd__buf_4
*CAP
1 *592:B1 0.000344941
2 *601:B 0.00115783
3 *941:X 0.00130324
4 *400:16 0.00280601
5 *592:B1 *592:C1 0.000846223
6 *592:B1 *601:A 4.10737e-05
7 *592:B1 *666:A0 0.000383746
8 *592:B1 *420:10 0.000148144
9 *601:B *434:39 1.5721e-05
10 *601:B *434:55 0.000131933
11 *601:B *434:103 4.40476e-05
12 *400:16 *601:A 8.9232e-05
13 *400:16 *1000:A 7.6463e-05
14 *400:16 *444:10 5.66567e-05
15 *511:B *400:16 2.01508e-05
16 *567:A2 *601:B 0
17 *590:B1 *592:B1 9.8479e-05
18 *590:B1 *400:16 3.92481e-05
19 *737:B *601:B 0
20 *760:A *592:B1 2.54908e-05
21 *975:A *400:16 1.76639e-05
22 *27:10 *592:B1 8.92568e-06
23 *28:18 *400:16 3.82176e-05
24 *168:10 *400:16 4.231e-05
25 *221:12 *601:B 0
26 *228:10 *400:16 0.000308449
27 *238:14 *601:B 1.66824e-05
28 *385:16 *601:B 1.28466e-05
*RES
1 *941:X *400:16 37.9435 
2 *400:16 *601:B 24.1676 
3 *400:16 *592:B1 29.9073 
*END

*D_NET *444 0.00736058
*CONN
*I *592:C1 I *D sky130_fd_sc_hd__o211ai_1
*I *601:A I *D sky130_fd_sc_hd__nand2_1
*I *985:X O *D sky130_fd_sc_hd__buf_4
*CAP
1 *592:C1 0.000362914
2 *601:A 0.00048836
3 *985:X 0.00115318
4 *444:10 0.00200445
5 *592:C1 *936:A 9.76551e-05
6 *592:C1 *477:16 0.000266171
7 *601:A *477:16 0.000106393
8 *601:A *477:35 0.000284619
9 *444:10 *1000:A 0.000509414
10 *511:B *444:10 1.65872e-05
11 *567:A1 *601:A 6.25182e-05
12 *590:A1 *601:A 0.000468944
13 *590:B1 *601:A 1.54113e-05
14 *592:B1 *592:C1 0.000846223
15 *592:B1 *601:A 4.10737e-05
16 *914:A *601:A 6.08467e-05
17 *975:A *444:10 0.000112367
18 *28:18 *444:10 9.72261e-06
19 *33:32 *601:A 0
20 *168:10 *444:10 0.000304838
21 *373:16 *601:A 3.00174e-06
22 *400:16 *601:A 8.9232e-05
23 *400:16 *444:10 5.66567e-05
*RES
1 *985:X *444:10 32.244 
2 *444:10 *601:A 30.1769 
3 *444:10 *592:C1 29.2845 
*END

*D_NET *451 0.00605476
*CONN
*I *588:B I *D sky130_fd_sc_hd__nor2_4
*I *942:A I *D sky130_fd_sc_hd__buf_4
*I *995:X O *D sky130_fd_sc_hd__buf_6
*CAP
1 *588:B 0.000203059
2 *942:A 0.000612536
3 *995:X 0.000419076
4 *451:10 0.00123467
5 *588:B *588:A 0.00018248
6 *942:A *465:24 7.91751e-05
7 *942:A *467:18 0.000598989
8 *942:A *499:16 0.000294218
9 *520:B *588:B 3.83172e-05
10 *521:A *942:A 0.000267394
11 *593:A1 *588:B 0
12 *593:A1 *451:10 3.76558e-05
13 *595:A *942:A 8.17193e-05
14 *663:A0 *942:A 0.000248512
15 *663:S *942:A 6.08467e-05
16 *681:A *451:10 6.80827e-05
17 *734:B *588:B 6.08467e-05
18 *904:A *451:10 0.000158357
19 *905:A *588:B 0.000147526
20 *908:A *451:10 0.000215542
21 *1009:A *942:A 6.08467e-05
22 *1011:A *588:B 3.80495e-05
23 *1011:A *942:A 0.00021217
24 *166:8 *942:A 0.000157107
25 *227:10 *451:10 5.78282e-05
26 *228:10 *451:10 0.000191541
27 *228:14 *451:10 0.000211595
28 *228:31 *588:B 1.47251e-05
29 *228:31 *451:10 2.51718e-05
30 *239:14 *588:B 7.45722e-06
31 *363:14 *451:10 6.92571e-05
*RES
1 *995:X *451:10 27.7979 
2 *451:10 *942:A 36.859 
3 *451:10 *588:B 20.3622 
*END

*D_NET *453 0.00265871
*CONN
*I *514:A I *D sky130_fd_sc_hd__nor4_4
*I *997:X O *D sky130_fd_sc_hd__buf_4
*CAP
1 *514:A 0.000570217
2 *997:X 0.000570217
3 *514:A *467:18 1.00766e-05
4 *514:A *500:18 4.07982e-05
5 *506:B1 *514:A 6.27718e-05
6 *509:A *514:A 6.50586e-05
7 *510:A *514:A 1.08881e-05
8 *514:B *514:A 9.28161e-05
9 *213:27 *514:A 0.000130732
10 *304:20 *514:A 7.73227e-05
11 *310:12 *514:A 8.56366e-05
12 *387:12 *514:A 0.00094218
*RES
1 *997:X *514:A 46.7369 
*END

*D_NET *455 0.00286492
*CONN
*I *579:B I *D sky130_fd_sc_hd__nor2_2
*I *1041:A I *D sky130_fd_sc_hd__buf_4
*I *999:X O *D sky130_fd_sc_hd__buf_4
*CAP
1 *579:B 0.000328208
2 *1041:A 0.000696694
3 *999:X 2.12792e-05
4 *455:6 0.00104618
5 *1041:A *526:A 0.000107496
6 *1041:A *493:16 2.137e-05
7 *506:B1 *579:B 6.08467e-05
8 *506:C1 *579:B 3.20069e-06
9 *509:B *1041:A 3.82228e-05
10 *510:A *579:B 1.4106e-05
11 *568:A2 *579:B 5.04829e-06
12 *568:B1 *579:B 0.000121082
13 *905:A *579:B 5.04829e-06
14 *912:A *579:B 0.000204442
15 *997:A *1041:A 1.04731e-05
16 *207:12 *579:B 1.04731e-05
17 *207:12 *1041:A 2.49496e-05
18 *304:20 *1041:A 0.000145802
19 *305:23 *579:B 0
*RES
1 *999:X *455:6 9.82786 
2 *455:6 *1041:A 20.3894 
3 *455:6 *579:B 26.0985 
*END

*D_NET *456 0.00490105
*CONN
*I *753:B2 I *D sky130_fd_sc_hd__o221ai_4
*I *1000:X O *D sky130_fd_sc_hd__buf_6
*CAP
1 *753:B2 0.000309212
2 *1000:X 0.00113393
3 *456:18 0.00144314
4 *753:B2 *457:16 6.59995e-05
5 *456:18 *607:B 2.16898e-05
6 *456:18 *742:A2 1.55915e-05
7 *534:A2 *753:B2 0.000172003
8 *587:B *753:B2 1.1246e-05
9 *732:A *456:18 5.39264e-05
10 *738:A2 *456:18 0.000298986
11 *742:B1 *456:18 1.5714e-05
12 *763:A *753:B2 0.000148284
13 *763:C *456:18 0.000255277
14 *766:A2 *753:B2 3.54949e-06
15 *926:A *456:18 4.58959e-05
16 *157:26 *753:B2 2.03363e-06
17 *218:24 *753:B2 2.57465e-06
18 *264:10 *456:18 1.01585e-05
19 *289:6 *753:B2 2.65667e-05
20 *336:10 *753:B2 0.000123582
21 *375:40 *753:B2 0.000133113
22 *385:16 *456:18 0.000608581
*RES
1 *1000:X *456:18 42.2749 
2 *456:18 *753:B2 23.3638 
*END

*D_NET *460 0.00494132
*CONN
*I *509:C I *D sky130_fd_sc_hd__nor3_4
*I *514:C I *D sky130_fd_sc_hd__nor4_4
*I *1004:X O *D sky130_fd_sc_hd__buf_6
*CAP
1 *509:C 0
2 *514:C 0.000167171
3 *1004:X 0.000937469
4 *460:24 0.00110464
5 *514:C *526:A 2.44579e-05
6 *514:C *467:18 0.000312233
7 *460:24 *461:24 0.000394792
8 *460:24 *467:18 0.000134421
9 *568:A1 *514:C 0.000294779
10 *568:A1 *460:24 0.000208105
11 *568:B1 *460:24 0.000792868
12 *569:A1 *460:24 0.000142322
13 *680:A *460:24 5.04829e-06
14 *1004:A *460:24 0.00012453
15 *190:12 *460:24 5.51483e-06
16 *213:44 *460:24 0.000103983
17 *213:50 *460:24 6.36477e-05
18 *228:39 *460:24 0.000125341
19 *259:22 *460:24 0
*RES
1 *1004:X *460:24 38.8128 
2 *460:24 *514:C 20.5642 
3 *460:24 *509:C 13.7491 
*END

*D_NET *461 0.00230017
*CONN
*I *510:B I *D sky130_fd_sc_hd__nor2_2
*I *1005:X O *D sky130_fd_sc_hd__buf_6
*CAP
1 *510:B 0
2 *1005:X 0.000505514
3 *461:24 0.000505514
4 *506:A1 *461:24 4.19401e-06
5 *506:A2 *461:24 0.000195035
6 *736:B *461:24 3.99778e-05
7 *761:A2 *461:24 2.8322e-05
8 *1004:A *461:24 0.000160617
9 *207:12 *461:24 0.000109421
10 *259:22 *461:24 1.98663e-05
11 *310:12 *461:24 0
12 *320:16 *461:24 0.000331876
13 *368:14 *461:24 5.03545e-06
14 *460:24 *461:24 0.000394792
*RES
1 *1005:X *461:24 43.0847 
2 *461:24 *510:B 9.24915 
*END

*D_NET *462 0.0014891
*CONN
*I *588:A I *D sky130_fd_sc_hd__nor2_4
*I *1006:X O *D sky130_fd_sc_hd__buf_6
*CAP
1 *588:A 0.000370738
2 *1006:X 0.000370738
3 *588:A *465:24 0.000304152
4 *520:B *588:A 0.000122378
5 *588:B *588:A 0.00018248
6 *595:A *588:A 3.75603e-05
7 *902:A *588:A 2.29454e-05
8 *905:A *588:A 2.41483e-05
9 *1011:A *588:A 0
10 *239:14 *588:A 5.07632e-05
11 *239:16 *588:A 3.20069e-06
*RES
1 *1006:X *588:A 36.6472 
*END

*D_NET *463 0.00147312
*CONN
*I *582:B I *D sky130_fd_sc_hd__nand2_4
*I *1007:X O *D sky130_fd_sc_hd__buf_6
*CAP
1 *582:B 0.000351295
2 *1007:X 0.000351295
3 *582:B *1007:A 0.000189579
4 *580:A *582:B 0.000127689
5 *580:B *582:B 0.000114594
6 *661:A0 *582:B 1.00901e-05
7 *209:10 *582:B 8.35465e-05
8 *425:21 *582:B 0.000245035
*RES
1 *1007:X *582:B 29.8797 
*END

*D_NET *464 0.00132222
*CONN
*I *1007:A I *D sky130_fd_sc_hd__buf_6
*I *1008:X O *D sky130_fd_sc_hd__buf_4
*CAP
1 *1007:A 0.000406059
2 *1008:X 0.000406059
3 *1007:A *620:S 0.000114584
4 *580:B *1007:A 9.87212e-05
5 *582:B *1007:A 0.000189579
6 *648:A *1007:A 4.66598e-05
7 *649:A2 *1007:A 0
8 *1002:A *1007:A 5.77383e-05
9 *377:20 *1007:A 2.81678e-06
*RES
1 *1008:X *1007:A 46.3378 
*END

*D_NET *465 0.0065957
*CONN
*I *1000:A I *D sky130_fd_sc_hd__buf_6
*I *1043:A I *D sky130_fd_sc_hd__buf_6
*I *1009:X O *D sky130_fd_sc_hd__buf_6
*CAP
1 *1000:A 0.00081194
2 *1043:A 0.000313914
3 *1009:X 0.000595262
4 *465:24 0.00172112
5 *1000:A *516:C 0.000110297
6 *465:24 *467:18 1.04731e-05
7 *465:24 *499:16 0.000272427
8 *588:A *465:24 0.000304152
9 *595:A *465:24 0.000260325
10 *730:C1 *1000:A 2.99929e-05
11 *734:C *465:24 0
12 *902:A *465:24 0.000120384
13 *906:A *1000:A 0.000151758
14 *915:A *1000:A 2.98535e-05
15 *915:A *1043:A 7.60954e-05
16 *942:A *465:24 7.91751e-05
17 *1011:A *465:24 0.00021217
18 *169:28 *1000:A 1.02356e-05
19 *228:31 *465:24 0.000109421
20 *238:10 *1000:A 9.78177e-05
21 *239:14 *465:24 0
22 *306:12 *1000:A 6.90775e-05
23 *311:12 *1000:A 0.000262304
24 *320:16 *1000:A 0.000218907
25 *367:14 *1000:A 0.00014273
26 *400:16 *1000:A 7.6463e-05
27 *444:10 *1000:A 0.000509414
*RES
1 *1009:X *465:24 36.6448 
2 *465:24 *1043:A 14.2888 
3 *465:24 *1000:A 42.0556 
*END

*D_NET *467 0.00434478
*CONN
*I *514:D I *D sky130_fd_sc_hd__nor4_4
*I *1011:X O *D sky130_fd_sc_hd__buf_6
*CAP
1 *514:D 0
2 *1011:X 0.000774937
3 *467:18 0.000774937
4 *467:18 *526:A 9.29777e-05
5 *467:18 *499:16 0.000646669
6 *514:A *467:18 1.00766e-05
7 *514:B *467:18 0.000205681
8 *514:C *467:18 0.000312233
9 *568:A1 *467:18 1.2693e-05
10 *680:A *467:18 0.000396165
11 *942:A *467:18 0.000598989
12 *1009:A *467:18 3.61045e-05
13 *220:33 *467:18 0
14 *390:12 *467:18 0.000338425
15 *460:24 *467:18 0.000134421
16 *465:24 *467:18 1.04731e-05
*RES
1 *1011:X *467:18 46.5028 
2 *467:18 *514:D 9.24915 
*END

*D_NET *470 0.00445219
*CONN
*I *753:A1 I *D sky130_fd_sc_hd__o221ai_4
*I *1014:X O *D sky130_fd_sc_hd__buf_4
*CAP
1 *753:A1 0.00174205
2 *1014:X 0.00174205
3 *753:A1 *766:A1 2.21603e-05
4 *753:A1 *478:18 0
5 *753:A1 *496:18 7.86825e-06
6 *532:B1 *753:A1 0.000241619
7 *533:A2 *753:A1 3.31705e-05
8 *560:A *753:A1 4.40115e-06
9 *604:B1 *753:A1 4.71743e-05
10 *646:A1 *753:A1 0
11 *753:A2 *753:A1 3.89811e-05
12 *763:D *753:A1 0.000104239
13 *765:A2 *753:A1 5.9936e-06
14 *766:C1 *753:A1 0.000159664
15 *157:26 *753:A1 5.07137e-05
16 *285:18 *753:A1 0.000175026
17 *322:18 *753:A1 2.29386e-05
18 *392:213 *753:A1 5.41377e-05
*RES
1 *1014:X *753:A1 41.8109 
*END

*D_NET *387 0.00763159
*CONN
*I *512:B2 I *D sky130_fd_sc_hd__a221oi_4
*I *928:X O *D sky130_fd_sc_hd__buf_6
*CAP
1 *512:B2 0.000334438
2 *928:X 0.00136142
3 *387:12 0.00169586
4 *512:B2 *934:A 3.17121e-05
5 *387:12 *514:A 0.00094218
6 *387:12 *972:A 4.89251e-05
7 *387:12 *391:18 1.41976e-05
8 *387:12 *500:18 0.00118208
9 *512:B1 *512:B2 0.000122083
10 *758:A1 *512:B2 0
11 *928:A *387:12 0.000141179
12 *979:A *387:12 0.000111658
13 *1025:A *512:B2 0.000363909
14 *33:8 *512:B2 0.000161966
15 *207:10 *512:B2 4.13313e-05
16 *310:12 *387:12 9.10064e-05
17 *344:20 *387:12 0.000584198
18 *358:20 *512:B2 0.000403438
*RES
1 *928:X *387:12 47.4686 
2 *387:12 *512:B2 30.4624 
*END

*D_NET *473 0.00707088
*CONN
*I *766:A1 I *D sky130_fd_sc_hd__o211ai_1
*I *742:A2 I *D sky130_fd_sc_hd__o21ai_2
*I *1017:X O *D sky130_fd_sc_hd__buf_6
*CAP
1 *766:A1 0.00106392
2 *742:A2 0.000209198
3 *1017:X 0.00103111
4 *473:18 0.00230422
5 *742:A2 *491:46 1.69467e-05
6 *766:A1 *478:18 5.60804e-05
7 *766:A1 *480:24 4.15661e-05
8 *766:A1 *496:18 3.82049e-05
9 *511:A *473:18 3.01634e-05
10 *587:B *766:A1 3.95077e-05
11 *730:A1 *473:18 0.000101118
12 *737:B *766:A1 0.000190569
13 *738:A2 *742:A2 3.00829e-05
14 *746:A2 *742:A2 3.82228e-05
15 *752:C *766:A1 0.000154937
16 *753:A1 *766:A1 2.21603e-05
17 *753:A2 *766:A1 0.000207993
18 *763:C *742:A2 2.58757e-05
19 *763:D *742:A2 0
20 *763:D *766:A1 1.32412e-05
21 *906:A *473:18 0.000154366
22 *922:A *742:A2 0.000137861
23 *1022:A *473:18 0.000214369
24 *157:26 *766:A1 0.000225876
25 *218:24 *473:18 0.000557534
26 *266:14 *742:A2 4.01777e-06
27 *315:8 *473:18 6.08467e-05
28 *321:8 *742:A2 1.07549e-05
29 *328:10 *742:A2 2.91752e-05
30 *335:8 *766:A1 3.95077e-05
31 *397:32 *766:A1 5.86491e-06
32 *456:18 *742:A2 1.55915e-05
*RES
1 *1017:X *473:18 44.0646 
2 *473:18 *742:A2 19.9563 
3 *473:18 *766:A1 32.4559 
*END

*D_NET *367 0.00626286
*CONN
*I *512:C1 I *D sky130_fd_sc_hd__a221oi_4
*I *908:X O *D sky130_fd_sc_hd__buf_4
*CAP
1 *512:C1 0.000646542
2 *908:X 0.00112934
3 *367:14 0.00177588
4 *512:C1 *729:B 0.000156302
5 *512:C1 *477:35 1.18802e-05
6 *367:14 *511:A 0
7 *367:14 *516:C 0.000213929
8 *367:14 *708:CLK 0.000302538
9 *367:14 *1000:A 0.00014273
10 *367:14 *466:16 0.000768296
11 *511:B *367:14 2.865e-05
12 *515:B *367:14 3.82145e-05
13 *567:A1 *512:C1 6.53173e-05
14 *567:A2 *512:C1 0.000100869
15 *730:C1 *367:14 7.86847e-05
16 *740:A *367:14 4.31539e-05
17 *908:A *367:14 0.000217923
18 *914:A *512:C1 0.000247204
19 *120:28 *367:14 4.37841e-05
20 *167:22 *512:C1 7.11343e-06
21 *169:28 *367:14 1.1431e-06
22 *169:34 *367:14 9.21914e-05
23 *238:10 *367:14 1.9939e-05
24 *306:12 *367:14 7.28994e-06
25 *311:12 *512:C1 0
26 *320:16 *367:14 0.000123939
*RES
1 *908:X *367:14 49.2068 
2 *367:14 *512:C1 35.1424 
*END

*D_NET *359 0.0018531
*CONN
*I *526:B I *D sky130_fd_sc_hd__xnor2_2
*I *900:X O *D sky130_fd_sc_hd__buf_6
*CAP
1 *526:B 0.0004876
2 *900:X 0.0004876
3 *526:B *950:A 0.00016386
4 *526:B *982:A 0.000335213
5 *525:B *526:B 0
6 *979:A *526:B 0
7 *164:12 *526:B 2.75733e-05
8 *208:12 *526:B 0.000317399
9 *259:38 *526:B 3.38524e-05
*RES
1 *900:X *526:B 42.1285 
*END

*D_NET *476 0.00107214
*CONN
*I *737:A I *D sky130_fd_sc_hd__xnor2_2
*I *746:C1 I *D sky130_fd_sc_hd__a211oi_1
*I *1020:X O *D sky130_fd_sc_hd__buf_4
*CAP
1 *737:A 0
2 *746:C1 0.000288079
3 *1020:X 0.00017319
4 *476:10 0.000461269
5 *737:B *746:C1 8.38678e-05
6 *392:213 *746:C1 0
7 *392:213 *476:10 0
8 *419:14 *476:10 5.56461e-05
9 *450:40 *476:10 0
10 *466:18 *476:10 1.00846e-05
*RES
1 *1020:X *476:10 18.2442 
2 *476:10 *746:C1 20.5642 
3 *476:10 *737:A 13.7491 
*END

*D_NET *477 0.00846029
*CONN
*I *936:A I *D sky130_fd_sc_hd__buf_4
*I *934:A I *D sky130_fd_sc_hd__buf_4
*I *734:D I *D sky130_fd_sc_hd__nor4_2
*I *730:B1 I *D sky130_fd_sc_hd__a211oi_2
*I *1021:X O *D sky130_fd_sc_hd__buf_4
*CAP
1 *936:A 0.000101762
2 *934:A 0.000155172
3 *734:D 0.000106519
4 *730:B1 0.000238459
5 *1021:X 0.000343118
6 *477:35 0.000708971
7 *477:16 0.00128052
8 *477:10 0.00103966
9 *512:B1 *934:A 9.24241e-05
10 *512:B1 *477:35 0
11 *512:B2 *934:A 3.17121e-05
12 *512:C1 *477:35 1.18802e-05
13 *512:A1 *734:D 1.62073e-05
14 *512:A1 *934:A 2.50647e-05
15 *556:A *477:10 0.000110567
16 *567:A1 *477:35 0.000449327
17 *590:A1 *477:16 0.000146609
18 *590:A2 *477:16 0.000110306
19 *592:C1 *936:A 9.76551e-05
20 *592:C1 *477:16 0.000266171
21 *599:A *730:B1 9.58961e-05
22 *599:A *477:35 0
23 *599:B *730:B1 0.000231707
24 *601:A *477:16 0.000106393
25 *601:A *477:35 0.000284619
26 *729:B *477:35 0
27 *730:A1 *730:B1 3.73375e-05
28 *731:C1 *477:16 0.000157373
29 *735:B1 *734:D 0.000264379
30 *735:B1 *934:A 0.000152189
31 *738:A2 *477:16 7.46988e-05
32 *740:A *477:10 6.08467e-05
33 *752:C *477:35 0
34 *758:A1 *934:A 1.44467e-05
35 *764:A2 *477:16 0.000213437
36 *914:A *477:35 0.000120131
37 *980:A *477:16 4.22809e-05
38 *1017:A *730:B1 6.08467e-05
39 *27:8 *477:10 0.000191397
40 *33:8 *477:35 0
41 *224:10 *936:A 7.64968e-05
42 *224:10 *477:16 0.000134884
43 *237:6 *730:B1 1.41976e-05
44 *237:6 *477:16 4.66492e-05
45 *259:290 *477:10 0.000379445
46 *262:10 *477:10 0.000111708
47 *311:12 *734:D 0.000196442
48 *373:16 *477:35 6.0378e-05
*RES
1 *1021:X *477:10 24.4795 
2 *477:10 *477:16 25.1899 
3 *477:16 *730:B1 17.2306 
4 *477:16 *477:35 24.6988 
5 *477:35 *734:D 14.4576 
6 *477:35 *934:A 23.1595 
7 *477:10 *936:A 17.6574 
*END

*D_NET *480 0.00819157
*CONN
*I *607:B I *D sky130_fd_sc_hd__xnor2_4
*I *1024:X O *D sky130_fd_sc_hd__buf_6
*CAP
1 *607:B 0.000803818
2 *1024:X 0.0013918
3 *480:24 0.00219561
4 *607:B *491:46 0.000134066
5 *607:B *491:78 1.59362e-06
6 *480:24 *981:A 4.24629e-05
7 *480:24 *491:46 0.000248384
8 *480:24 *496:18 4.18004e-05
9 *529:A1 *480:24 3.96696e-05
10 *529:B1 *480:24 0.000645362
11 *552:B *480:24 0.00030831
12 *553:B *607:B 9.61668e-05
13 *732:A *607:B 1.23606e-05
14 *737:B *480:24 0
15 *738:A1 *607:B 0
16 *742:A1 *607:B 0.00020159
17 *742:B1 *607:B 5.73369e-05
18 *743:B *607:B 7.72394e-06
19 *748:A *480:24 0.000107187
20 *752:C *480:24 0.000219526
21 *753:B1 *480:24 0.000542595
22 *763:C *607:B 8.16007e-06
23 *763:D *607:B 0.000200382
24 *766:A1 *480:24 4.15661e-05
25 *1021:A *607:B 3.51249e-05
26 *169:12 *480:24 4.6447e-05
27 *264:10 *607:B 3.26966e-05
28 *321:8 *607:B 0
29 *334:14 *480:24 0.000107187
30 *385:16 *607:B 0.000109119
31 *434:103 *607:B 1.32315e-05
32 *446:53 *607:B 0.000117937
33 *450:40 *607:B 0
34 *456:18 *607:B 2.16898e-05
35 *478:18 *480:24 0.000360667
*RES
1 *1024:X *480:24 48.5308 
2 *480:24 *607:B 41.201 
*END

*D_NET *438 0.000356038
*CONN
*I *924:A I *D sky130_fd_sc_hd__buf_6
*I *979:X O *D sky130_fd_sc_hd__buf_4
*CAP
1 *924:A 0.000139948
2 *979:X 0.000139948
3 *924:A *493:16 0
4 *924:A *500:18 0
5 *979:A *924:A 7.61424e-05
*RES
1 *979:X *924:A 30.9913 
*END

*D_NET *493 0.00357756
*CONN
*I *925:A I *D sky130_fd_sc_hd__buf_6
*I *1037:X O *D sky130_fd_sc_hd__buf_6
*CAP
1 *925:A 0
2 *1037:X 0.000895388
3 *493:16 0.000895388
4 *493:16 *526:A 3.82228e-05
5 *493:16 *982:A 0.000122345
6 *493:16 *500:18 0.00020747
7 *509:B *493:16 0.000107496
8 *524:A *493:16 1.5714e-05
9 *527:B *493:16 9.50664e-05
10 *892:A *493:16 0.000296198
11 *924:A *493:16 0
12 *979:A *493:16 0
13 *1041:A *493:16 2.137e-05
14 *107:16 *493:16 0
15 *165:22 *493:16 0.000122925
16 *196:40 *493:16 6.36477e-05
17 *213:27 *493:16 0.000421429
18 *304:20 *493:16 0.000274904
*RES
1 *1037:X *493:16 47.5988 
2 *493:16 *925:A 9.24915 
*END

*D_NET *494 0.00240749
*CONN
*I *920:A I *D sky130_fd_sc_hd__buf_4
*I *1038:X O *D sky130_fd_sc_hd__buf_4
*CAP
1 *920:A 0.000416577
2 *1038:X 0.000416577
3 *535:A2 *920:A 0.000164815
4 *606:B1 *920:A 0.000559559
5 *656:A1 *920:A 6.36477e-05
6 *762:B *920:A 0.000112377
7 *887:A *920:A 0.000429471
8 *278:18 *920:A 0.00017939
9 *288:10 *920:A 6.50727e-05
*RES
1 *1038:X *920:A 34.413 
*END

*D_NET *495 0.00237111
*CONN
*I *981:A I *D sky130_fd_sc_hd__buf_4
*I *1039:X O *D sky130_fd_sc_hd__buf_4
*CAP
1 *981:A 0.000657765
2 *1039:X 0.000657765
3 *529:A1 *981:A 0.00012719
4 *530:B1 *981:A 0.000230453
5 *770:A1 *981:A 7.78924e-05
6 *770:B1 *981:A 1.65872e-05
7 *770:C1 *981:A 0.000157107
8 *1039:A *981:A 1.65872e-05
9 *334:14 *981:A 0.000123773
10 *370:24 *981:A 6.27376e-05
11 *373:16 *981:A 0.000200794
12 *480:24 *981:A 4.24629e-05
*RES
1 *1039:X *981:A 44.4117 
*END

*D_NET *361 0.00251315
*CONN
*I *512:A2 I *D sky130_fd_sc_hd__a221oi_4
*I *902:X O *D sky130_fd_sc_hd__buf_4
*CAP
1 *512:A2 0.000706536
2 *902:X 0.000706536
3 *512:A2 *505:B 0.000249631
4 *512:A2 *729:A 2.78256e-05
5 *512:A2 *496:18 3.16904e-05
6 *734:A *512:A2 0.000261641
7 *917:A *512:A2 0.000317466
8 *322:18 *512:A2 0.000211821
*RES
1 *902:X *512:A2 46.5979 
*END

*D_NET *457 0.00422315
*CONN
*I *534:A1 I *D sky130_fd_sc_hd__o21ai_2
*I *744:B I *D sky130_fd_sc_hd__nor2_1
*I *1001:X O *D sky130_fd_sc_hd__buf_4
*CAP
1 *534:A1 0.000306488
2 *744:B 0.000163421
3 *1001:X 0.000740988
4 *457:16 0.0012109
5 *533:A2 *534:A1 1.65872e-05
6 *533:A2 *744:B 0.000157338
7 *533:A2 *457:16 8.03699e-06
8 *563:A *457:16 0.000146519
9 *646:A1 *534:A1 4.02755e-05
10 *696:D *534:A1 5.04829e-06
11 *731:A1 *457:16 5.04829e-06
12 *753:B2 *457:16 6.59995e-05
13 *763:A *457:16 0.000148284
14 *1026:A *534:A1 9.97706e-05
15 *1:16 *457:16 0.00016553
16 *157:26 *534:A1 0.000107496
17 *157:26 *457:16 2.77564e-05
18 *171:12 *457:16 5.1674e-06
19 *289:6 *534:A1 0.000108038
20 *336:10 *744:B 0.000442558
21 *375:40 *744:B 0.000111722
22 *392:213 *534:A1 6.27759e-05
23 *392:213 *457:16 7.74067e-05
*RES
1 *1001:X *457:16 37.6457 
2 *457:16 *744:B 15.7477 
3 *457:16 *534:A1 26.7953 
*END

*D_NET *496 0.00346508
*CONN
*I *752:B I *D sky130_fd_sc_hd__nand4_1
*I *1040:X O *D sky130_fd_sc_hd__buf_6
*CAP
1 *752:B 0
2 *1040:X 0.000817458
3 *496:18 0.000817458
4 *512:A2 *496:18 3.16904e-05
5 *552:B *496:18 0
6 *505:B *496:18 0.000193413
7 *735:B1 *496:18 0.000311235
8 *749:B *496:18 0.000150803
9 *750:B1 *496:18 0.000211492
10 *753:A1 *496:18 7.86825e-06
11 *753:B1 *496:18 6.41384e-05
12 *766:A1 *496:18 3.82049e-05
13 *922:A *496:18 1.79196e-05
14 *1040:A *496:18 6.73351e-05
15 *322:18 *496:18 6.08956e-05
16 *480:24 *496:18 4.18004e-05
17 *491:46 *496:18 0.000520576
18 *491:50 *496:18 0.000112789
*RES
1 *1040:X *496:18 46.1126 
2 *496:18 *752:B 9.24915 
*END

*D_NET *437 0.00228744
*CONN
*I *575:A I *D sky130_fd_sc_hd__xnor2_2
*I *978:X O *D sky130_fd_sc_hd__buf_4
*CAP
1 *575:A 0.000602429
2 *978:X 0.000602429
3 *528:B *575:A 0.000441022
4 *574:C *575:A 0.000122098
5 *679:A *575:A 0.00027329
6 *679:B *575:A 6.50586e-05
7 *882:A *575:A 0
8 *913:A *575:A 0
9 *978:A *575:A 0.000171288
10 *196:12 *575:A 9.82896e-06
11 *372:10 *575:A 0
*RES
1 *978:X *575:A 45.7374 
*END

*D_NET *497 0.00222655
*CONN
*I *526:A I *D sky130_fd_sc_hd__xnor2_2
*I *1041:X O *D sky130_fd_sc_hd__buf_4
*CAP
1 *526:A 0.000434042
2 *1041:X 0.000434042
3 *514:C *526:A 2.44579e-05
4 *568:A1 *526:A 0
5 *571:B1 *526:A 7.50799e-05
6 *578:A *526:A 8.36586e-06
7 *660:A0 *526:A 5.79254e-05
8 *1041:A *526:A 0.000107496
9 *1046:A *526:A 7.58217e-06
10 *204:28 *526:A 0.000351818
11 *390:12 *526:A 0.000583799
12 *426:31 *526:A 1.07403e-05
13 *467:18 *526:A 9.29777e-05
14 *493:16 *526:A 3.82228e-05
*RES
1 *1041:X *526:A 44.7269 
*END

*D_NET *498 0.00245732
*CONN
*I *539:A I *D sky130_fd_sc_hd__nor2_4
*I *1042:X O *D sky130_fd_sc_hd__buf_4
*CAP
1 *539:A 0.000523341
2 *1042:X 0.000523341
3 *533:B1 *539:A 4.9278e-05
4 *536:B *539:A 7.91423e-05
5 *539:B *539:A 4.76161e-06
6 *605:A2 *539:A 7.91423e-05
7 *647:A1 *539:A 8.29799e-05
8 *701:CLK *539:A 1.13012e-05
9 *755:A2 *539:A 5.8493e-05
10 *761:C1 *539:A 0.000350438
11 *768:B *539:A 9.13731e-05
12 *884:A *539:A 0.000515533
13 *159:20 *539:A 5.04829e-06
14 *185:10 *539:A 2.99997e-05
15 *283:31 *539:A 5.31465e-05
*RES
1 *1042:X *539:A 42.1259 
*END

*D_NET *499 0.00434195
*CONN
*I *521:B I *D sky130_fd_sc_hd__xor2_2
*I *1043:X O *D sky130_fd_sc_hd__buf_6
*CAP
1 *521:B 0
2 *1043:X 0.00147152
3 *499:16 0.00147152
4 *511:A *499:16 6.58857e-05
5 *902:A *499:16 2.40736e-05
6 *942:A *499:16 0.000294218
7 *948:A *499:16 7.73683e-05
8 *228:31 *499:16 1.82679e-05
9 *465:24 *499:16 0.000272427
10 *467:18 *499:16 0.000646669
*RES
1 *1043:X *499:16 49.4544 
2 *499:16 *521:B 4.5 
*END

*D_NET *500 0.00643435
*CONN
*I *517:B1 I *D sky130_fd_sc_hd__a21oi_4
*I *518:C I *D sky130_fd_sc_hd__nor3_4
*I *1044:X O *D sky130_fd_sc_hd__buf_6
*CAP
1 *517:B1 0.000737727
2 *518:C 0
3 *1044:X 0.00103179
4 *500:18 0.00176952
5 *514:A *500:18 4.07982e-05
6 *522:A *517:B1 0.000268824
7 *505:A *517:B1 8.62625e-06
8 *697:DE *517:B1 0.000354796
9 *924:A *500:18 0
10 *207:10 *517:B1 0
11 *259:192 *517:B1 7.69126e-05
12 *301:10 *500:18 5.20002e-05
13 *306:44 *517:B1 7.45422e-05
14 *358:20 *517:B1 0.000155329
15 *368:14 *500:18 0
16 *387:12 *500:18 0.00118208
17 *388:28 *517:B1 0.000357388
18 *434:81 *517:B1 6.91107e-05
19 *434:81 *500:18 0
20 *435:52 *517:B1 2.89271e-05
21 *448:27 *517:B1 1.85129e-05
22 *493:16 *500:18 0.00020747
*RES
1 *1044:X *500:18 47.2992 
2 *500:18 *518:C 9.24915 
3 *500:18 *517:B1 42.0287 
*END

*D_NET *501 0.00127857
*CONN
*I *932:A I *D sky130_fd_sc_hd__buf_4
*I *1045:X O *D sky130_fd_sc_hd__buf_4
*CAP
1 *932:A 0.000244905
2 *1045:X 0.000244905
3 *624:A *932:A 1.63255e-05
4 *625:A1 *932:A 0.000250736
5 *625:A2 *932:A 1.88422e-05
6 *625:B1 *932:A 1.9898e-05
7 *704:D *932:A 0.000447775
8 *391:18 *932:A 3.51852e-05
*RES
1 *1045:X *932:A 27.0103 
*END

*D_NET *502 0.00183185
*CONN
*I *982:A I *D sky130_fd_sc_hd__buf_4
*I *1046:X O *D sky130_fd_sc_hd__buf_4
*CAP
1 *982:A 0.00033742
2 *1046:X 0.00033742
3 *522:A *982:A 5.95533e-05
4 *525:B *982:A 0.000364383
5 *526:B *982:A 0.000335213
6 *900:A *982:A 0.000216467
7 *107:16 *982:A 0
8 *196:40 *982:A 5.90501e-05
9 *493:16 *982:A 0.000122345
*RES
1 *1046:X *982:A 39.7817 
*END

*D_NET *475 0.00296353
*CONN
*I *516:C I *D sky130_fd_sc_hd__nor3_2
*I *1019:X O *D sky130_fd_sc_hd__buf_4
*CAP
1 *516:C 0.000588523
2 *1019:X 0.000588523
3 *515:B *516:C 0.000496369
4 *569:A1 *516:C 0.000151031
5 *734:A *516:C 7.73813e-05
6 *915:A *516:C 1.65872e-05
7 *1000:A *516:C 0.000110297
8 *306:12 *516:C 0.000720896
9 *367:14 *516:C 0.000213929
*RES
1 *1019:X *516:C 49.9297 
*END

*D_NET *504 0.00194648
*CONN
*I *508:A1 I *D sky130_fd_sc_hd__o211ai_1
*I *1048:X O *D sky130_fd_sc_hd__buf_4
*CAP
1 *508:A1 0.000619733
2 *1048:X 0.000619733
3 *508:A2 *508:A1 2.65667e-05
4 *508:C1 *508:A1 1.00937e-05
5 *600:B *508:A1 0.00013659
6 *1048:A *508:A1 0.000459915
7 *315:8 *508:A1 7.38456e-05
*RES
1 *1048:X *508:A1 32.8698 
*END

*D_NET *120 0.00880299
*CONN
*P clk I
*I *975:A I *D sky130_fd_sc_hd__clkbuf_8
*CAP
1 clk 0.00404027
2 *975:A 3.01168e-05
3 *120:28 0.00407038
4 *975:A *400:16 1.76639e-05
5 *975:A *444:10 0.000112367
6 *120:28 *635:A0 0.000150643
7 *120:28 *894:A 0.000106488
8 *120:28 *169:28 0.000148612
9 *120:28 *367:14 4.37841e-05
10 *120:28 *385:16 6.76552e-05
11 *120:28 *404:14 1.50142e-05
*RES
1 clk *120:28 20.348 
2 *120:28 *975:A 15.0271 
*END

*D_NET *434 0.01367
*CONN
*I *991:A I *D sky130_fd_sc_hd__clkbuf_8
*I *989:A I *D sky130_fd_sc_hd__clkbuf_8
*I *972:A I *D sky130_fd_sc_hd__clkbuf_8
*I *990:A I *D sky130_fd_sc_hd__clkbuf_8
*I *975:X O *D sky130_fd_sc_hd__clkbuf_8
*CAP
1 *991:A 0
2 *989:A 8.92652e-05
3 *972:A 2.35819e-05
4 *990:A 9.23656e-05
5 *975:X 0
6 *434:103 0.000755709
7 *434:81 0.00025512
8 *434:61 0.000821762
9 *434:55 0.00324413
10 *434:39 0.00321795
11 *434:27 0.00154591
12 *434:13 0.0017236
13 *434:6 8.79117e-05
14 *434:27 *435:37 9.82417e-05
15 *434:81 *517:B1 6.91107e-05
16 *434:81 *479:14 5.17424e-06
17 *434:81 *500:18 0
18 *434:103 *607:B 1.32315e-05
19 *506:C1 *434:27 3.59445e-05
20 *507:A *434:13 4.10499e-05
21 *601:B *434:39 1.5721e-05
22 *601:B *434:55 0.000131933
23 *601:B *434:103 4.40476e-05
24 *505:A *434:55 1.57481e-05
25 *505:A *434:61 0.000398639
26 *505:A *434:81 9.45551e-06
27 *737:B *434:55 0.000431477
28 *737:B *434:103 7.28582e-05
29 *738:A1 *434:103 1.31444e-06
30 *908:A *434:27 0
31 *931:A *434:55 0
32 *931:A *434:61 0
33 *979:A *434:61 8.27416e-06
34 *238:10 *434:13 0
35 *306:12 *434:61 4.32975e-05
36 *310:12 *972:A 4.89251e-05
37 *358:20 *434:81 5.46489e-06
38 *363:14 *434:27 3.59295e-05
39 *368:14 *434:81 7.37904e-07
40 *385:16 *434:27 0
41 *385:16 *434:103 0.000237174
42 *387:12 *972:A 4.89251e-05
*RES
1 *975:X *434:6 13.7491 
2 *434:6 *434:13 5.40841 
3 *434:13 *434:27 13.5533 
4 *434:27 *990:A 11.3591 
5 *434:13 *434:39 0.394091 
6 *434:39 *434:55 6.23706 
7 *434:55 *434:61 8.23385 
8 *434:61 *972:A 15.0271 
9 *434:55 *434:81 11.6425 
10 *434:81 *989:A 11.3169 
11 *434:39 *434:103 5.81097 
12 *434:103 *991:A 13.7491 
*END

*D_NET *431 0.016694
*CONN
*I *719:CLK I *D sky130_fd_sc_hd__edfxtp_1
*I *705:CLK I *D sky130_fd_sc_hd__edfxtp_1
*I *704:CLK I *D sky130_fd_sc_hd__edfxtp_1
*I *718:CLK I *D sky130_fd_sc_hd__edfxtp_1
*I *711:CLK I *D sky130_fd_sc_hd__edfxtp_1
*I *702:CLK I *D sky130_fd_sc_hd__edfxtp_1
*I *695:CLK I *D sky130_fd_sc_hd__edfxtp_1
*I *703:CLK I *D sky130_fd_sc_hd__edfxtp_1
*I *992:A I *D sky130_fd_sc_hd__clkbuf_8
*I *972:X O *D sky130_fd_sc_hd__clkbuf_8
*CAP
1 *719:CLK 2.06324e-05
2 *705:CLK 0.000268059
3 *704:CLK 0.000116678
4 *718:CLK 0.000170632
5 *711:CLK 0
6 *702:CLK 0.000140483
7 *695:CLK 0.000383586
8 *703:CLK 0.000708763
9 *992:A 2.98868e-05
10 *972:X 0.000442368
11 *431:104 0.000656253
12 *431:91 0.000781523
13 *431:62 0.00070358
14 *431:58 0.000179512
15 *431:56 0.00136856
16 *431:50 0.00184143
17 *431:23 0.00197837
18 *431:12 0.000950257
19 *705:CLK *436:39 0
20 *718:CLK *718:DE 2.16355e-05
21 *992:A *518:A 2.57847e-05
22 *431:12 *518:A 4.19199e-05
23 *431:23 *581:C 0
24 *431:50 *719:DE 2.70818e-05
25 *431:56 *719:DE 0.000171159
26 resp_msg[1] *431:91 0.000235344
27 resp_msg[1] *431:104 0.000232571
28 resp_msg[4] *704:CLK 8.26601e-05
29 *569:A1 *431:12 0.000138638
30 *574:C *431:56 6.92705e-05
31 *574:A *431:56 3.82228e-05
32 *583:A *703:CLK 0.000235516
33 *583:A *431:23 2.09495e-05
34 *583:A *431:50 6.08467e-05
35 *583:B *431:23 0.000184338
36 *615:A *431:56 1.92793e-05
37 *622:A1 *703:CLK 0
38 *659:A0 *431:56 0.000581012
39 *659:A1 *431:62 2.16355e-05
40 *702:D *431:91 0.000137949
41 *703:D *703:CLK 0.000138527
42 *704:D *704:CLK 0.000182755
43 *704:DE *704:CLK 3.42041e-05
44 *719:D *431:50 0.000111595
45 *846:A *702:CLK 0.000176284
46 *853:A *695:CLK 0.000103312
47 *853:A *702:CLK 7.46648e-06
48 *855:A *703:CLK 0.000193265
49 *918:A *431:12 0.000310499
50 *958:A *431:56 2.57847e-05
51 *199:10 *431:56 0.000129447
52 *209:10 *431:12 9.51902e-05
53 *209:10 *431:23 0
54 *211:16 *703:CLK 0
55 *259:26 *431:12 0.000561812
56 *382:34 *705:CLK 0
57 *382:60 *431:91 0.000194515
58 *382:60 *431:104 0.000422095
59 *382:62 *431:91 2.29381e-05
60 *382:66 *431:56 3.69003e-05
61 *382:66 *431:91 0.000132073
62 *392:51 *705:CLK 0.00021185
63 *392:51 *431:104 3.87022e-06
64 *392:53 *431:91 3.87022e-06
65 *392:53 *431:104 8.12017e-05
66 *392:59 *695:CLK 0
67 *392:59 *702:CLK 0
68 *392:59 *431:56 0.000148129
69 *392:59 *431:91 0.00013327
70 *417:8 *431:56 6.08467e-05
71 *425:12 *703:CLK 9.34396e-06
72 *425:12 *431:23 7.65307e-05
*RES
1 *972:X *431:12 33.4071 
2 *431:12 *992:A 9.97254 
3 *431:12 *431:23 16.7133 
4 *431:23 *703:CLK 29.42 
5 *431:23 *431:50 17.6417 
6 *431:50 *431:56 31.7339 
7 *431:56 *431:58 4.5 
8 *431:58 *431:62 8.55102 
9 *431:62 *695:CLK 24.1943 
10 *431:62 *702:CLK 17.9655 
11 *431:58 *711:CLK 9.24915 
12 *431:56 *431:91 13.4591 
13 *431:91 *718:CLK 17.2456 
14 *431:91 *431:104 10.8698 
15 *431:104 *704:CLK 17.8002 
16 *431:104 *705:CLK 21.2876 
17 *431:50 *719:CLK 9.82786 
*END

*D_NET *448 0.0153609
*CONN
*I *714:CLK I *D sky130_fd_sc_hd__edfxtp_1
*I *715:CLK I *D sky130_fd_sc_hd__edfxtp_1
*I *716:CLK I *D sky130_fd_sc_hd__edfxtp_1
*I *701:CLK I *D sky130_fd_sc_hd__edfxtp_1
*I *700:CLK I *D sky130_fd_sc_hd__edfxtp_1
*I *699:CLK I *D sky130_fd_sc_hd__edfxtp_1
*I *698:CLK I *D sky130_fd_sc_hd__edfxtp_1
*I *713:CLK I *D sky130_fd_sc_hd__edfxtp_1
*I *993:A I *D sky130_fd_sc_hd__clkbuf_1
*I *697:CLK I *D sky130_fd_sc_hd__edfxtp_1
*I *989:X O *D sky130_fd_sc_hd__clkbuf_8
*CAP
1 *714:CLK 0
2 *715:CLK 2.1308e-05
3 *716:CLK 0
4 *701:CLK 0.00136477
5 *700:CLK 0
6 *699:CLK 0.000101752
7 *698:CLK 0
8 *713:CLK 0
9 *993:A 1.7919e-05
10 *697:CLK 0.00016933
11 *989:X 0.000495999
12 *448:103 0.00173865
13 *448:93 0.00103243
14 *448:77 0.00102088
15 *448:64 0.000676792
16 *448:56 0.000776783
17 *448:49 0.000879854
18 *448:29 1.7919e-05
19 *448:27 0.000458672
20 *448:14 0.000786917
21 *701:CLK *539:A 1.13012e-05
22 *448:14 *481:16 0.000123582
23 *448:27 *517:B1 1.85129e-05
24 resp_msg[13] *448:77 0.000171273
25 *543:B *448:93 0
26 *547:A *448:93 0.000204562
27 *548:B *701:CLK 1.91246e-05
28 *548:B *448:103 7.79956e-05
29 *549:B *448:103 7.07672e-05
30 *604:C1 *701:CLK 0.000490988
31 *649:A2 *448:49 0.00010961
32 *652:B1 *448:49 3.67708e-05
33 *654:A *448:77 0.000962066
34 *654:B *448:64 1.96579e-05
35 *655:A2 *448:64 3.14978e-05
36 *655:B1 *448:64 6.50586e-05
37 *655:B1 *448:77 6.50727e-05
38 *670:A0 *448:64 0.000213568
39 *670:S *448:64 0
40 *697:D *697:CLK 8.21761e-06
41 *697:DE *448:27 5.35029e-05
42 *697:DE *448:49 0.000587254
43 *698:D *448:49 6.50586e-05
44 *698:D *448:56 0.000176045
45 *698:DE *448:56 8.11133e-05
46 *699:D *699:CLK 3.58185e-05
47 *699:D *448:64 0.000118166
48 *699:D *448:77 0.000152878
49 *714:D *448:64 8.03393e-06
50 *715:DE *448:93 0.000203506
51 *768:B *701:CLK 0.000107865
52 *5:8 *448:93 9.94284e-06
53 *5:8 *448:103 4.5332e-05
54 *21:12 *448:93 0.00025389
55 *21:18 *448:93 0
56 *22:6 *448:56 2.09776e-05
57 *76:22 *697:CLK 1.82679e-05
58 *76:22 *448:14 0.000112489
59 *207:10 *448:14 0.000127179
60 *253:18 *701:CLK 9.81959e-05
61 *257:10 *701:CLK 0
62 *257:10 *448:103 6.6339e-05
63 *259:192 *993:A 1.70188e-05
64 *343:52 *701:CLK 8.36586e-06
65 *352:24 *701:CLK 3.43223e-05
66 *382:124 *448:64 1.41291e-05
67 *382:153 *448:49 7.52053e-05
68 *388:28 *448:27 0.00022511
69 *388:28 *448:49 9.24832e-05
70 *435:37 *993:A 6.08467e-05
71 *435:75 *448:93 6.36477e-05
72 *435:75 *448:103 0.000168313
*RES
1 *989:X *448:14 28.0438 
2 *448:14 *697:CLK 12.0704 
3 *448:14 *448:27 8.82351 
4 *448:27 *448:29 4.5 
5 *448:29 *993:A 9.97254 
6 *448:29 *713:CLK 9.24915 
7 *448:27 *448:49 16.5085 
8 *448:49 *698:CLK 9.24915 
9 *448:49 *448:56 13.4793 
10 *448:56 *448:64 16.4047 
11 *448:64 *699:CLK 20.9116 
12 *448:64 *448:77 12.9247 
13 *448:77 *448:93 27.7505 
14 *448:93 *448:103 15.175 
15 *448:103 *700:CLK 13.7491 
16 *448:103 *701:CLK 26.1358 
17 *448:93 *716:CLK 9.24915 
18 *448:77 *715:CLK 9.82786 
19 *448:56 *714:CLK 9.24915 
*END

*D_NET *449 0.0152615
*CONN
*I *724:CLK I *D sky130_fd_sc_hd__edfxtp_1
*I *706:CLK I *D sky130_fd_sc_hd__edfxtp_1
*I *720:CLK I *D sky130_fd_sc_hd__edfxtp_1
*I *721:CLK I *D sky130_fd_sc_hd__edfxtp_1
*I *693:CLK I *D sky130_fd_sc_hd__dfxtp_1
*I *692:CLK I *D sky130_fd_sc_hd__dfxtp_4
*I *694:CLK I *D sky130_fd_sc_hd__dfxtp_1
*I *707:CLK I *D sky130_fd_sc_hd__edfxtp_1
*I *723:CLK I *D sky130_fd_sc_hd__edfxtp_1
*I *722:CLK I *D sky130_fd_sc_hd__edfxtp_1
*I *990:X O *D sky130_fd_sc_hd__clkbuf_8
*CAP
1 *724:CLK 3.6352e-05
2 *706:CLK 0
3 *720:CLK 0.000224452
4 *721:CLK 0.00030084
5 *693:CLK 0.000170506
6 *692:CLK 0.000102652
7 *694:CLK 0
8 *707:CLK 0.000219682
9 *723:CLK 0
10 *722:CLK 0.000100187
11 *990:X 0.000461926
12 *449:96 0.000916064
13 *449:90 0.000820043
14 *449:66 0.000354516
15 *449:57 0.000157824
16 *449:44 0.00055414
17 *449:20 0.000145655
18 *449:18 0.000736089
19 *449:14 0.00232439
20 *449:12 0.00196077
21 *693:CLK *612:B 7.67734e-06
22 *722:CLK *503:20 4.66889e-05
23 *449:14 *976:A 3.64169e-05
24 *449:14 *459:12 8.25006e-05
25 *449:96 *479:44 3.51414e-05
26 *598:A *449:90 0.000324981
27 *610:B1_N *449:14 2.19133e-05
28 *612:A *693:CLK 0.000246006
29 *612:A *449:57 6.06764e-05
30 *612:A *449:66 0.000193478
31 *627:A *721:CLK 5.03545e-06
32 *629:A0 *721:CLK 0.000208599
33 *629:A0 *449:96 0.000302956
34 *633:A *449:57 2.09356e-05
35 *634:A1 *449:18 5.51483e-06
36 *634:A2 *449:14 0.000706263
37 *634:A2 *449:18 0.000160047
38 *634:B1 *449:18 4.27084e-05
39 *634:B1 *449:44 1.41761e-05
40 *634:B1 *449:57 0.000204013
41 *663:A1 *720:CLK 0.00014935
42 *664:A0 *722:CLK 0.000201811
43 *664:A0 *449:20 0.000111135
44 *664:A0 *449:44 5.0317e-05
45 *664:A1 *722:CLK 0.000198334
46 *664:A1 *449:18 2.16355e-05
47 *664:A1 *449:20 0.000118136
48 *664:A1 *449:44 3.20407e-05
49 *664:S *449:18 1.19705e-05
50 *664:S *449:44 0.000151741
51 *665:S *693:CLK 2.95784e-06
52 *665:S *449:44 0.000158338
53 *665:S *449:57 2.2195e-05
54 *707:D *707:CLK 6.37652e-06
55 *707:D *449:44 1.82679e-05
56 *707:DE *449:44 9.24241e-05
57 *707:DE *449:57 0.000106245
58 *722:D *449:18 6.27718e-05
59 *860:A *449:44 6.95223e-05
60 *872:A *720:CLK 0
61 *893:A *721:CLK 1.00901e-05
62 *894:A *449:12 4.70741e-05
63 *39:10 *449:14 0.00018507
64 *41:16 *693:CLK 2.58616e-05
65 *56:16 *721:CLK 1.83992e-05
66 *57:12 *449:90 0
67 *57:12 *449:96 0
68 *94:18 *449:44 8.94577e-06
69 *95:14 *449:12 6.33544e-05
70 *103:16 *692:CLK 6.27718e-05
71 *146:14 *449:96 4.37588e-05
72 *149:12 *693:CLK 5.82077e-05
73 *149:12 *449:44 0
74 *149:12 *449:66 5.01992e-05
75 *169:28 *449:12 0
76 *363:14 *449:14 1.26726e-05
77 *382:18 *449:90 4.57052e-05
78 *382:20 *449:90 4.36323e-05
79 *382:20 *449:96 3.67528e-06
80 *382:28 *720:CLK 6.04767e-05
81 *382:28 *449:96 5.30246e-05
82 *392:31 *449:90 0
83 *435:6 *449:12 3.6656e-05
84 *435:6 *449:14 3.79713e-05
85 *436:27 *720:CLK 9.43419e-05
86 *436:37 *720:CLK 0.00036544
87 *436:39 *720:CLK 3.67708e-05
*RES
1 *990:X *449:12 26.2112 
2 *449:12 *449:14 24.0167 
3 *449:14 *449:18 11.324 
4 *449:18 *449:20 2.24725 
5 *449:20 *722:CLK 18.5201 
6 *449:20 *723:CLK 13.7491 
7 *449:18 *449:44 12.593 
8 *449:44 *707:CLK 12.625 
9 *449:44 *449:57 8.82351 
10 *449:57 *694:CLK 13.7491 
11 *449:57 *449:66 3.493 
12 *449:66 *692:CLK 16.1364 
13 *449:66 *693:CLK 19.49 
14 *449:14 *449:90 16.7133 
15 *449:90 *449:96 12.7352 
16 *449:96 *721:CLK 24.1616 
17 *449:96 *720:CLK 27.1404 
18 *449:90 *706:CLK 13.7491 
19 *449:12 *724:CLK 10.2378 
*END

*D_NET *450 0.0169321
*CONN
*I *725:CLK I *D sky130_fd_sc_hd__edfxtp_1
*I *709:CLK I *D sky130_fd_sc_hd__edfxtp_1
*I *710:CLK I *D sky130_fd_sc_hd__edfxtp_1
*I *726:CLK I *D sky130_fd_sc_hd__edfxtp_1
*I *712:CLK I *D sky130_fd_sc_hd__edfxtp_1
*I *717:CLK I *D sky130_fd_sc_hd__edfxtp_1
*I *696:CLK I *D sky130_fd_sc_hd__edfxtp_1
*I *994:A I *D sky130_fd_sc_hd__clkbuf_8
*I *708:CLK I *D sky130_fd_sc_hd__edfxtp_1
*I *991:X O *D sky130_fd_sc_hd__clkbuf_8
*CAP
1 *725:CLK 0
2 *709:CLK 0.000983218
3 *710:CLK 2.12792e-05
4 *726:CLK 0
5 *712:CLK 7.21559e-05
6 *717:CLK 0.000261684
7 *696:CLK 2.30036e-05
8 *994:A 7.14419e-05
9 *708:CLK 0.000689277
10 *991:X 2.1308e-05
11 *450:119 0.0012344
12 *450:72 0.000697858
13 *450:68 0.000734789
14 *450:56 0.000862065
15 *450:44 0.000917665
16 *450:40 0.00115585
17 *450:8 0.00124933
18 *450:6 0.0011308
19 *450:40 *607:B 0
20 *450:40 *476:10 0
21 *450:56 *726:DE 2.16355e-05
22 *450:68 *726:DE 0.000133878
23 *450:119 *725:DE 0
24 *507:A *708:CLK 0.000413698
25 *534:B1 *696:CLK 3.84199e-05
26 *534:B1 *450:72 0.000215776
27 *554:A *450:44 7.92757e-06
28 *559:A *450:56 0.000145171
29 *559:B *450:56 1.22289e-05
30 *643:A2 *450:56 0.000320276
31 *643:A2 *450:68 0
32 *646:B1 *717:CLK 0
33 *646:B1 *450:72 0
34 *667:A0 *450:119 4.30748e-05
35 *669:A0 *450:72 1.80448e-05
36 *677:A *717:CLK 1.75176e-05
37 *677:A *450:72 0.00048742
38 *708:D *708:CLK 9.38699e-06
39 *708:DE *708:CLK 1.66138e-05
40 *709:D *709:CLK 5.34249e-06
41 *710:D *450:56 7.78469e-05
42 *710:DE *450:56 2.19686e-05
43 *731:A1 *450:40 0
44 *731:A2 *450:8 0.000547832
45 *731:B1 *994:A 0.000113368
46 *731:B1 *450:8 3.68737e-05
47 *731:C1 *450:8 0.000392262
48 *737:B *450:40 0.000168903
49 *740:B *708:CLK 7.93324e-05
50 *760:A *708:CLK 1.65872e-05
51 *760:A *994:A 6.27782e-05
52 *876:A *450:119 0.000346916
53 *897:A *450:68 3.82228e-05
54 *944:A *450:44 6.27332e-05
55 *953:A *717:CLK 0
56 *1021:A *450:40 0
57 *1:10 *450:40 0.0001251
58 *1:16 *450:40 0.000162423
59 *9:10 *712:CLK 2.20457e-05
60 *10:8 *450:56 0.000128596
61 *26:14 *709:CLK 5.23996e-05
62 *27:10 *708:CLK 0
63 *169:34 *708:CLK 6.92004e-05
64 *174:10 *450:68 0.000315009
65 *174:10 *450:72 0.000470232
66 *225:16 *708:CLK 0
67 *259:253 *717:CLK 0
68 *367:14 *708:CLK 0.000302538
69 *385:16 *450:8 7.73345e-05
70 *385:16 *450:40 4.141e-05
71 *392:188 *709:CLK 3.19324e-05
72 *392:207 *709:CLK 1.28399e-05
73 *392:230 *717:CLK 0.000288394
74 *403:18 *450:44 0.000346637
75 *403:52 *450:68 0.000113107
76 *403:52 *450:72 0.000151879
77 *404:14 *708:CLK 0
78 *419:14 *450:40 0.000132801
79 *419:14 *450:119 5.46384e-06
80 *442:82 *450:72 2.03024e-05
81 *443:8 *450:56 5.04829e-06
82 *443:10 *450:56 5.92192e-05
*RES
1 *991:X *450:6 9.82786 
2 *450:6 *450:8 14.0339 
3 *450:8 *708:CLK 35.8159 
4 *450:8 *994:A 11.9257 
5 *450:6 *450:40 21.8679 
6 *450:40 *450:44 11.8786 
7 *450:44 *450:56 24.2199 
8 *450:56 *450:68 21.1411 
9 *450:68 *450:72 14.8147 
10 *450:72 *696:CLK 14.4819 
11 *450:72 *717:CLK 20.8723 
12 *450:68 *712:CLK 15.4009 
13 *450:56 *726:CLK 9.24915 
14 *450:44 *710:CLK 9.82786 
15 *450:40 *450:119 11.7303 
16 *450:119 *709:CLK 25.4291 
17 *450:119 *725:CLK 9.24915 
*END

*D_NET *128 0.000533439
*CONN
*I *615:A I *D sky130_fd_sc_hd__nand2_1
*I *853:X O *D sky130_fd_sc_hd__clkdlybuf4s50_1
*CAP
1 *615:A 0.000190403
2 *853:X 0.000190403
3 *615:A *382:66 9.75356e-05
4 *615:A *392:59 3.58185e-05
5 *615:A *431:56 1.92793e-05
*RES
1 *853:X *615:A 31.5781 
*END

*D_NET *129 0.000523641
*CONN
*I *618:A I *D sky130_fd_sc_hd__nand2_1
*I *854:X O *D sky130_fd_sc_hd__clkdlybuf4s50_1
*CAP
1 *618:A 0.000106866
2 *854:X 0.000106866
3 *618:A *889:A 0.000151529
4 *618:A *382:60 4.12533e-05
5 *618:A *436:41 3.77804e-05
6 *619:A1 *618:A 1.00766e-05
7 *619:B1 *618:A 6.92705e-05
*RES
1 *854:X *618:A 31.5969 
*END

*D_NET *130 0.00250691
*CONN
*I *621:A I *D sky130_fd_sc_hd__nand2_1
*I *855:X O *D sky130_fd_sc_hd__clkdlybuf4s50_1
*CAP
1 *621:A 0.000853996
2 *855:X 0.000853996
3 *621:A *648:A 7.92757e-06
4 *621:A *865:A 0.000117566
5 *621:A *382:90 0
6 *621:A *382:94 4.80635e-06
7 *621:A *382:107 3.44067e-06
8 *621:A *382:124 0.000610547
9 *622:B1 *621:A 5.46286e-05
*RES
1 *855:X *621:A 32.9662 
*END

*D_NET *131 0.00042225
*CONN
*I *624:A I *D sky130_fd_sc_hd__nand2_1
*I *856:X O *D sky130_fd_sc_hd__clkdlybuf4s50_1
*CAP
1 *624:A 4.51554e-05
2 *856:X 4.51554e-05
3 *624:A *625:A1 3.10541e-05
4 *624:A *932:A 1.63255e-05
5 *624:A *382:34 6.27718e-05
6 *624:A *382:41 6.08467e-05
7 *704:D *624:A 0.000160942
*RES
1 *856:X *624:A 20.9096 
*END

*D_NET *132 0.000823492
*CONN
*I *660:A1 I *D sky130_fd_sc_hd__mux2_4
*I *857:X O *D sky130_fd_sc_hd__clkdlybuf4s50_1
*CAP
1 *660:A1 0.000236802
2 *857:X 0.000236802
3 *660:A1 *660:A0 4.24529e-05
4 *660:A1 *660:S 1.64789e-05
5 *660:A1 *194:14 1.99271e-05
6 *660:A1 *424:18 0.00027103
*RES
1 *857:X *660:A1 25.3464 
*END

*D_NET *435 0.0187101
*CONN
*I *715:DE I *D sky130_fd_sc_hd__edfxtp_1
*I *716:DE I *D sky130_fd_sc_hd__edfxtp_1
*I *714:DE I *D sky130_fd_sc_hd__edfxtp_1
*I *713:DE I *D sky130_fd_sc_hd__edfxtp_1
*I *724:DE I *D sky130_fd_sc_hd__edfxtp_1
*I *976:X O *D sky130_fd_sc_hd__buf_12
*CAP
1 *715:DE 0.000479131
2 *716:DE 0
3 *714:DE 0.000257006
4 *713:DE 0
5 *724:DE 0
6 *976:X 0.00018324
7 *435:75 0.00125647
8 *435:52 0.00207402
9 *435:37 0.00465872
10 *435:6 0.00380228
11 *715:DE *448:93 0.000203506
12 *435:6 *449:12 3.6656e-05
13 *435:6 *449:14 3.79713e-05
14 *435:37 *993:A 6.08467e-05
15 *435:52 *517:B1 2.89271e-05
16 *435:75 *448:93 6.36477e-05
17 *435:75 *448:103 0.000168313
18 *506:C1 *435:37 0.00162282
19 *547:A *715:DE 3.39313e-06
20 *547:B *715:DE 0.000188637
21 *505:A *435:37 0
22 *650:A0 *714:DE 0.000145035
23 *655:A2 *714:DE 0.000198722
24 *670:A0 *714:DE 1.69593e-05
25 *672:A1 *715:DE 4.34143e-05
26 *678:C *714:DE 2.0002e-05
27 *679:D *435:37 0.000264127
28 *681:A *435:37 0.000287012
29 *697:D *435:37 6.55651e-05
30 *715:D *715:DE 3.86761e-05
31 *716:D *715:DE 1.97752e-05
32 *716:D *435:75 6.73578e-05
33 *850:A *715:DE 0
34 *886:A *714:DE 5.68225e-06
35 *894:A *435:37 2.75747e-05
36 *904:A *435:37 3.05478e-05
37 *908:A *435:37 0.000280904
38 *931:A *435:37 9.23031e-05
39 *5:8 *435:75 4.2394e-05
40 *6:16 *715:DE 0
41 *22:27 *714:DE 2.90638e-06
42 *76:22 *435:37 0.000166512
43 *95:14 *435:6 6.92705e-05
44 *95:14 *435:37 7.54492e-05
45 *99:16 *435:37 6.42482e-05
46 *99:16 *435:52 0.000161681
47 *159:20 *714:DE 6.93171e-05
48 *159:32 *714:DE 0.000181412
49 *160:18 *714:DE 3.76569e-05
50 *207:10 *435:52 7.28994e-06
51 *259:192 *435:37 2.26712e-05
52 *259:192 *435:52 8.36586e-06
53 *259:196 *435:52 0.000204339
54 *259:196 *435:75 0.00030611
55 *259:211 *435:75 9.11446e-05
56 *278:12 *715:DE 9.31914e-05
57 *280:10 *435:75 6.27718e-05
58 *360:18 *715:DE 0
59 *360:38 *714:DE 0.000190013
60 *385:16 *435:37 0
61 *413:14 *435:75 2.58757e-05
62 *434:27 *435:37 9.82417e-05
*RES
1 *976:X *435:6 14.1321 
2 *435:6 *724:DE 9.24915 
3 *435:6 *435:37 39.2805 
4 *435:37 *713:DE 9.24915 
5 *435:37 *435:52 25.8666 
6 *435:52 *714:DE 28.3748 
7 *435:52 *435:75 17.7775 
8 *435:75 *716:DE 9.24915 
9 *435:75 *715:DE 33.4198 
*END

*D_NET *133 0.000562249
*CONN
*I *627:A I *D sky130_fd_sc_hd__nand2_1
*I *858:X O *D sky130_fd_sc_hd__clkdlybuf4s50_1
*CAP
1 *627:A 0.000169575
2 *858:X 0.000169575
3 *627:A *631:A1 5.03545e-06
4 *627:A *721:CLK 5.03545e-06
5 *627:A *872:A 5.8802e-05
6 *627:A *382:28 0.000114271
7 *627:A *382:208 3.9955e-05
8 *627:A *436:37 0
*RES
1 *858:X *627:A 31.4388 
*END

*D_NET *436 0.0141188
*CONN
*I *722:DE I *D sky130_fd_sc_hd__edfxtp_1
*I *721:DE I *D sky130_fd_sc_hd__edfxtp_1
*I *720:DE I *D sky130_fd_sc_hd__edfxtp_1
*I *718:DE I *D sky130_fd_sc_hd__edfxtp_1
*I *711:DE I *D sky130_fd_sc_hd__edfxtp_1
*I *719:DE I *D sky130_fd_sc_hd__edfxtp_1
*I *723:DE I *D sky130_fd_sc_hd__edfxtp_1
*I *977:X O *D sky130_fd_sc_hd__buf_12
*CAP
1 *722:DE 8.62621e-05
2 *721:DE 1.67259e-05
3 *720:DE 8.9921e-05
4 *718:DE 0.000140366
5 *711:DE 1.65908e-05
6 *719:DE 0.00144563
7 *723:DE 1.8863e-05
8 *977:X 0.000891388
9 *436:41 0.00189613
10 *436:39 0.001261
11 *436:37 0.00109477
12 *436:27 0.000917936
13 *436:25 0.000753426
14 *436:14 0.000994323
15 *719:DE *659:S 0
16 *723:DE *454:18 2.18417e-06
17 *436:14 *454:18 0.000321469
18 *436:27 *720:CLK 9.43419e-05
19 *436:37 *720:CLK 0.00036544
20 *436:39 *720:CLK 3.67708e-05
21 *436:39 *479:33 0
22 *436:41 *659:S 0
23 resp_msg[5] *436:27 0
24 *513:A *719:DE 0.000164843
25 *574:A *719:DE 3.31745e-05
26 *598:A *436:14 0.00021366
27 *602:B *436:14 0.000385416
28 *618:A *436:41 3.77804e-05
29 *625:A2 *436:39 5.20092e-05
30 *627:A *436:37 0
31 *659:A0 *719:DE 0.000155676
32 *659:A1 *719:DE 6.31665e-05
33 *664:A1 *436:27 0
34 *705:CLK *436:39 0
35 *706:D *436:27 0
36 *711:D *711:DE 3.44641e-05
37 *718:D *718:DE 6.82878e-05
38 *718:CLK *718:DE 2.16355e-05
39 *719:D *719:DE 6.79715e-05
40 *720:D *720:DE 6.82878e-05
41 *721:D *721:DE 3.42041e-05
42 *722:D *722:DE 3.61138e-05
43 *722:D *436:25 3.30446e-05
44 *722:D *436:27 1.18084e-05
45 *965:A *436:39 0.000319017
46 *146:14 *436:37 0
47 *146:14 *436:39 0
48 *165:26 *436:39 0.000168319
49 *167:22 *436:27 1.66771e-05
50 *194:14 *436:39 0.000101148
51 *194:14 *436:41 0.000349168
52 *199:10 *719:DE 0.000401951
53 *242:10 *436:14 8.27643e-05
54 *259:126 *436:14 1.00766e-05
55 *382:18 *436:27 0
56 *382:20 *436:27 0
57 *382:28 *436:27 0
58 *382:28 *436:37 0.000119713
59 *382:34 *436:39 0
60 *382:60 *436:39 0
61 *382:60 *436:41 0
62 *382:62 *436:41 5.50879e-05
63 *382:66 *719:DE 0.000137892
64 *382:66 *436:41 0.000168465
65 *391:18 *436:39 2.1032e-05
66 *392:45 *436:39 4.41474e-05
67 *431:50 *719:DE 2.70818e-05
68 *431:56 *719:DE 0.000171159
*RES
1 *977:X *436:14 34.4716 
2 *436:14 *723:DE 9.65304 
3 *436:14 *436:25 6.74725 
4 *436:25 *436:27 13.4591 
5 *436:27 *436:37 17.264 
6 *436:37 *436:39 20.1031 
7 *436:39 *436:41 13.4591 
8 *436:41 *719:DE 43.9447 
9 *436:41 *711:DE 14.153 
10 *436:39 *718:DE 16.9683 
11 *436:37 *720:DE 15.8591 
12 *436:27 *721:DE 14.153 
13 *436:25 *722:DE 15.4477 
*END

*D_NET *439 0.0100935
*CONN
*I *1027:A I *D sky130_fd_sc_hd__buf_6
*I *1016:A I *D sky130_fd_sc_hd__buf_4
*I *610:A2 I *D sky130_fd_sc_hd__o21bai_4
*I *1015:A I *D sky130_fd_sc_hd__buf_6
*I *980:X O *D sky130_fd_sc_hd__buf_12
*CAP
1 *1027:A 0
2 *1016:A 0.000201376
3 *610:A2 7.72032e-05
4 *1015:A 1.90278e-05
5 *980:X 0.000632518
6 *439:39 0.00104496
7 *439:29 0.00212651
8 *439:12 0.00201167
9 *610:A2 *610:B1_N 2.19276e-05
10 *1015:A *442:27 1.05106e-05
11 *1016:A *610:B1_N 6.71192e-05
12 *1016:A *632:S 0.000113968
13 *439:12 *638:S 7.28567e-06
14 *439:12 *442:27 0.000383296
15 *439:12 *491:46 0
16 *439:29 *613:B 0.000121931
17 *439:29 *442:14 1.4106e-05
18 *439:29 *442:27 0.000104613
19 *439:29 *483:12 4.25952e-05
20 resp_msg[6] *439:29 2.77625e-06
21 *556:A *439:12 0.000150827
22 *610:A1 *1016:A 0
23 *632:A0 *439:39 0.000261319
24 *632:A1 *610:A2 7.50872e-05
25 *632:A1 *1016:A 6.94439e-05
26 *640:A2 *439:12 4.01691e-05
27 *640:B1 *439:12 5.1674e-06
28 *680:D *439:39 0.000229103
29 *682:A *1016:A 0.000110297
30 *683:A1 *1016:A 9.75243e-05
31 *684:A1 *439:39 5.03545e-06
32 *684:A2 *439:39 8.36429e-06
33 *684:B2 *439:39 0
34 *687:A1 *439:29 2.58757e-05
35 *687:B1 *1016:A 5.39109e-05
36 *687:B1 *439:39 0
37 *709:D *439:12 0.000112361
38 *740:A *439:12 3.12316e-05
39 *894:A *439:29 7.19887e-05
40 *896:A *439:12 6.56589e-05
41 *946:A *610:A2 0
42 *946:A *1016:A 0
43 *1010:A *439:39 0.000229879
44 *39:10 *439:39 5.41377e-05
45 *95:14 *439:29 0.000551259
46 *103:16 *439:29 0.000458476
47 *170:10 *439:12 9.29777e-05
48 *224:10 *439:12 0
49 *382:10 *1016:A 1.92172e-05
50 *392:12 *1016:A 0.000160384
51 *403:18 *439:12 0.000110458
*RES
1 *980:X *439:12 36.7347 
2 *439:12 *1015:A 9.82786 
3 *439:12 *439:29 26.4763 
4 *439:29 *439:39 30.5976 
5 *439:39 *610:A2 15.9964 
6 *439:39 *1016:A 21.4297 
7 *439:29 *1027:A 9.24915 
*END

*D_NET *363 0.00438059
*CONN
*I *632:A1 I *D sky130_fd_sc_hd__mux2i_1
*I *904:X O *D sky130_fd_sc_hd__buf_4
*CAP
1 *632:A1 7.68968e-05
2 *904:X 0.00149079
3 *363:14 0.00156769
4 *632:A1 *610:A2 7.50872e-05
5 *632:A1 *610:B1_N 0.000148129
6 *632:A1 *632:A0 0.000107496
7 *632:A1 *1016:A 6.94439e-05
8 *632:A1 *392:12 0.000107496
9 *363:14 *508:B1 4.55535e-05
10 *363:14 *680:D 0
11 *363:14 *976:A 6.73186e-05
12 *363:14 *977:A 0
13 *363:14 *434:27 3.59295e-05
14 *363:14 *449:14 1.26726e-05
15 *363:14 *451:10 6.92571e-05
16 *363:14 *459:12 0.00019803
17 *593:B1 *363:14 0
18 *904:A *363:14 0.000111708
19 *28:24 *363:14 0
20 *39:10 *363:14 0.000106947
21 *220:31 *363:14 8.62625e-06
22 *228:10 *363:14 0
23 *242:10 *363:14 3.37311e-05
24 *242:14 *363:14 4.77845e-05
*RES
1 *904:X *363:14 48.8204 
2 *363:14 *632:A1 22.1896 
*END

*D_NET *134 0.000562153
*CONN
*I *630:A I *D sky130_fd_sc_hd__nand2_1
*I *859:X O *D sky130_fd_sc_hd__clkdlybuf4s50_1
*CAP
1 *630:A 7.56573e-05
2 *859:X 7.56573e-05
3 *631:B1 *630:A 0.000271058
4 *706:D *630:A 0.00013978
*RES
1 *859:X *630:A 22.5734 
*END

*D_NET *369 0.000903732
*CONN
*I *614:A1 I *D sky130_fd_sc_hd__mux2i_1
*I *910:X O *D sky130_fd_sc_hd__buf_4
*CAP
1 *614:A1 0.000302807
2 *910:X 0.000302807
3 *614:A1 *614:A0 0.000128389
4 *614:A1 *614:S 0.000169728
5 *614:A1 *910:A 0
6 *35:12 *614:A1 0
*RES
1 *910:X *614:A1 35.321 
*END

*D_NET *135 0.0018574
*CONN
*I *633:A I *D sky130_fd_sc_hd__nand2_1
*I *860:X O *D sky130_fd_sc_hd__clkdlybuf4s50_1
*CAP
1 *633:A 0.000470175
2 *860:X 0.000470175
3 *633:A *633:B 1.43832e-05
4 *633:A *707:DE 0.000294093
5 *633:A *149:12 0.000320776
6 *633:A *449:57 2.09356e-05
7 *634:B1 *633:A 0.000266862
*RES
1 *860:X *633:A 38.9512 
*END

*D_NET *136 0.00104847
*CONN
*I *636:A I *D sky130_fd_sc_hd__nand2_1
*I *861:X O *D sky130_fd_sc_hd__clkdlybuf4s50_1
*CAP
1 *636:A 0.000375964
2 *861:X 0.000375964
3 *636:A resp_msg[7] 7.50872e-05
4 *636:A *708:DE 0
5 *636:A *861:A 1.41307e-05
6 *636:A *895:A 0.000168319
7 *636:A *392:188 3.90059e-05
*RES
1 *861:X *636:A 36.0094 
*END

*D_NET *390 0.00432756
*CONN
*I *681:B I *D sky130_fd_sc_hd__and4_1
*I *931:X O *D sky130_fd_sc_hd__buf_4
*CAP
1 *681:B 0.000112891
2 *931:X 0.00115326
3 *390:12 0.00126615
4 *390:12 *526:A 0.000583799
5 *390:12 *680:A 3.73409e-05
6 *390:12 *423:10 0.000124422
7 *390:12 *467:18 0.000338425
8 *524:C *390:12 2.20796e-05
9 *571:A1 *390:12 5.481e-05
10 *571:B1 *390:12 3.34802e-05
11 *585:B *390:12 0.000110609
12 *681:A *681:B 4.89251e-05
13 *928:A *390:12 0
14 *931:A *390:12 1.64789e-05
15 *1009:A *390:12 3.97785e-05
16 *1032:DIODE *681:B 6.27782e-05
17 *109:16 *681:B 6.66926e-05
18 *165:22 *390:12 0.000255643
*RES
1 *931:X *390:12 46.7817 
2 *390:12 *681:B 17.2456 
*END

*D_NET *385 0.00876805
*CONN
*I *1032:DIODE I *D sky130_fd_sc_hd__diode_2
*I *681:A I *D sky130_fd_sc_hd__and4_1
*I *926:X O *D sky130_fd_sc_hd__buf_4
*CAP
1 *1032:DIODE 2.71144e-05
2 *681:A 0.000767856
3 *926:X 0.00174756
4 *385:16 0.0024883
5 *681:A *681:B 4.89251e-05
6 *681:A *435:37 0.000287012
7 *681:A *451:10 6.80827e-05
8 *1032:DIODE *681:B 6.27782e-05
9 *385:16 *601:B 1.28466e-05
10 *385:16 *607:B 0.000109119
11 *385:16 *404:14 0.000550778
12 *385:16 *434:27 0
13 *385:16 *434:103 0.000237174
14 *385:16 *435:37 0
15 *385:16 *450:8 7.73345e-05
16 *385:16 *450:40 4.141e-05
17 *385:16 *456:18 0.000608581
18 *506:C1 *385:16 0
19 *737:B *385:16 9.00691e-06
20 *742:B1 *385:16 2.58954e-06
21 *904:A *681:A 4.75488e-05
22 *908:A *681:A 0.000667423
23 *926:A *385:16 3.85659e-05
24 *927:A *681:A 4.89392e-05
25 *109:16 *681:A 0.000307143
26 *120:28 *385:16 6.76552e-05
27 *167:22 *681:A 2.72515e-05
28 *227:10 *681:A 5.42307e-05
29 *228:31 *681:A 0.00011222
30 *239:10 *681:A 8.68133e-05
31 *239:12 *681:A 0.000120726
32 *264:10 *385:16 4.30616e-05
*RES
1 *926:X *385:16 33.4734 
2 *385:16 *681:A 39.7775 
3 *681:A *1032:DIODE 19.2217 
*END

*D_NET *382 0.0318309
*CONN
*I *633:B I *D sky130_fd_sc_hd__nand2_1
*I *634:A1 I *D sky130_fd_sc_hd__o21ai_1
*I *628:A1 I *D sky130_fd_sc_hd__o21ai_1
*I *630:B I *D sky130_fd_sc_hd__nand2_1
*I *631:A1 I *D sky130_fd_sc_hd__o21ai_1
*I *627:B I *D sky130_fd_sc_hd__nand2_1
*I *618:B I *D sky130_fd_sc_hd__nand2_1
*I *619:A2 I *D sky130_fd_sc_hd__o21ai_1
*I *621:B I *D sky130_fd_sc_hd__nand2_1
*I *649:A2 I *D sky130_fd_sc_hd__o21ai_1
*I *648:B I *D sky130_fd_sc_hd__nand2_1
*I *652:A2 I *D sky130_fd_sc_hd__o21ai_1
*I *654:B I *D sky130_fd_sc_hd__nand2_1
*I *655:A1 I *D sky130_fd_sc_hd__o21ai_1
*I *651:B I *D sky130_fd_sc_hd__nand2_1
*I *622:A2 I *D sky130_fd_sc_hd__o21ai_1
*I *616:A1 I *D sky130_fd_sc_hd__o21ai_1
*I *615:B I *D sky130_fd_sc_hd__nand2_1
*I *625:A1 I *D sky130_fd_sc_hd__o21ai_1
*I *624:B I *D sky130_fd_sc_hd__nand2_1
*I *923:X O *D sky130_fd_sc_hd__buf_12
*CAP
1 *633:B 0.000708713
2 *634:A1 1.90946e-05
3 *628:A1 0.000172725
4 *630:B 0
5 *631:A1 0.000206757
6 *627:B 0
7 *618:B 0
8 *619:A2 0.000239332
9 *621:B 0
10 *649:A2 0.000373956
11 *648:B 9.36721e-06
12 *652:A2 0
13 *654:B 9.02996e-05
14 *655:A1 2.07309e-05
15 *651:B 0.000122363
16 *622:A2 0
17 *616:A1 1.03162e-05
18 *615:B 9.06272e-05
19 *625:A1 0.000127097
20 *624:B 0
21 *923:X 0.00204809
22 *382:208 0.000311234
23 *382:153 0.000511722
24 *382:142 0.000200365
25 *382:124 0.000616355
26 *382:120 0.000616606
27 *382:107 0.000523633
28 *382:94 0.000548171
29 *382:90 0.00162447
30 *382:77 0.00147245
31 *382:66 0.000484428
32 *382:62 0.000703546
33 *382:60 0.000433885
34 *382:41 0.000485853
35 *382:34 0.00066682
36 *382:28 0.0013535
37 *382:20 0.000737227
38 *382:18 0.000603627
39 *382:16 0.000655707
40 *382:10 0.00309838
41 *619:A2 *392:53 0.000143041
42 *625:A1 *932:A 0.000250736
43 *628:A1 *664:A0 0.000670179
44 *628:A1 *447:36 1.50262e-05
45 *628:A1 *503:20 0.00016165
46 *633:B *988:A 0
47 *634:A1 *449:18 5.51483e-06
48 *648:B *620:S 6.50586e-05
49 *649:A2 *1007:A 0
50 *649:A2 *388:28 0.000163344
51 *649:A2 *448:49 0.00010961
52 *651:B *697:DE 0
53 *654:B *448:64 1.96579e-05
54 *382:10 *632:S 2.37827e-05
55 *382:10 *682:B 1.04584e-05
56 *382:10 *1016:A 1.92172e-05
57 *382:10 *466:16 0.00014005
58 *382:16 *988:A 0
59 *382:16 *492:20 6.72103e-06
60 *382:18 *436:27 0
61 *382:18 *449:90 4.57052e-05
62 *382:20 *436:27 0
63 *382:20 *449:90 4.36323e-05
64 *382:20 *449:96 3.67528e-06
65 *382:28 *629:S 1.85244e-05
66 *382:28 *720:CLK 6.04767e-05
67 *382:28 *436:27 0
68 *382:28 *436:37 0.000119713
69 *382:28 *449:96 5.30246e-05
70 *382:34 *705:CLK 0
71 *382:34 *392:45 0
72 *382:34 *392:51 0.000146684
73 *382:34 *392:53 5.65046e-05
74 *382:34 *436:39 0
75 *382:60 *431:91 0.000194515
76 *382:60 *431:104 0.000422095
77 *382:60 *436:39 0
78 *382:60 *436:41 0
79 *382:62 *431:91 2.29381e-05
80 *382:62 *436:41 5.50879e-05
81 *382:66 *719:DE 0.000137892
82 *382:66 *392:59 0
83 *382:66 *431:56 3.69003e-05
84 *382:66 *431:91 0.000132073
85 *382:66 *436:41 0.000168465
86 *382:90 *614:A0 0.000623318
87 *382:124 *670:A0 0.000279936
88 *382:124 *448:64 1.41291e-05
89 *382:153 *448:49 7.52053e-05
90 resp_msg[2] *382:90 7.13613e-05
91 resp_msg[2] *382:94 0
92 resp_msg[3] *382:34 1.91391e-05
93 resp_msg[4] *382:34 0
94 *528:A *382:90 0.000366603
95 *572:C *619:A2 6.27718e-05
96 *583:A *382:90 9.90116e-05
97 *598:A *628:A1 4.58003e-05
98 *598:A *382:18 0.000119905
99 *598:A *382:20 2.36813e-05
100 *598:B *628:A1 0.000435929
101 *612:A *633:B 5.13763e-06
102 *615:A *382:66 9.75356e-05
103 *616:A2 *382:90 9.46038e-05
104 *616:B1 *615:B 5.56461e-05
105 *616:B1 *382:77 2.41483e-05
106 *616:B1 *382:90 7.24449e-05
107 *618:A *382:60 4.12533e-05
108 *621:A *382:90 0
109 *621:A *382:94 4.80635e-06
110 *621:A *382:107 3.44067e-06
111 *621:A *382:124 0.000610547
112 *622:B1 *382:94 2.15184e-05
113 *622:B1 *382:107 2.15348e-05
114 *624:A *625:A1 3.10541e-05
115 *624:A *382:34 6.27718e-05
116 *624:A *382:41 6.08467e-05
117 *625:A2 *625:A1 0.000112367
118 *625:B1 *625:A1 0.000287927
119 *627:A *631:A1 5.03545e-06
120 *627:A *382:28 0.000114271
121 *627:A *382:208 3.9955e-05
122 *631:A2 *631:A1 2.58616e-05
123 *633:A *633:B 1.43832e-05
124 *634:A2 *634:A1 5.04829e-06
125 *634:B1 *634:A1 6.50586e-05
126 *648:A *648:B 6.50586e-05
127 *648:A *382:107 5.04829e-06
128 *648:A *382:120 5.92342e-05
129 *648:A *382:124 5.04829e-06
130 *648:A *382:142 0.00012272
131 *648:A *382:153 9.40955e-06
132 *649:B1 *649:A2 0.000212398
133 *652:A1 *382:153 6.80864e-05
134 *652:B1 *651:B 2.60736e-05
135 *652:B1 *382:120 5.29683e-05
136 *652:B1 *382:142 5.302e-05
137 *652:B1 *382:153 3.67708e-05
138 *654:A *654:B 4.80635e-06
139 *655:A2 *654:B 6.50586e-05
140 *655:B1 *654:B 3.14978e-05
141 *663:A1 *382:28 0.000205666
142 *670:S *382:124 0.000164829
143 *682:A *382:10 0.00021217
144 *683:A1 *382:10 0.000107496
145 *687:B1 *382:10 9.6753e-05
146 *694:D *633:B 5.36441e-05
147 *703:D *382:94 0.00011818
148 *703:D *382:107 6.50586e-05
149 *704:D *625:A1 2.17699e-05
150 *704:D *382:34 8.15895e-05
151 *706:D *631:A1 9.57724e-06
152 *722:D *634:A1 5.04829e-06
153 *722:D *382:18 0.000321452
154 *856:A *382:34 4.823e-05
155 *858:A *382:34 1.21976e-05
156 *865:A *651:B 5.66978e-05
157 *865:A *382:107 8.67831e-05
158 *865:A *382:120 1.75176e-05
159 *866:A *651:B 1.77537e-06
160 *871:A *382:34 2.02035e-05
161 *872:A *382:34 0.000226601
162 *872:A *382:208 8.14463e-05
163 *885:A *382:124 0.000159651
164 *890:A *382:90 0.00027329
165 *965:A *382:60 6.00736e-05
166 *986:A *633:B 1.35525e-05
167 *986:A *382:16 8.01716e-05
168 *3:6 *633:B 9.13754e-06
169 *28:10 *382:10 1.47085e-06
170 *28:10 *382:16 0
171 *28:18 *382:18 0
172 *57:12 *628:A1 2.16888e-05
173 *94:18 *382:16 0
174 *94:18 *382:18 0
175 *99:16 *382:124 8.86714e-05
176 *146:14 *382:28 0.000122937
177 *153:12 *633:B 2.53401e-05
178 *194:14 *619:A2 0.000256307
179 *211:16 *382:90 6.92705e-05
180 *211:16 *382:94 7.02172e-06
181 *259:192 *649:A2 0.00021217
182 *372:10 *382:90 7.48633e-05
*RES
1 *923:X *382:10 45.2651 
2 *382:10 *382:16 8.54931 
3 *382:16 *382:18 9.72179 
4 *382:18 *382:20 3.90826 
5 *382:20 *382:28 25.5458 
6 *382:28 *382:34 24.6381 
7 *382:34 *624:B 9.24915 
8 *382:34 *382:41 0.723396 
9 *382:41 *625:A1 15.7356 
10 *382:41 *382:60 16.3469 
11 *382:60 *382:62 2.6625 
12 *382:62 *382:66 17.9591 
13 *382:66 *615:B 11.6605 
14 *382:66 *382:77 0.723396 
15 *382:77 *616:A1 9.82786 
16 *382:77 *382:90 37.5201 
17 *382:90 *382:94 3.78577 
18 *382:94 *622:A2 9.24915 
19 *382:94 *382:107 10.7716 
20 *382:107 *651:B 16.9274 
21 *382:107 *382:120 2.03962 
22 *382:120 *382:124 21.3069 
23 *382:124 *655:A1 9.82786 
24 *382:124 *654:B 12.2151 
25 *382:120 *382:142 2.6625 
26 *382:142 *652:A2 13.7491 
27 *382:142 *382:153 4.64105 
28 *382:153 *648:B 14.4725 
29 *382:153 *649:A2 23.904 
30 *382:90 *621:B 9.24915 
31 *382:62 *619:A2 29.4627 
32 *382:60 *618:B 13.7491 
33 *382:28 *382:208 3.07775 
34 *382:208 *627:B 13.7491 
35 *382:208 *631:A1 19.0087 
36 *382:20 *630:B 13.7491 
37 *382:18 *628:A1 32.9619 
38 *382:16 *634:A1 14.4725 
39 *382:10 *633:B 26.0194 
*END

*D_NET *442 0.0159803
*CONN
*I *637:A1 I *D sky130_fd_sc_hd__o21ai_1
*I *640:A1 I *D sky130_fd_sc_hd__o21ai_1
*I *645:B I *D sky130_fd_sc_hd__nand2_1
*I *646:A2 I *D sky130_fd_sc_hd__o21ai_1
*I *691:A1 I *D sky130_fd_sc_hd__o21ai_1
*I *690:B I *D sky130_fd_sc_hd__nand2_1
*I *657:B I *D sky130_fd_sc_hd__nand2_1
*I *658:A1 I *D sky130_fd_sc_hd__o21ai_1
*I *642:B I *D sky130_fd_sc_hd__nand2_1
*I *643:A1 I *D sky130_fd_sc_hd__o21ai_0
*I *639:B I *D sky130_fd_sc_hd__nand2_1
*I *636:B I *D sky130_fd_sc_hd__nand2_1
*I *983:X O *D sky130_fd_sc_hd__buf_4
*CAP
1 *637:A1 0
2 *640:A1 0
3 *645:B 9.0426e-05
4 *646:A2 0.000334885
5 *691:A1 3.04122e-05
6 *690:B 2.13635e-05
7 *657:B 0
8 *658:A1 5.50299e-05
9 *642:B 1.44379e-05
10 *643:A1 1.59594e-05
11 *639:B 0
12 *636:B 2.12792e-05
13 *983:X 3.31727e-05
14 *442:92 0.000148326
15 *442:88 0.000223608
16 *442:86 0.000500094
17 *442:84 0.0009272
18 *442:82 0.001184
19 *442:69 0.00093225
20 *442:60 0.000776649
21 *442:35 0.000856528
22 *442:27 0.000316705
23 *442:14 0.000370782
24 *442:6 0.000217625
25 *645:B *883:A 3.58208e-05
26 *442:6 *446:49 4.21956e-05
27 *442:6 *491:10 7.60171e-05
28 *442:27 *635:S 2.60765e-05
29 *442:27 *638:S 3.25052e-05
30 *442:35 *490:8 3.31745e-05
31 *442:60 *667:S 0.00038142
32 *442:60 *490:8 0.000784182
33 *442:60 *491:78 0.000211546
34 *442:82 *717:DE 0.000294599
35 *442:82 *1033:A 0.00012917
36 *442:82 *446:55 0.000160972
37 *442:82 *450:72 2.03024e-05
38 *442:82 *466:52 0.000192027
39 *442:84 *717:DE 0
40 *442:88 *656:S 3.3179e-05
41 *442:92 *656:S 6.01865e-05
42 resp_msg[8] *442:60 0.000211546
43 resp_msg[9] *442:82 0.000112013
44 *605:B1 *690:B 6.27782e-05
45 *639:A *442:35 6.08467e-05
46 *639:A *442:60 4.86525e-05
47 *640:B1 *442:35 9.05084e-06
48 *642:A *642:B 4.65954e-06
49 *642:A *442:60 1.83992e-05
50 *642:A *442:69 3.56314e-05
51 *642:A *442:82 1.37189e-05
52 *643:B1 *442:69 2.99287e-05
53 *643:B1 *442:82 2.99287e-05
54 *645:A *645:B 6.80755e-05
55 *658:A2 *658:A1 1.81476e-05
56 *658:B1 *658:A1 6.27782e-05
57 *666:A0 *442:14 0.000159436
58 *666:A0 *442:27 0.000516451
59 *669:A0 *442:82 0.000180318
60 *677:A *442:82 5.94882e-05
61 *677:A *442:84 0.000162068
62 *689:A0 *646:A2 9.72686e-05
63 *689:A0 *442:84 1.06486e-05
64 *689:A0 *442:86 0.000236695
65 *691:A2 *691:A1 2.16355e-05
66 *691:B1 *690:B 4.29314e-06
67 *691:B1 *442:86 3.31882e-05
68 *691:B1 *442:88 0.000315573
69 *700:DE *442:86 0.00025086
70 *700:DE *442:88 0.000380689
71 *700:DE *442:92 0.000158186
72 *701:D *691:A1 0.000111708
73 *708:DE *442:14 7.45561e-05
74 *709:D *442:35 0.000118002
75 *710:D *442:60 1.41976e-05
76 *710:D *442:69 0.000145896
77 *717:D *442:86 0.000143175
78 *725:D *442:60 9.733e-05
79 *862:A *442:35 1.65872e-05
80 *863:A *442:60 0.000161956
81 *1015:A *442:27 1.05106e-05
82 *24:14 *442:82 0.000188177
83 *24:14 *442:84 0.000190013
84 *95:14 *442:14 6.55453e-05
85 *162:6 *691:A1 1.19721e-05
86 *258:23 *658:A1 0.000143918
87 *258:25 *658:A1 6.55651e-05
88 *392:207 *442:60 0.000295098
89 *392:230 *442:84 2.42129e-06
90 *392:230 *442:86 0.000126656
91 *403:52 *442:82 0.000277152
92 *412:6 *646:A2 0.000260751
93 *439:12 *442:27 0.000383296
94 *439:29 *442:14 1.4106e-05
95 *439:29 *442:27 0.000104613
*RES
1 *983:X *442:6 11.0817 
2 *442:6 *442:14 14.8802 
3 *442:14 *636:B 9.82786 
4 *442:14 *442:27 9.78996 
5 *442:27 *442:35 13.3558 
6 *442:35 *639:B 9.24915 
7 *442:35 *442:60 28.4053 
8 *442:60 *643:A1 9.82786 
9 *442:60 *442:69 2.38721 
10 *442:69 *642:B 9.82786 
11 *442:69 *442:82 34.4676 
12 *442:82 *442:84 7.23027 
13 *442:84 *442:86 13.4591 
14 *442:86 *442:88 6.81502 
15 *442:88 *442:92 7.57775 
16 *442:92 *658:A1 11.6364 
17 *442:92 *657:B 9.24915 
18 *442:88 *690:B 14.4725 
19 *442:86 *691:A1 15.0271 
20 *442:84 *646:A2 22.6228 
21 *442:82 *645:B 16.1605 
22 *442:27 *640:A1 9.24915 
23 *442:6 *637:A1 9.24915 
*END

*D_NET *137 0.000322452
*CONN
*I *639:A I *D sky130_fd_sc_hd__nand2_1
*I *862:X O *D sky130_fd_sc_hd__clkdlybuf4s50_1
*CAP
1 *639:A 7.60532e-05
2 *862:X 7.60532e-05
3 *639:A *862:A 6.08467e-05
4 *639:A *442:35 6.08467e-05
5 *639:A *442:60 4.86525e-05
*RES
1 *862:X *639:A 20.9096 
*END

*D_NET *392 0.0522176
*CONN
*I *710:DE I *D sky130_fd_sc_hd__edfxtp_1
*I *700:DE I *D sky130_fd_sc_hd__edfxtp_1
*I *701:DE I *D sky130_fd_sc_hd__edfxtp_1
*I *696:DE I *D sky130_fd_sc_hd__edfxtp_1
*I *709:DE I *D sky130_fd_sc_hd__edfxtp_1
*I *708:DE I *D sky130_fd_sc_hd__edfxtp_1
*I *706:DE I *D sky130_fd_sc_hd__edfxtp_1
*I *705:DE I *D sky130_fd_sc_hd__edfxtp_1
*I *704:DE I *D sky130_fd_sc_hd__edfxtp_1
*I *702:DE I *D sky130_fd_sc_hd__edfxtp_1
*I *695:DE I *D sky130_fd_sc_hd__edfxtp_1
*I *698:DE I *D sky130_fd_sc_hd__edfxtp_1
*I *699:DE I *D sky130_fd_sc_hd__edfxtp_1
*I *697:DE I *D sky130_fd_sc_hd__edfxtp_1
*I *703:DE I *D sky130_fd_sc_hd__edfxtp_1
*I *707:DE I *D sky130_fd_sc_hd__edfxtp_1
*I *933:X O *D sky130_fd_sc_hd__buf_12
*CAP
1 *710:DE 8.22665e-05
2 *700:DE 0.000741457
3 *701:DE 0.000425754
4 *696:DE 0.000132968
5 *709:DE 0
6 *708:DE 0.000603924
7 *706:DE 4.91704e-05
8 *705:DE 0
9 *704:DE 1.67259e-05
10 *702:DE 1.46357e-05
11 *695:DE 1.65908e-05
12 *698:DE 0.00032659
13 *699:DE 0.000678835
14 *697:DE 0.000568602
15 *703:DE 0.000104311
16 *707:DE 0.000471589
17 *933:X 0.00114868
18 *392:230 0.00160981
19 *392:213 0.00195737
20 *392:207 0.00279275
21 *392:188 0.00183977
22 *392:171 0.00160039
23 *392:99 0.00129331
24 *392:80 0.00204814
25 *392:65 0.00366299
26 *392:59 0.00294466
27 *392:53 0.00123192
28 *392:51 0.00100318
29 *392:45 0.0012127
30 *392:31 0.0013513
31 *392:12 0.00155454
32 *697:DE *517:B1 0.000354796
33 *697:DE *448:27 5.35029e-05
34 *697:DE *448:49 0.000587254
35 *698:DE *448:56 8.11133e-05
36 *700:DE *656:S 4.0787e-05
37 *700:DE *442:86 0.00025086
38 *700:DE *442:88 0.000380689
39 *700:DE *442:92 0.000158186
40 *704:DE *704:CLK 3.42041e-05
41 *707:DE *665:S 4.09467e-05
42 *707:DE *445:18 0.000477015
43 *707:DE *447:10 6.578e-05
44 *707:DE *449:44 9.24241e-05
45 *707:DE *449:57 0.000106245
46 *708:DE *635:A0 7.13655e-06
47 *708:DE *708:CLK 1.66138e-05
48 *708:DE *442:14 7.45561e-05
49 *710:DE *450:56 2.19686e-05
50 *392:12 *610:B1_N 2.53624e-06
51 *392:12 *632:A0 8.18038e-05
52 *392:12 *632:S 7.77309e-06
53 *392:12 *1016:A 0.000160384
54 *392:12 *445:18 0.000830589
55 *392:12 *445:31 0.000133066
56 *392:31 *445:18 6.08697e-06
57 *392:31 *447:36 0.000840051
58 *392:31 *449:90 0
59 *392:45 *662:A0 0.000693833
60 *392:45 *436:39 4.41474e-05
61 *392:45 *447:36 0.000236279
62 *392:45 *447:38 0.000312746
63 *392:45 *447:44 0.000354203
64 *392:51 *705:CLK 0.00021185
65 *392:51 *431:104 3.87022e-06
66 *392:53 *431:91 3.87022e-06
67 *392:53 *431:104 8.12017e-05
68 *392:59 *695:CLK 0
69 *392:59 *702:CLK 0
70 *392:59 *431:56 0.000148129
71 *392:59 *431:91 0.00013327
72 *392:171 *676:A 6.50727e-05
73 *392:188 *709:CLK 3.19324e-05
74 *392:207 *709:CLK 1.28399e-05
75 *392:207 *442:60 0.000295098
76 *392:207 *490:8 0.000749636
77 *392:213 *534:A1 6.27759e-05
78 *392:213 *746:C1 0
79 *392:213 *753:A1 5.41377e-05
80 *392:213 *457:16 7.74067e-05
81 *392:213 *476:10 0
82 *392:230 *677:A 0.000123582
83 *392:230 *717:CLK 0.000288394
84 *392:230 *442:84 2.42129e-06
85 *392:230 *442:86 0.000126656
86 resp_msg[12] *697:DE 0.000290644
87 resp_msg[12] *698:DE 0
88 resp_msg[12] *392:99 0
89 resp_msg[1] *392:53 0.000192276
90 resp_msg[6] *708:DE 0
91 resp_msg[7] *708:DE 3.58321e-05
92 resp_msg[8] *392:207 0.000170577
93 resp_val *392:171 0.000334115
94 *531:C1 *701:DE 0
95 *533:A2 *392:213 0.000255695
96 *534:B1 *696:DE 2.57585e-05
97 *534:B1 *392:213 9.75148e-06
98 *546:A *701:DE 6.08467e-05
99 *546:B *700:DE 0.000303709
100 *548:A *700:DE 1.00937e-05
101 *550:B *700:DE 1.01794e-05
102 *550:B *701:DE 2.81892e-06
103 *550:B *392:230 9.04668e-05
104 *551:B *392:230 2.3339e-05
105 *554:A *392:213 0.000604095
106 *557:B *392:213 0.000175581
107 *606:B1 *700:DE 2.22198e-05
108 *615:A *392:59 3.58185e-05
109 *619:A2 *392:53 0.000143041
110 *632:A1 *392:12 0.000107496
111 *633:A *707:DE 0.000294093
112 *634:B1 *707:DE 3.45653e-05
113 *636:A *708:DE 0
114 *636:A *392:188 3.90059e-05
115 *637:B1 *708:DE 0.000113295
116 *646:A1 *392:213 0
117 *651:A *699:DE 2.65831e-05
118 *651:B *697:DE 0
119 *652:B1 *697:DE 0.000117286
120 *670:A1 *698:DE 0
121 *670:A1 *699:DE 1.31657e-05
122 *671:A1 *698:DE 0
123 *671:A1 *699:DE 7.98425e-06
124 *674:A *392:12 9.29919e-05
125 *683:A1 *392:12 0.000110793
126 *683:B1 *392:12 3.02018e-05
127 *684:A2 *392:12 0
128 *684:A2 *392:171 0.000786969
129 *695:D *695:DE 3.44641e-05
130 *695:D *392:59 0
131 *696:D *696:DE 0.000156409
132 *696:D *392:213 9.35468e-06
133 *699:D *699:DE 3.57898e-05
134 *700:D *700:DE 0.000369328
135 *701:D *701:DE 3.81987e-05
136 *702:D *702:DE 3.42041e-05
137 *702:D *392:53 0.000334493
138 *703:D *703:DE 3.44641e-05
139 *705:D *392:45 0.000167545
140 *705:D *392:51 7.18372e-05
141 *707:D *707:DE 3.39728e-05
142 *708:D *708:DE 6.98552e-05
143 *709:D *392:188 3.14375e-05
144 *710:D *710:DE 6.46815e-05
145 *725:D *392:207 4.58003e-05
146 *846:A *392:53 0
147 *848:A *698:DE 1.44611e-05
148 *848:A *392:99 3.92275e-05
149 *849:A *699:DE 0.000330596
150 *853:A *392:53 0
151 *854:A *392:53 2.02035e-05
152 *855:A *697:DE 0.000113374
153 *855:A *703:DE 0
154 *857:A *392:53 7.00991e-05
155 *861:A *392:188 0.000164829
156 *862:A *392:207 7.58595e-05
157 *863:A *392:207 2.60544e-05
158 *866:A *697:DE 0.000127179
159 *871:A *392:51 2.02035e-05
160 *878:A *392:171 1.34424e-05
161 *879:A *392:171 0.000222149
162 *885:A *697:DE 8.96665e-05
163 *895:A *708:DE 5.6118e-05
164 *921:A *701:DE 0.000360784
165 *953:A *392:230 0
166 *974:A *392:171 6.49003e-05
167 *986:A *707:DE 2.65831e-05
168 *11:10 *392:207 9.14388e-05
169 *28:10 *392:31 0.000216103
170 *28:18 *392:31 0.00031589
171 *57:12 *392:31 3.74593e-05
172 *57:12 *392:45 9.81265e-05
173 *76:22 *697:DE 3.42041e-05
174 *95:14 *708:DE 0
175 *99:16 *697:DE 0
176 *99:16 *698:DE 0.000191541
177 *109:20 *392:31 0
178 *159:32 *697:DE 3.95141e-05
179 *162:6 *701:DE 0.000362266
180 *169:34 *708:DE 3.18342e-06
181 *171:12 *392:213 6.73169e-05
182 *173:16 *392:12 0.000384419
183 *173:16 *392:171 0.000383703
184 *182:10 *392:213 5.51453e-05
185 *246:6 *700:DE 0.000102003
186 *246:6 *701:DE 0.000162677
187 *246:21 *701:DE 0.0001729
188 *258:10 *700:DE 0
189 *259:243 *701:DE 0.000203833
190 *259:263 *392:213 0
191 *259:274 *392:213 0
192 *288:10 *701:DE 0.000191556
193 *289:6 *392:213 0.000457655
194 *382:34 *392:45 0
195 *382:34 *392:51 0.000146684
196 *382:34 *392:53 5.65046e-05
197 *382:66 *392:59 0
*RES
1 *933:X *392:12 41.5784 
2 *392:12 *707:DE 32.8523 
3 *392:12 *392:31 21.2811 
4 *392:31 *392:45 39.4804 
5 *392:45 *392:51 14.5763 
6 *392:51 *392:53 20.1031 
7 *392:53 *392:59 14.9247 
8 *392:59 *392:65 39.2224 
9 *392:65 *703:DE 20.485 
10 *392:65 *392:80 16.8069 
11 *392:80 *697:DE 40.4171 
12 *392:80 *392:99 9.27381 
13 *392:99 *699:DE 30.1763 
14 *392:99 *698:DE 22.4265 
15 *392:59 *695:DE 14.153 
16 *392:53 *702:DE 14.153 
17 *392:51 *704:DE 14.153 
18 *392:45 *705:DE 9.24915 
19 *392:31 *706:DE 14.7076 
20 *933:X *392:171 29.3837 
21 *392:171 *708:DE 32.8851 
22 *392:171 *392:188 12.4243 
23 *392:188 *709:DE 9.24915 
24 *392:188 *392:207 40.0599 
25 *392:207 *392:213 40.2868 
26 *392:213 *696:DE 13.7643 
27 *392:213 *392:230 22.2154 
28 *392:230 *701:DE 41.4925 
29 *392:230 *700:DE 42.5526 
30 *392:207 *710:DE 15.8591 
*END

*D_NET *394 0.000312127
*CONN
*I *684:A1 I *D sky130_fd_sc_hd__o22ai_1
*I *935:X O *D sky130_fd_sc_hd__buf_4
*CAP
1 *684:A1 8.02195e-05
2 *935:X 8.02195e-05
3 *684:A1 *439:39 5.03545e-06
4 *684:A2 *684:A1 0.000146652
*RES
1 *935:X *684:A1 30.1608 
*END

*D_NET *138 0.000559021
*CONN
*I *642:A I *D sky130_fd_sc_hd__nand2_1
*I *863:X O *D sky130_fd_sc_hd__clkdlybuf4s50_1
*CAP
1 *642:A 0.000184618
2 *863:X 0.000184618
3 *642:A *642:B 4.65954e-06
4 *642:A *442:60 1.83992e-05
5 *642:A *442:69 3.56314e-05
6 *642:A *442:82 1.37189e-05
7 *643:B1 *642:A 0.000117376
*RES
1 *863:X *642:A 23.538 
*END

*D_NET *443 0.00252204
*CONN
*I *559:A I *D sky130_fd_sc_hd__xor2_1
*I *677:C I *D sky130_fd_sc_hd__nor4_1
*I *641:A0 I *D sky130_fd_sc_hd__mux2i_1
*I *984:X O *D sky130_fd_sc_hd__buf_4
*CAP
1 *559:A 4.8691e-05
2 *677:C 5.63587e-05
3 *641:A0 7.78476e-05
4 *984:X 3.71833e-05
5 *443:10 0.000282123
6 *443:8 0.000233791
7 *559:A *450:56 0.000145171
8 *443:8 *450:56 5.04829e-06
9 *443:10 *450:56 5.92192e-05
10 *559:B *559:A 0.000136545
11 *559:B *443:10 8.62625e-06
12 *643:A2 *443:10 4.34932e-05
13 *677:D *677:C 0.000107496
14 *897:A *641:A0 0.000183795
15 *897:A *443:10 0.000262669
16 *9:10 *677:C 0.000207892
17 *10:8 *443:8 6.12686e-06
18 *259:253 *641:A0 8.36586e-06
19 *259:263 *641:A0 0.000183809
20 *259:263 *443:10 0.000210202
21 *259:274 *443:10 0.000217587
*RES
1 *984:X *443:8 14.4725 
2 *443:8 *443:10 7.64553 
3 *443:10 *641:A0 17.2421 
4 *443:10 *677:C 16.1364 
5 *443:8 *559:A 16.4116 
*END

*D_NET *403 0.00859309
*CONN
*I *677:B I *D sky130_fd_sc_hd__nor4_1
*I *638:A0 I *D sky130_fd_sc_hd__mux2i_1
*I *556:A I *D sky130_fd_sc_hd__xor2_1
*I *944:X O *D sky130_fd_sc_hd__buf_4
*CAP
1 *677:B 5.01376e-05
2 *638:A0 0
3 *556:A 0.000370688
4 *944:X 0
5 *403:52 0.001452
6 *403:18 0.000763287
7 *403:4 0.00179446
8 *556:A *439:12 0.000150827
9 *556:A *477:10 0.000110567
10 *677:B *677:A 6.96979e-05
11 *403:18 *638:S 5.57875e-05
12 *403:18 *439:12 0.000110458
13 *403:18 *450:44 0.000346637
14 *403:52 *641:S 2.11857e-05
15 *403:52 *677:A 1.95136e-06
16 *403:52 *442:82 0.000277152
17 *403:52 *446:53 0.00109331
18 *403:52 *450:68 0.000113107
19 *403:52 *450:72 0.000151879
20 resp_msg[9] *403:52 0.000117754
21 *554:C *403:52 2.54028e-05
22 *638:A1 *403:18 2.16355e-05
23 *640:A2 *403:18 2.58757e-05
24 *640:B1 *556:A 3.55179e-05
25 *643:A2 *677:B 1.32043e-05
26 *667:A1 *403:18 0.000199451
27 *740:A *556:A 6.08467e-05
28 *876:A *403:18 0.000515817
29 *944:A *403:18 0.000112361
30 *960:A *403:18 0.000267174
31 *174:10 *403:52 0.00014527
32 *224:10 *556:A 5.45692e-05
33 *259:290 *556:A 6.50727e-05
*RES
1 *944:X *403:4 9.24915 
2 *403:4 *403:18 17.9402 
3 *403:18 *556:A 29.1152 
4 *403:18 *638:A0 9.24915 
5 *403:4 *403:52 49.0182 
6 *403:52 *677:B 19.6659 
*END

*D_NET *404 0.0111139
*CONN
*I *635:A0 I *D sky130_fd_sc_hd__mux2i_1
*I *679:D I *D sky130_fd_sc_hd__nor4_1
*I *945:X O *D sky130_fd_sc_hd__buf_4
*CAP
1 *635:A0 0.000671426
2 *679:D 0.00371382
3 *945:X 0.000292535
4 *404:14 0.00467778
5 *679:D *679:C 1.51692e-05
6 *679:D *435:37 0.000264127
7 *404:14 *708:CLK 0
8 *506:C1 *679:D 0.000676567
9 *661:A1 *679:D 4.04182e-05
10 *708:DE *635:A0 7.13655e-06
11 *120:28 *635:A0 0.000150643
12 *120:28 *404:14 1.50142e-05
13 *169:34 *635:A0 1.91391e-05
14 *225:16 *404:14 1.93539e-05
15 *385:16 *404:14 0.000550778
*RES
1 *945:X *404:14 19.4802 
2 *404:14 *679:D 27.5378 
3 *404:14 *635:A0 19.8036 
*END

*D_NET *405 0.00322182
*CONN
*I *680:D I *D sky130_fd_sc_hd__nor4_1
*I *632:A0 I *D sky130_fd_sc_hd__mux2i_1
*I *946:X O *D sky130_fd_sc_hd__buf_4
*CAP
1 *680:D 0.000903114
2 *632:A0 0.000197262
3 *946:X 0
4 *405:4 0.00110038
5 *632:A0 *632:S 1.54891e-05
6 *632:A0 *439:39 0.000261319
7 *632:A0 *445:18 9.82896e-06
8 *680:D *508:B1 0
9 *680:D *680:C 9.70097e-06
10 *680:D *977:A 9.20812e-05
11 *680:D *422:14 0
12 *680:D *439:39 0.000229103
13 *680:D *459:12 0
14 *594:A *680:D 0
15 *632:A1 *632:A0 0.000107496
16 *943:A *680:D 7.22586e-05
17 *946:A *632:A0 8.58309e-05
18 *39:10 *680:D 5.61533e-05
19 *220:18 *680:D 0
20 *220:31 *680:D 0
21 *242:14 *680:D 0
22 *259:126 *680:D 0
23 *363:14 *680:D 0
24 *392:12 *632:A0 8.18038e-05
*RES
1 *946:X *405:4 9.24915 
2 *405:4 *632:A0 16.2661 
3 *405:4 *680:D 40.8788 
*END

*D_NET *406 0.00374813
*CONN
*I *680:C I *D sky130_fd_sc_hd__nor4_1
*I *629:A0 I *D sky130_fd_sc_hd__mux2i_1
*I *947:X O *D sky130_fd_sc_hd__buf_4
*CAP
1 *680:C 0.000303583
2 *629:A0 0.000650202
3 *947:X 0
4 *406:4 0.000953785
5 *629:A0 *629:S 6.27782e-05
6 *629:A0 *662:A0 1.65872e-05
7 *629:A0 *662:S 6.08467e-05
8 *629:A0 *721:CLK 0.000208599
9 *629:A0 *947:A 2.81262e-05
10 *629:A0 *449:96 0.000302956
11 *680:C *626:S 1.66771e-05
12 *680:C *680:B 0.000381953
13 *680:C *947:A 0.000112367
14 *626:A1 *680:C 6.85171e-05
15 *628:A2 *680:C 7.93392e-05
16 *680:D *680:C 9.70097e-06
17 *720:D *629:A0 0.000162853
18 *893:A *629:A0 5.31465e-05
19 *146:14 *629:A0 0.000253345
20 *259:126 *680:C 2.27637e-05
*RES
1 *947:X *406:4 9.24915 
2 *406:4 *629:A0 25.7426 
3 *406:4 *680:C 27.9073 
*END

*D_NET *407 0.00280082
*CONN
*I *596:A I *D sky130_fd_sc_hd__xor2_1
*I *626:A0 I *D sky130_fd_sc_hd__mux2i_1
*I *680:B I *D sky130_fd_sc_hd__nor4_1
*I *948:X O *D sky130_fd_sc_hd__buf_4
*CAP
1 *596:A 0.000166447
2 *626:A0 3.97264e-05
3 *680:B 0.000344357
4 *948:X 0
5 *407:12 0.000693527
6 *407:4 0.000475891
7 *626:A1 *626:A0 1.63874e-05
8 *626:A1 *407:12 7.30654e-05
9 *680:C *680:B 0.000381953
10 *681:D *680:B 0.000114271
11 *892:A *407:12 6.13441e-05
12 *948:A *407:12 0.000342373
13 *220:18 *626:A0 1.48238e-05
14 *220:18 *407:12 7.66556e-05
*RES
1 *948:X *407:4 9.24915 
2 *407:4 *407:12 14.4322 
3 *407:12 *680:B 21.3448 
4 *407:12 *626:A0 14.7506 
5 *407:4 *596:A 12.7697 
*END

*D_NET *408 0.00593359
*CONN
*I *680:A I *D sky130_fd_sc_hd__nor4_1
*I *586:A I *D sky130_fd_sc_hd__xor2_1
*I *623:A0 I *D sky130_fd_sc_hd__mux2i_1
*I *949:X O *D sky130_fd_sc_hd__buf_4
*CAP
1 *680:A 0.000683193
2 *586:A 0
3 *623:A0 0.00103981
4 *949:X 3.61884e-05
5 *408:29 0.000700168
6 *408:6 0.00109297
7 *623:A0 *585:A 2.02035e-05
8 *680:A *460:24 5.04829e-06
9 *680:A *467:18 0.000396165
10 *568:B1 *680:A 2.4706e-05
11 *584:C *623:A0 0.000135787
12 *585:B *623:A0 2.08133e-05
13 *589:C *623:A0 4.70104e-05
14 *625:A2 *623:A0 0.000167076
15 *681:D *680:A 6.27718e-05
16 *892:A *623:A0 8.33514e-05
17 *964:A *623:A0 0.000189817
18 *30:8 *408:6 9.14669e-05
19 *30:8 *408:29 1.65872e-05
20 *146:14 *623:A0 0.00025527
21 *190:12 *680:A 0.000213964
22 *213:10 *623:A0 4.20098e-05
23 *214:12 *623:A0 0.000110458
24 *220:31 *680:A 6.01397e-05
25 *220:33 *680:A 4.3116e-06
26 *259:86 *680:A 6.50727e-05
27 *259:86 *408:6 0.000217937
28 *259:86 *408:29 6.08467e-05
29 *259:97 *680:A 5.31074e-05
30 *259:126 *680:A 0
31 *390:12 *680:A 3.73409e-05
*RES
1 *949:X *408:6 11.6364 
2 *408:6 *623:A0 41.2845 
3 *408:6 *408:29 0.723396 
4 *408:29 *586:A 9.24915 
5 *408:29 *680:A 37.5088 
*END

*D_NET *409 0.000727876
*CONN
*I *679:C I *D sky130_fd_sc_hd__nor4_1
*I *950:X O *D sky130_fd_sc_hd__buf_4
*CAP
1 *679:C 0.000224166
2 *950:X 0.000224166
3 *679:C *950:A 5.27363e-05
4 *661:A1 *679:C 4.3714e-05
5 *679:D *679:C 1.51692e-05
6 *719:D *679:C 0.000167925
*RES
1 *950:X *679:C 34.3133 
*END

*D_NET *139 0.00121666
*CONN
*I *645:A I *D sky130_fd_sc_hd__nand2_1
*I *864:X O *D sky130_fd_sc_hd__clkdlybuf4s50_1
*CAP
1 *645:A 0.000144758
2 *864:X 0.000144758
3 *645:A *645:B 6.80755e-05
4 *645:A *864:A 0.000311235
5 *645:A *883:A 0.000547837
*RES
1 *864:X *645:A 25.5152 
*END

*D_NET *411 0.00365059
*CONN
*I *617:A0 I *D sky130_fd_sc_hd__mux2i_1
*I *679:B I *D sky130_fd_sc_hd__nor4_1
*I *578:A I *D sky130_fd_sc_hd__xor2_4
*I *952:X O *D sky130_fd_sc_hd__buf_4
*CAP
1 *617:A0 0.000278517
2 *679:B 0.000337472
3 *578:A 0.000540238
4 *952:X 0.000599193
5 *578:A *526:A 8.36586e-06
6 *578:A *426:31 4.74837e-05
7 *617:A0 *617:S 0.000161956
8 *617:A0 *447:52 7.06708e-05
9 *679:B *575:A 6.50586e-05
10 *679:B *661:S 1.00766e-05
11 *679:B *679:A 0.000197436
12 *679:B *426:31 0.000114271
13 *571:B1 *578:A 5.65046e-05
14 *572:A *617:A0 0.00015901
15 *619:A1 *617:A0 6.46815e-05
16 *889:A *617:A0 0.000114271
17 *913:A *578:A 7.74044e-06
18 *940:A *617:A0 8.36586e-06
19 *107:12 *679:B 0.000117359
20 *163:10 *617:A0 0.000210819
21 *196:12 *679:B 0.000100484
22 *200:12 *679:B 0
23 *204:28 *578:A 0.000157107
24 *259:38 *578:A 0.000190979
25 *372:10 *679:B 3.25312e-05
*RES
1 *952:X *578:A 36.1515 
2 *952:X *679:B 38.612 
3 *578:A *617:A0 37.0143 
*END

*D_NET *412 0.00509008
*CONN
*I *689:A0 I *D sky130_fd_sc_hd__mux2i_1
*I *677:A I *D sky130_fd_sc_hd__nor4_1
*I *953:X O *D sky130_fd_sc_hd__buf_4
*CAP
1 *689:A0 0.000442591
2 *677:A 0.000628014
3 *953:X 9.63982e-05
4 *412:6 0.001167
5 *677:A *641:S 0.000156639
6 *677:A *669:A0 0.000134976
7 *677:A *717:CLK 1.75176e-05
8 *677:A *442:82 5.94882e-05
9 *677:A *442:84 0.000162068
10 *677:A *450:72 0.00048742
11 *689:A0 *611:A0 0.00031631
12 *689:A0 *646:A2 9.72686e-05
13 *689:A0 *717:DE 9.085e-06
14 *689:A0 *427:8 0.000237749
15 *689:A0 *442:84 1.06486e-05
16 *689:A0 *442:86 0.000236695
17 *412:6 *646:A2 0.000260751
18 *677:B *677:A 6.96979e-05
19 *691:B1 *689:A0 3.67708e-05
20 *717:D *689:A0 0.000161319
21 *2:14 *689:A0 8.18789e-05
22 *174:10 *677:A 9.42624e-05
23 *392:230 *677:A 0.000123582
24 *403:52 *677:A 1.95136e-06
*RES
1 *953:X *412:6 12.191 
2 *412:6 *677:A 46.1732 
3 *412:6 *689:A0 34.5107 
*END

*D_NET *413 0.00412986
*CONN
*I *656:A0 I *D sky130_fd_sc_hd__mux2i_1
*I *678:D I *D sky130_fd_sc_hd__nor4_1
*I *954:X O *D sky130_fd_sc_hd__buf_4
*CAP
1 *656:A0 0.000371935
2 *678:D 0.000430882
3 *954:X 0.000273871
4 *413:14 0.00107669
5 *678:D *415:8 0.000213478
6 *413:14 *435:75 2.58757e-05
7 *535:A2 *656:A0 0.000111722
8 *540:B *656:A0 0.00033601
9 *545:B *656:A0 0.000205343
10 *545:B *413:14 2.36728e-05
11 *606:A2 *656:A0 2.16355e-05
12 *755:B1 *656:A0 3.67528e-06
13 *931:A *678:D 1.50924e-05
14 *956:A *678:D 0.00011899
15 *5:8 *413:14 2.58757e-05
16 *159:20 *678:D 0.000109421
17 *257:10 *413:14 6.49659e-05
18 *259:231 *656:A0 0.000135572
19 *259:243 *656:A0 0.000356558
20 *278:18 *656:A0 0.000102003
21 *280:10 *656:A0 4.9e-05
22 *282:10 *656:A0 5.75903e-05
*RES
1 *954:X *413:14 24.5769 
2 *413:14 *678:D 19.8348 
3 *413:14 *656:A0 33.2649 
*END

*D_NET *414 0.00152026
*CONN
*I *653:A0 I *D sky130_fd_sc_hd__mux2i_1
*I *678:C I *D sky130_fd_sc_hd__nor4_1
*I *955:X O *D sky130_fd_sc_hd__buf_4
*CAP
1 *653:A0 0
2 *678:C 6.97861e-05
3 *955:X 0.000247398
4 *414:10 0.000317184
5 *678:C *650:A0 0.000145035
6 *678:C *670:A0 0.000191143
7 *678:C *714:DE 2.0002e-05
8 *414:10 *647:S 6.92705e-05
9 *414:10 *650:A0 6.50727e-05
10 *414:10 *653:S 3.08682e-05
11 *653:A1 *414:10 4.0752e-05
12 *955:A *414:10 0.00011818
13 *159:32 *414:10 4.0752e-05
14 *360:38 *414:10 0.000164815
*RES
1 *955:X *414:10 17.3753 
2 *414:10 *678:C 21.7421 
3 *414:10 *653:A0 9.24915 
*END

*D_NET *415 0.00357551
*CONN
*I *678:B I *D sky130_fd_sc_hd__nor4_1
*I *650:A0 I *D sky130_fd_sc_hd__mux2i_1
*I *956:X O *D sky130_fd_sc_hd__buf_4
*CAP
1 *678:B 0
2 *650:A0 0.00031084
3 *956:X 7.77458e-05
4 *415:8 0.000388586
5 *650:A0 *620:S 0.000193944
6 *650:A0 *653:S 6.7584e-05
7 *650:A0 *714:DE 0.000145035
8 *650:A0 *481:16 2.65667e-05
9 *415:8 *678:A 1.65872e-05
10 *671:A0 *650:A0 3.40423e-05
11 *678:C *650:A0 0.000145035
12 *678:D *415:8 0.000213478
13 *956:A *415:8 0.000107496
14 *159:32 *650:A0 0.00134972
15 *360:38 *650:A0 0.000433778
16 *414:10 *650:A0 6.50727e-05
*RES
1 *956:X *415:8 12.2151 
2 *415:8 *650:A0 37.1881 
3 *415:8 *678:B 9.24915 
*END

*D_NET *416 0.00177176
*CONN
*I *647:A0 I *D sky130_fd_sc_hd__mux2i_1
*I *678:A I *D sky130_fd_sc_hd__nor4_1
*I *957:X O *D sky130_fd_sc_hd__buf_4
*CAP
1 *647:A0 5.64685e-05
2 *678:A 0.000207786
3 *957:X 0.00017817
4 *416:10 0.000442424
5 *541:B *416:10 6.59098e-05
6 *540:A *647:A0 0.00011815
7 *540:A *678:A 4.19841e-05
8 *564:B *647:A0 1.03594e-05
9 *956:A *678:A 0.000107496
10 *22:27 *678:A 0.00022431
11 *160:18 *647:A0 3.98182e-05
12 *160:18 *678:A 0.000232325
13 *259:196 *416:10 2.99747e-05
14 *415:8 *678:A 1.65872e-05
*RES
1 *957:X *416:10 16.7151 
2 *416:10 *678:A 20.7358 
3 *416:10 *647:A0 15.9964 
*END

*D_NET *410 0.00105712
*CONN
*I *677:D I *D sky130_fd_sc_hd__nor4_1
*I *644:A0 I *D sky130_fd_sc_hd__mux2i_1
*I *951:X O *D sky130_fd_sc_hd__buf_4
*CAP
1 *677:D 7.6443e-05
2 *644:A0 0.000204382
3 *951:X 0.000280825
4 *677:D *677:C 0.000107496
5 *9:10 *677:D 1.65872e-05
6 *182:10 *644:A0 3.24699e-05
7 *259:253 *644:A0 0.000163478
8 *259:263 *644:A0 0.000175444
*RES
1 *951:X *644:A0 33.8981 
2 *951:X *677:D 20.3309 
*END

*D_NET *417 0.00413668
*CONN
*I *679:A I *D sky130_fd_sc_hd__nor4_1
*I *614:A0 I *D sky130_fd_sc_hd__mux2i_1
*I *958:X O *D sky130_fd_sc_hd__buf_4
*CAP
1 *679:A 0.000745521
2 *614:A0 0.000281031
3 *958:X 1.2055e-05
4 *417:8 0.00103861
5 *614:A0 *614:S 0.00016553
6 *614:A0 *910:A 4.37481e-05
7 *679:A *575:A 0.00027329
8 *679:A *910:A 0.000218079
9 *679:A *426:14 2.20702e-05
10 *417:8 *431:56 6.08467e-05
11 *574:A *679:A 0.000139959
12 *614:A1 *614:A0 0.000128389
13 *616:A2 *614:A0 3.14978e-05
14 *622:A1 *679:A 4.80635e-06
15 *679:B *679:A 0.000197436
16 *958:A *614:A0 1.32772e-05
17 *958:A *679:A 3.40412e-05
18 *978:A *679:A 3.81056e-05
19 *199:10 *417:8 6.50727e-05
20 *382:90 *614:A0 0.000623318
*RES
1 *958:X *417:8 14.4725 
2 *417:8 *614:A0 24.799 
3 *417:8 *679:A 33.7973 
*END

*D_NET *418 0.000787413
*CONN
*I *668:A0 I *D sky130_fd_sc_hd__mux2_4
*I *558:A I *D sky130_fd_sc_hd__nand2_1
*I *959:X O *D sky130_fd_sc_hd__buf_4
*CAP
1 *668:A0 0.000144535
2 *558:A 6.29333e-05
3 *959:X 0.000207469
4 *558:A *446:53 0.000212762
5 *668:A0 *446:53 4.47179e-05
6 *558:B *558:A 1.59756e-05
7 *959:A *558:A 9.9021e-05
*RES
1 *959:X *558:A 21.4642 
2 *959:X *668:A0 21.9947 
*END

*D_NET *419 0.00434356
*CONN
*I *667:A0 I *D sky130_fd_sc_hd__mux2_4
*I *555:A I *D sky130_fd_sc_hd__nand2_1
*I *731:A1 I *D sky130_fd_sc_hd__o211ai_1
*I *960:X O *D sky130_fd_sc_hd__buf_4
*CAP
1 *667:A0 0.000104516
2 *555:A 0
3 *731:A1 0.000717568
4 *960:X 0
5 *419:14 0.00112705
6 *419:6 0.000514002
7 *667:A0 *725:DE 2.53202e-05
8 *667:A0 *450:119 4.30748e-05
9 *731:A1 *450:40 0
10 *731:A1 *457:16 5.04829e-06
11 *731:A1 *491:46 0.000130317
12 *419:14 *725:DE 0.000226123
13 *419:14 *450:40 0.000132801
14 *419:14 *450:119 5.46384e-06
15 *419:14 *466:18 0.000365048
16 *419:14 *476:10 5.56461e-05
17 *553:A *731:A1 5.03013e-06
18 *553:B *731:A1 3.61531e-05
19 *667:A1 *667:A0 0.00011815
20 *731:A2 *731:A1 0.000100515
21 *1020:A *419:14 6.36477e-05
22 *1:16 *731:A1 7.5034e-05
23 *262:10 *731:A1 4.94e-06
24 *266:14 *731:A1 0.000488107
*RES
1 *960:X *419:6 13.7491 
2 *419:6 *419:14 18.8515 
3 *419:14 *731:A1 42.1684 
4 *419:14 *555:A 9.24915 
5 *419:6 *667:A0 17.2421 
*END

*D_NET *140 0.00142461
*CONN
*I *648:A I *D sky130_fd_sc_hd__nand2_1
*I *865:X O *D sky130_fd_sc_hd__clkdlybuf4s50_1
*CAP
1 *648:A 0.000331593
2 *865:X 0.000331593
3 *648:A *580:B 0
4 *648:A *620:S 9.99069e-05
5 *648:A *648:B 6.50586e-05
6 *648:A *865:A 3.06627e-05
7 *648:A *1007:A 4.66598e-05
8 *648:A *382:107 5.04829e-06
9 *648:A *382:120 5.92342e-05
10 *648:A *382:124 5.04829e-06
11 *648:A *382:142 0.00012272
12 *648:A *382:153 9.40955e-06
13 *621:A *648:A 7.92757e-06
14 *652:A1 *648:A 0.000309743
15 *32:10 *648:A 0
*RES
1 *865:X *648:A 38.9064 
*END

*D_NET *420 0.00518754
*CONN
*I *731:C1 I *D sky130_fd_sc_hd__o211ai_1
*I *666:A0 I *D sky130_fd_sc_hd__mux2_4
*I *745:A I *D sky130_fd_sc_hd__nand2_1
*I *961:X O *D sky130_fd_sc_hd__buf_6
*CAP
1 *731:C1 0.000239404
2 *666:A0 0.000776614
3 *745:A 0
4 *961:X 0.000362608
5 *420:10 0.000899818
6 *666:A0 *635:S 0.000260577
7 *666:A0 *666:S 3.50249e-05
8 *666:A0 *442:14 0.000159436
9 *666:A0 *442:27 0.000516451
10 *731:C1 *450:8 0.000392262
11 *731:C1 *477:16 0.000157373
12 resp_msg[6] *666:A0 2.38172e-05
13 *590:B1 *731:C1 2.16355e-05
14 *590:B1 *420:10 1.34231e-05
15 *592:A2 *666:A0 0.000371537
16 *592:A2 *420:10 8.62625e-06
17 *592:B1 *666:A0 0.000383746
18 *592:B1 *420:10 0.000148144
19 *637:B1 *666:A0 0.000110458
20 *731:B1 *731:C1 7.21701e-05
21 *738:A2 *731:C1 0.00015403
22 *27:10 *420:10 6.48857e-05
23 *95:14 *666:A0 1.55033e-05
*RES
1 *961:X *420:10 17.6896 
2 *420:10 *745:A 13.7491 
3 *420:10 *666:A0 46.3918 
4 *961:X *731:C1 35.9051 
*END

*D_NET *422 0.00619298
*CONN
*I *508:B1 I *D sky130_fd_sc_hd__o211ai_1
*I *664:A0 I *D sky130_fd_sc_hd__mux2_4
*I *597:A I *D sky130_fd_sc_hd__nand2_1
*I *963:X O *D sky130_fd_sc_hd__buf_6
*CAP
1 *508:B1 0.000342032
2 *664:A0 0.00170126
3 *597:A 0
4 *963:X 2.06324e-05
5 *422:14 0.00193533
6 *422:6 0.000596734
7 *664:A0 *722:CLK 0.000201811
8 *664:A0 *449:20 0.000111135
9 *664:A0 *449:44 5.0317e-05
10 *664:A0 *503:20 1.80887e-05
11 *594:A *422:14 5.39608e-05
12 *594:B *664:A0 6.08467e-05
13 *597:B *664:A0 2.01188e-05
14 *598:A *664:A0 5.03285e-05
15 *598:B *664:A0 9.20862e-05
16 *628:A1 *664:A0 0.000670179
17 *664:A1 *664:A0 5.09485e-05
18 *680:D *508:B1 0
19 *680:D *422:14 0
20 *943:A *422:14 1.07248e-05
21 *963:A *422:14 7.34948e-06
22 *220:18 *508:B1 6.85021e-05
23 *220:18 *422:14 5.2472e-05
24 *220:31 *508:B1 3.25584e-05
25 *363:14 *508:B1 4.55535e-05
*RES
1 *963:X *422:6 9.82786 
2 *422:6 *422:14 13.6345 
3 *422:14 *597:A 9.24915 
4 *422:14 *664:A0 49.7827 
5 *422:6 *508:B1 24.5474 
*END

*D_NET *423 0.0060087
*CONN
*I *595:A I *D sky130_fd_sc_hd__nand2_1
*I *663:A0 I *D sky130_fd_sc_hd__mux2_4
*I *964:X O *D sky130_fd_sc_hd__buf_4
*CAP
1 *595:A 0.000649406
2 *663:A0 0.000821898
3 *964:X 0.000317856
4 *423:10 0.00178916
5 *595:A *588:A 3.75603e-05
6 *595:A *942:A 8.17193e-05
7 *595:A *465:24 0.000260325
8 *663:A0 *663:S 5.96856e-05
9 *663:A0 *942:A 0.000248512
10 *519:B1 *595:A 6.81171e-05
11 *520:B *595:A 0.000161172
12 *521:A *663:A0 0.000267394
13 *585:B *423:10 0.000315172
14 *589:C *423:10 1.75625e-05
15 *593:A1 *595:A 5.97908e-05
16 *595:B *595:A 6.08467e-05
17 *505:A *595:A 3.5534e-06
18 *663:A1 *663:A0 4.03096e-05
19 *721:D *663:A0 2.58616e-05
20 *905:A *595:A 3.8122e-05
21 *964:A *423:10 7.17344e-05
22 *1009:A *595:A 2.58757e-05
23 *107:16 *595:A 0
24 *166:8 *663:A0 0.00013121
25 *259:97 *423:10 0.000179286
26 *259:106 *423:10 0.000152146
27 *390:12 *423:10 0.000124422
*RES
1 *964:X *423:10 30.8777 
2 *423:10 *663:A0 28.4915 
3 *423:10 *595:A 31.2562 
*END

*D_NET *424 0.00616082
*CONN
*I *662:A0 I *D sky130_fd_sc_hd__mux2_4
*I *585:A I *D sky130_fd_sc_hd__nand2_1
*I *965:X O *D sky130_fd_sc_hd__buf_4
*CAP
1 *662:A0 0.000403458
2 *585:A 0.0007243
3 *965:X 0.000447821
4 *424:18 0.00157558
5 *662:A0 *447:44 9.4115e-05
6 *662:A0 *479:44 0
7 *424:18 *447:44 2.09401e-05
8 *424:18 *479:33 0.000400045
9 resp_msg[4] *424:18 0.000159038
10 *584:C *662:A0 1.04747e-05
11 *584:C *424:18 0.000212883
12 *623:A0 *585:A 2.02035e-05
13 *629:A0 *662:A0 1.65872e-05
14 *660:A1 *424:18 0.00027103
15 *892:A *585:A 2.02035e-05
16 *940:A *424:18 3.20407e-05
17 *1045:A *424:18 5.5413e-05
18 *57:12 *662:A0 0.00075724
19 *146:14 *662:A0 6.27718e-05
20 *194:14 *424:18 0.000120546
21 *213:10 *424:18 6.23012e-05
22 *392:45 *662:A0 0.000693833
*RES
1 *965:X *424:18 38.4545 
2 *424:18 *585:A 22.292 
3 *424:18 *662:A0 31.6006 
*END

*D_NET *425 0.00422351
*CONN
*I *580:A I *D sky130_fd_sc_hd__xnor2_2
*I *661:A0 I *D sky130_fd_sc_hd__mux2_4
*I *582:A I *D sky130_fd_sc_hd__nand2_4
*I *966:X O *D sky130_fd_sc_hd__buf_4
*CAP
1 *580:A 0.000352441
2 *661:A0 0.000599248
3 *582:A 0
4 *966:X 0.000273372
5 *425:21 0.00101354
6 *425:12 0.000335222
7 *580:A *582:B 0.000127689
8 *661:A0 *582:B 1.00901e-05
9 *661:A0 *661:S 2.6281e-05
10 *425:12 *581:C 6.24204e-05
11 *425:12 *703:CLK 9.34396e-06
12 *425:12 *431:23 7.65307e-05
13 *425:21 *582:B 0.000245035
14 *580:B *580:A 0.000169556
15 *581:A *425:12 0
16 *622:A1 *425:12 0
17 *661:A1 *661:A0 0.000175748
18 *855:A *425:12 1.41291e-05
19 *966:A *425:12 0.000122378
20 *1002:A *425:12 7.48797e-05
21 *209:10 *661:A0 0.000355801
22 *209:10 *425:21 0.000160383
23 *377:20 *580:A 5.04423e-06
24 *388:28 *580:A 1.43832e-05
*RES
1 *966:X *425:12 26.4815 
2 *425:12 *582:A 9.24915 
3 *425:12 *425:21 3.37585 
4 *425:21 *661:A0 23.3071 
5 *425:21 *580:A 18.171 
*END

*D_NET *426 0.00695338
*CONN
*I *524:A I *D sky130_fd_sc_hd__nand3_2
*I *573:A I *D sky130_fd_sc_hd__nor2_1
*I *660:A0 I *D sky130_fd_sc_hd__mux2_4
*I *577:A I *D sky130_fd_sc_hd__nand2_1
*I *967:X O *D sky130_fd_sc_hd__buf_4
*CAP
1 *524:A 0.000412501
2 *573:A 0
3 *660:A0 0.000502139
4 *577:A 1.33492e-05
5 *967:X 0.000306913
6 *426:54 0.000442695
7 *426:31 0.000886832
8 *426:14 0.000674761
9 *524:A *493:16 1.5714e-05
10 *660:A0 *526:A 5.79254e-05
11 *660:A0 *660:S 2.93442e-05
12 *426:14 *910:A 3.31745e-05
13 *426:31 *526:A 1.07403e-05
14 *426:31 *661:S 0.000104865
15 *522:A *660:A0 0.00037115
16 *524:C *524:A 6.08467e-05
17 *525:B *660:A0 0.0012362
18 *574:A *426:14 0.000171288
19 *578:A *426:31 4.74837e-05
20 *660:A1 *660:A0 4.24529e-05
21 *679:A *426:14 2.20702e-05
22 *679:B *426:31 0.000114271
23 *718:D *660:A0 0.00016553
24 *913:A *426:14 0
25 *931:A *524:A 1.95603e-05
26 *931:A *426:31 5.53729e-05
27 *952:A *577:A 1.02267e-05
28 *952:A *426:14 9.0845e-05
29 *952:A *426:31 3.61024e-05
30 *967:A *426:14 0
31 *1046:A *660:A0 9.60216e-05
32 *194:14 *660:A0 0.000118166
33 *196:12 *426:31 0.000163805
34 *200:12 *426:14 0.00016195
35 *200:12 *426:31 9.626e-05
36 *204:28 *426:31 0.000351818
37 *372:10 *524:A 7.12632e-06
38 *372:10 *660:A0 6.06269e-06
39 *372:10 *426:31 1.78168e-05
*RES
1 *967:X *426:14 26.9346 
2 *426:14 *577:A 9.82786 
3 *426:14 *426:31 19.2962 
4 *426:31 *660:A0 35.8469 
5 *426:31 *426:54 0.732798 
6 *426:54 *573:A 13.7491 
7 *426:54 *524:A 22.5527 
*END

*D_NET *427 0.00276983
*CONN
*I *611:A0 I *D sky130_fd_sc_hd__mux2_4
*I *531:A1 I *D sky130_fd_sc_hd__a221oi_2
*I *968:X O *D sky130_fd_sc_hd__buf_4
*CAP
1 *611:A0 0.000173053
2 *531:A1 0.000248822
3 *968:X 9.80353e-05
4 *427:8 0.000519911
5 *611:A0 *717:DE 0.000164842
6 *611:A0 *478:28 7.06708e-05
7 *427:8 *478:28 8.6833e-05
8 *551:B *531:A1 0.0001283
9 *689:A0 *611:A0 0.00031631
10 *689:A0 *427:8 0.000237749
11 *717:D *611:A0 0.000107496
12 *953:A *531:A1 0.000427528
13 *2:14 *427:8 3.31733e-05
14 *36:10 *531:A1 0.000157107
*RES
1 *968:X *427:8 18.0727 
2 *427:8 *531:A1 30.1889 
3 *427:8 *611:A0 21.0117 
*END

*D_NET *428 0.00637049
*CONN
*I *565:A I *D sky130_fd_sc_hd__nand2_1
*I *670:A0 I *D sky130_fd_sc_hd__mux2_4
*I *969:X O *D sky130_fd_sc_hd__buf_4
*CAP
1 *565:A 0.000300307
2 *670:A0 0.000935744
3 *969:X 0.000313617
4 *428:8 0.00154967
5 *670:A0 *714:DE 1.69593e-05
6 *670:A0 *448:64 0.000213568
7 *566:B *670:A0 0.000163492
8 *604:C1 *428:8 9.45605e-05
9 *655:A2 *670:A0 0.000127528
10 *670:S *670:A0 0.000169041
11 *678:C *670:A0 0.000191143
12 *714:D *670:A0 0.000191541
13 *754:B *565:A 0
14 *762:A *565:A 6.11872e-05
15 *762:B *565:A 1.03403e-05
16 *931:A *670:A0 5.65869e-05
17 *969:A *565:A 3.32047e-06
18 *969:A *670:A0 0.000113374
19 *969:A *428:8 0.000153288
20 *1018:A *428:8 2.08293e-05
21 *23:12 *565:A 3.28433e-06
22 *23:12 *670:A0 0.000174175
23 *99:16 *670:A0 0.000417577
24 *159:20 *670:A0 0.000255876
25 *159:20 *428:8 0.000195574
26 *184:27 *428:8 0.000217641
27 *184:40 *428:8 8.36586e-06
28 *283:27 *565:A 3.01797e-05
29 *284:16 *428:8 0.000101782
30 *382:124 *670:A0 0.000279936
*RES
1 *969:X *428:8 24.7167 
2 *428:8 *670:A0 46.854 
3 *428:8 *565:A 27.9382 
*END

*D_NET *141 0.000546456
*CONN
*I *651:A I *D sky130_fd_sc_hd__nand2_1
*I *866:X O *D sky130_fd_sc_hd__clkdlybuf4s50_1
*CAP
1 *651:A 0.000244187
2 *866:X 0.000244187
3 *651:A *699:DE 2.65831e-05
4 *652:B1 *651:A 3.14978e-05
*RES
1 *866:X *651:A 24.2372 
*END

*D_NET *429 0.00456505
*CONN
*I *669:A0 I *D sky130_fd_sc_hd__mux2_4
*I *562:A I *D sky130_fd_sc_hd__nand2_1
*I *970:X O *D sky130_fd_sc_hd__buf_4
*CAP
1 *669:A0 0.000144798
2 *562:A 0.0012031
3 *970:X 0
4 *429:4 0.00134789
5 *562:A *644:S 2.01179e-05
6 *562:A *478:18 0.000405199
7 *669:A0 *641:S 0.000109427
8 *669:A0 *442:82 0.000180318
9 *669:A0 *450:72 1.80448e-05
10 *561:A *562:A 1.65872e-05
11 *677:A *669:A0 0.000134976
12 *732:B *562:A 0
13 *737:B *562:A 2.41307e-05
14 *742:B1 *562:A 7.82724e-06
15 *747:A2 *562:A 4.49182e-05
16 *938:A *562:A 0.000154145
17 *938:A *669:A0 4.85806e-05
18 *24:14 *562:A 0.000107496
19 *24:14 *669:A0 6.08467e-05
20 *174:10 *562:A 9.31143e-05
21 *180:14 *562:A 2.33554e-05
22 *218:24 *562:A 0.000420177
*RES
1 *970:X *429:4 9.24915 
2 *429:4 *562:A 35.3931 
3 *429:4 *669:A0 23.7435 
*END

*D_NET *445 0.00508798
*CONN
*I *687:B2 I *D sky130_fd_sc_hd__a22oi_2
*I *613:B I *D sky130_fd_sc_hd__nand2b_1
*I *609:A I *D sky130_fd_sc_hd__clkinv_1
*I *986:X O *D sky130_fd_sc_hd__buf_4
*CAP
1 *687:B2 0
2 *613:B 0.000464351
3 *609:A 0
4 *986:X 0.000574803
5 *445:31 0.000673122
6 *445:18 0.000783574
7 *445:18 *632:S 0.000134648
8 *445:18 *447:6 4.99469e-05
9 *445:18 *447:10 0.000228779
10 *445:31 *446:23 0.000262438
11 *445:31 *491:10 0.00026666
12 *632:A0 *445:18 9.82896e-06
13 *684:B2 *445:18 0
14 *684:B2 *445:31 0
15 *687:A1 *613:B 6.27782e-05
16 *687:B1 *613:B 8.36586e-06
17 *707:DE *445:18 0.000477015
18 *28:10 *445:18 0
19 *392:12 *445:18 0.000830589
20 *392:12 *445:31 0.000133066
21 *392:31 *445:18 6.08697e-06
22 *439:29 *613:B 0.000121931
*RES
1 *986:X *445:18 39.9219 
2 *445:18 *609:A 13.7491 
3 *445:18 *445:31 13.9865 
4 *445:31 *613:B 29.3144 
5 *445:31 *687:B2 9.24915 
*END

*D_NET *446 0.0142345
*CONN
*I *1033:A I *D sky130_fd_sc_hd__buf_6
*I *901:A I *D sky130_fd_sc_hd__buf_8
*I *939:A I *D sky130_fd_sc_hd__buf_6
*I *613:A_N I *D sky130_fd_sc_hd__nand2b_1
*I *1031:A I *D sky130_fd_sc_hd__buf_6
*I *610:B1_N I *D sky130_fd_sc_hd__o21bai_4
*I *987:X O *D sky130_fd_sc_hd__buf_12
*CAP
1 *1033:A 0.000206802
2 *901:A 0
3 *939:A 0.00043471
4 *613:A_N 0.000113593
5 *1031:A 3.52092e-05
6 *610:B1_N 0.000383577
7 *987:X 0
8 *446:55 0.000690912
9 *446:53 0.00172062
10 *446:49 0.00210279
11 *446:34 0.00102471
12 *446:23 0.000481966
13 *446:4 0.000764385
14 *610:B1_N *682:B 0.000141372
15 *610:B1_N *449:14 2.19133e-05
16 *610:B1_N *491:10 2.23108e-05
17 *939:A *641:S 7.67734e-06
18 *939:A *717:DE 0.000183455
19 *939:A *466:52 0.000150629
20 *1031:A *687:A2 2.91008e-06
21 *446:23 *687:A2 7.11648e-05
22 *446:23 *491:10 6.22026e-05
23 *446:34 *687:A2 1.02229e-05
24 *446:49 *687:A2 1.55033e-05
25 *446:49 *491:10 1.28096e-05
26 *446:53 *607:B 0.000117937
27 *446:53 *491:18 0.000356429
28 *446:55 *466:52 4.84944e-05
29 *557:B *446:53 0.000109809
30 *558:A *446:53 0.000212762
31 *558:B *446:53 6.3657e-05
32 *610:A2 *610:B1_N 2.19276e-05
33 *632:A1 *610:B1_N 0.000148129
34 *634:A2 *610:B1_N 7.16754e-05
35 *635:A1 *446:49 1.3808e-05
36 *635:A1 *446:53 1.50924e-05
37 *637:A2 *446:49 0.000205681
38 *668:A0 *446:53 4.47179e-05
39 *669:A1 *939:A 2.58616e-05
40 *669:S *939:A 9.50523e-05
41 *683:A1 *610:B1_N 0.000161861
42 *688:B *610:B1_N 3.54435e-05
43 *688:B *446:23 0.000650997
44 *712:D *939:A 0
45 *607:A *446:53 1.19705e-05
46 *877:A *939:A 0
47 *877:A *446:55 0
48 *959:A *446:53 2.32625e-05
49 *983:A *446:49 0.000108083
50 *1016:A *610:B1_N 6.71192e-05
51 *42:8 *613:A_N 2.83365e-05
52 *109:20 *610:B1_N 0.000395406
53 *170:10 *446:53 0.000811781
54 *360:8 *939:A 0
55 *392:12 *610:B1_N 2.53624e-06
56 *398:8 *939:A 3.71556e-05
57 *403:52 *446:53 0.00109331
58 *442:6 *446:49 4.21956e-05
59 *442:82 *1033:A 0.00012917
60 *442:82 *446:55 0.000160972
61 *445:31 *446:23 0.000262438
*RES
1 *987:X *446:4 9.24915 
2 *446:4 *610:B1_N 32.606 
3 *446:4 *446:23 14.058 
4 *446:23 *1031:A 10.2378 
5 *446:23 *446:34 1.30211 
6 *446:34 *613:A_N 20.9116 
7 *446:34 *446:49 13.5034 
8 *446:49 *446:53 44.6003 
9 *446:53 *446:55 7.64553 
10 *446:55 *939:A 25.8825 
11 *446:55 *901:A 13.7491 
12 *446:53 *1033:A 19.7337 
*END

*D_NET *447 0.0169339
*CONN
*I *662:S I *D sky130_fd_sc_hd__mux2_4
*I *663:S I *D sky130_fd_sc_hd__mux2_4
*I *660:S I *D sky130_fd_sc_hd__mux2_4
*I *661:S I *D sky130_fd_sc_hd__mux2_4
*I *659:S I *D sky130_fd_sc_hd__mux2_4
*I *665:S I *D sky130_fd_sc_hd__mux2_4
*I *664:S I *D sky130_fd_sc_hd__mux2_4
*I *988:X O *D sky130_fd_sc_hd__buf_8
*CAP
1 *662:S 2.7855e-05
2 *663:S 0.000241397
3 *660:S 0.000132902
4 *661:S 0.000749558
5 *659:S 0.000618868
6 *665:S 0.000473562
7 *664:S 7.35388e-05
8 *988:X 4.36971e-05
9 *447:52 0.00178768
10 *447:44 0.00132285
11 *447:38 0.00120772
12 *447:36 0.00086952
13 *447:10 0.000824905
14 *447:6 0.000967538
15 *659:S *614:S 0
16 *663:S *942:A 6.08467e-05
17 *664:S *449:18 1.19705e-05
18 *664:S *449:44 0.000151741
19 *664:S *492:20 3.31733e-05
20 *665:S *665:A0 0.000177851
21 *665:S *693:CLK 2.95784e-06
22 *665:S *449:44 0.000158338
23 *665:S *449:57 2.2195e-05
24 *665:S *492:20 0.000525231
25 *447:10 *492:20 0.000519467
26 *447:36 *503:20 0
27 *447:52 *614:S 0.000389288
28 *522:B *447:52 0
29 *527:B *447:44 0
30 *527:B *447:52 0
31 *571:B1 *661:S 0.000111352
32 *572:C *659:S 0.000191359
33 *572:C *661:S 0.000606237
34 *584:B *447:44 0
35 *612:A *665:S 0.000183381
36 *617:A0 *447:52 7.06708e-05
37 *628:A1 *447:36 1.50262e-05
38 *628:A2 *447:36 0
39 *629:A0 *662:S 6.08467e-05
40 *634:A2 *447:36 0
41 *634:B1 *664:S 6.50727e-05
42 *659:A1 *659:S 5.82465e-05
43 *660:A0 *660:S 2.93442e-05
44 *660:A1 *660:S 1.64789e-05
45 *661:A0 *661:S 2.6281e-05
46 *661:A1 *661:S 6.51546e-05
47 *662:A0 *447:44 9.4115e-05
48 *663:A0 *663:S 5.96856e-05
49 *663:A1 *663:S 1.63255e-05
50 *664:A1 *664:S 1.50924e-05
51 *679:B *661:S 1.00766e-05
52 *707:D *664:S 2.82537e-05
53 *707:DE *665:S 4.09467e-05
54 *707:DE *447:10 6.578e-05
55 *711:D *659:S 0
56 *718:D *447:52 0.000144531
57 *719:DE *659:S 0
58 *720:D *447:38 0
59 *720:D *447:44 0
60 *721:D *663:S 6.08467e-05
61 *940:A *447:44 0.000146683
62 *940:A *447:52 0.000435649
63 *952:A *661:S 0.000503244
64 *986:A *447:10 6.92705e-05
65 *16:10 *447:44 0
66 *41:16 *665:S 0.000163478
67 *94:18 *664:S 1.31499e-05
68 *149:12 *665:S 0
69 *213:10 *447:44 2.48716e-05
70 *392:31 *447:36 0.000840051
71 *392:45 *447:36 0.000236279
72 *392:45 *447:38 0.000312746
73 *392:45 *447:44 0.000354203
74 *424:18 *447:44 2.09401e-05
75 *426:31 *661:S 0.000104865
76 *436:41 *659:S 0
77 *445:18 *447:6 4.99469e-05
78 *445:18 *447:10 0.000228779
*RES
1 *988:X *447:6 10.5271 
2 *447:6 *447:10 14.6517 
3 *447:10 *664:S 17.135 
4 *447:10 *665:S 32.0841 
5 *447:6 *447:36 24.1878 
6 *447:36 *447:38 5.98452 
7 *447:38 *447:44 20.5916 
8 *447:44 *447:52 19.2781 
9 *447:52 *659:S 31.8434 
10 *447:52 *661:S 30.4205 
11 *447:44 *660:S 16.4257 
12 *447:38 *663:S 19.3434 
13 *447:36 *662:S 14.4725 
*END

*D_NET *432 0.001816
*CONN
*I *686:A I *D sky130_fd_sc_hd__nor2b_2
*I *688:A I *D sky130_fd_sc_hd__nor2_1
*I *973:X O *D sky130_fd_sc_hd__buf_4
*CAP
1 *686:A 0
2 *688:A 0.000159633
3 *973:X 0.000375539
4 *432:16 0.000535172
5 *688:A *485:12 1.75816e-05
6 *686:B_N *432:16 0.000270569
7 *688:B *688:A 5.03545e-06
8 *693:D *688:A 0.000110458
9 *693:D *432:16 4.85806e-05
10 *973:A *432:16 3.10541e-05
11 *4:10 *688:A 0.000110458
12 *4:10 *432:16 0.00015192
*RES
1 *973:X *432:16 17.5923 
2 *432:16 *688:A 22.6049 
3 *432:16 *686:A 9.24915 
*END

*D_NET *433 0.000432725
*CONN
*I *687:A1 I *D sky130_fd_sc_hd__a22oi_2
*I *974:X O *D sky130_fd_sc_hd__buf_4
*CAP
1 *687:A1 0.000172036
2 *974:X 0.000172036
3 *687:A1 *613:B 6.27782e-05
4 *687:A1 *439:29 2.58757e-05
*RES
1 *974:X *687:A1 31.7147 
*END

*D_NET *452 0.00214861
*CONN
*I *620:A0 I *D sky130_fd_sc_hd__mux2i_1
*I *950:A I *D sky130_fd_sc_hd__buf_4
*I *996:X O *D sky130_fd_sc_hd__buf_4
*CAP
1 *620:A0 0
2 *950:A 0.000273529
3 *996:X 0.000243116
4 *452:10 0.000516646
5 *452:10 *581:C 6.92705e-05
6 *452:10 *620:S 0.000146772
7 *452:10 *458:10 0.000106215
8 *526:B *950:A 0.00016386
9 *622:A1 *452:10 0.000244252
10 *679:C *950:A 5.27363e-05
11 *719:D *950:A 6.00998e-05
12 *164:12 *950:A 0.000246254
13 *208:12 *950:A 2.58616e-05
*RES
1 *996:X *452:10 18.4845 
2 *452:10 *950:A 28.006 
3 *452:10 *620:A0 9.24915 
*END

*D_NET *142 0.00160501
*CONN
*I *654:A I *D sky130_fd_sc_hd__nand2_1
*I *867:X O *D sky130_fd_sc_hd__clkdlybuf4s50_1
*CAP
1 *654:A 0.000225346
2 *867:X 0.000225346
3 *654:A *654:B 4.80635e-06
4 *654:A *867:A 0.00011818
5 *654:A *886:A 6.92705e-05
6 *654:A *448:77 0.000962066
*RES
1 *867:X *654:A 29.2287 
*END

*D_NET *454 0.00557299
*CONN
*I *947:A I *D sky130_fd_sc_hd__buf_4
*I *998:X O *D sky130_fd_sc_hd__buf_4
*CAP
1 *947:A 0.000356064
2 *998:X 0.0013645
3 *454:18 0.00172057
4 *598:A *454:18 0.000309964
5 *628:A2 *947:A 0.000206557
6 *629:A0 *947:A 2.81262e-05
7 *680:C *947:A 0.000112367
8 *720:D *947:A 6.36477e-05
9 *723:DE *454:18 2.18417e-06
10 *14:12 *947:A 0.000143467
11 *56:16 *947:A 0.000155201
12 *94:18 *454:18 5.49029e-06
13 *109:20 *947:A 4.4372e-05
14 *109:20 *454:18 0
15 *220:18 *947:A 4.451e-05
16 *259:126 *947:A 0.00064682
17 *259:126 *454:18 4.76794e-05
18 *436:14 *454:18 0.000321469
*RES
1 *998:X *454:18 44.6245 
2 *454:18 *947:A 29.3195 
*END

*D_NET *458 0.00209049
*CONN
*I *996:A I *D sky130_fd_sc_hd__buf_4
*I *581:C I *D sky130_fd_sc_hd__xor3_1
*I *1002:X O *D sky130_fd_sc_hd__buf_4
*CAP
1 *996:A 0
2 *581:C 0.000411801
3 *1002:X 0.000150178
4 *458:10 0.000561979
5 *581:C *620:S 6.50727e-05
6 *458:10 *620:S 0.000327169
7 *581:A *581:C 0
8 *209:10 *581:C 0.000182926
9 *259:30 *581:C 0.000153463
10 *425:12 *581:C 6.24204e-05
11 *431:23 *581:C 0
12 *452:10 *581:C 6.92705e-05
13 *452:10 *458:10 0.000106215
*RES
1 *1002:X *458:10 14.6023 
2 *458:10 *581:C 29.8386 
3 *458:10 *996:A 9.24915 
*END

*D_NET *459 0.00117946
*CONN
*I *977:A I *D sky130_fd_sc_hd__buf_12
*I *976:A I *D sky130_fd_sc_hd__buf_12
*I *1003:X O *D sky130_fd_sc_hd__buf_12
*CAP
1 *977:A 0.000137792
2 *976:A 4.90036e-05
3 *1003:X 0.000164762
4 *459:12 0.000351558
5 *680:D *977:A 9.20812e-05
6 *680:D *459:12 0
7 *363:14 *976:A 6.73186e-05
8 *363:14 *977:A 0
9 *363:14 *459:12 0.00019803
10 *449:14 *976:A 3.64169e-05
11 *449:14 *459:12 8.25006e-05
*RES
1 *1003:X *459:12 24.4081 
2 *459:12 *976:A 11.0817 
3 *459:12 *977:A 22.1574 
*END

*D_NET *143 0.00177062
*CONN
*I *661:A1 I *D sky130_fd_sc_hd__mux2_4
*I *868:X O *D sky130_fd_sc_hd__clkdlybuf4s50_1
*CAP
1 *661:A1 0.000694077
2 *868:X 0.000694077
3 *661:A1 *661:A0 0.000175748
4 *661:A1 *661:S 6.51546e-05
5 *661:A1 *679:C 4.3714e-05
6 *661:A1 *679:D 4.04182e-05
7 *661:A1 *890:A 0
8 *661:A1 *372:10 0
9 *719:D *661:A1 4.89453e-05
10 *107:12 *661:A1 8.48283e-06
*RES
1 *868:X *661:A1 44.8981 
*END

*D_NET *466 0.0151702
*CONN
*I *712:DE I *D sky130_fd_sc_hd__edfxtp_1
*I *717:DE I *D sky130_fd_sc_hd__edfxtp_1
*I *726:DE I *D sky130_fd_sc_hd__edfxtp_1
*I *725:DE I *D sky130_fd_sc_hd__edfxtp_1
*I *1010:X O *D sky130_fd_sc_hd__buf_12
*CAP
1 *712:DE 4.03793e-05
2 *717:DE 0.000787133
3 *726:DE 0.000271252
4 *725:DE 0.000692895
5 *1010:X 0.00113537
6 *466:52 0.00108948
7 *466:33 0.0009789
8 *466:18 0.0017325
9 *466:16 0.0017293
10 *717:DE *641:S 2.802e-05
11 *717:DE *478:28 0.000580996
12 *466:18 *476:10 1.00846e-05
13 *554:A *466:33 0.00017052
14 *554:B *466:33 0.000107496
15 *554:C *725:DE 0
16 *592:A2 *466:18 2.16355e-05
17 *611:A0 *717:DE 0.000164842
18 *643:A2 *726:DE 0
19 *667:A0 *725:DE 2.53202e-05
20 *667:A1 *725:DE 0.00011815
21 *669:A1 *717:DE 0.000111489
22 *689:A0 *717:DE 9.085e-06
23 *712:D *712:DE 8.11133e-05
24 *717:D *717:DE 8.08533e-05
25 *725:D *725:DE 3.44641e-05
26 *726:D *726:DE 6.7319e-05
27 *740:A *466:16 2.44451e-05
28 *740:A *466:18 0.000967842
29 *876:A *725:DE 0
30 *894:A *466:16 8.68133e-05
31 *897:A *726:DE 4.7903e-06
32 *897:A *466:33 0.000179185
33 *897:A *466:52 5.69234e-05
34 *908:A *466:16 5.05252e-05
35 *939:A *717:DE 0.000183455
36 *939:A *466:52 0.000150629
37 *10:8 *726:DE 1.88695e-05
38 *24:14 *717:DE 0.000258599
39 *26:14 *725:DE 0
40 *174:10 *726:DE 1.87825e-05
41 *223:12 *466:18 4.53737e-05
42 *225:6 *466:18 4.87301e-05
43 *225:38 *466:18 2.16355e-05
44 *264:10 *466:18 1.29665e-05
45 *265:8 *466:18 0.000610559
46 *265:8 *466:33 0.000171288
47 *367:14 *466:16 0.000768296
48 *382:10 *466:16 0.00014005
49 *419:14 *725:DE 0.000226123
50 *419:14 *466:18 0.000365048
51 *442:82 *717:DE 0.000294599
52 *442:82 *466:52 0.000192027
53 *442:84 *717:DE 0
54 *446:55 *466:52 4.84944e-05
55 *450:56 *726:DE 2.16355e-05
56 *450:68 *726:DE 0.000133878
57 *450:119 *725:DE 0
*RES
1 *1010:X *466:16 41.9114 
2 *466:16 *466:18 21.2437 
3 *466:18 *725:DE 35.4341 
4 *466:18 *466:33 12.3701 
5 *466:33 *726:DE 24.9613 
6 *466:33 *466:52 12.044 
7 *466:52 *717:DE 40.0067 
8 *466:52 *712:DE 14.7076 
*END

*D_NET *468 0.00277609
*CONN
*I *647:A1 I *D sky130_fd_sc_hd__mux2i_1
*I *1012:X O *D sky130_fd_sc_hd__buf_4
*CAP
1 *647:A1 0.000693958
2 *1012:X 0.000693958
3 *647:A1 *539:A 8.29799e-05
4 *647:A1 *884:A 0.000113811
5 *647:A1 *491:52 8.23171e-06
6 *533:B1 *647:A1 2.29414e-05
7 *540:A *647:A1 0.000174205
8 *564:B *647:A1 0.000156823
9 *1012:A *647:A1 4.27003e-05
10 *1018:A *647:A1 3.07317e-05
11 *76:22 *647:A1 6.50586e-05
12 *159:20 *647:A1 0
13 *160:18 *647:A1 5.30055e-05
14 *185:10 *647:A1 0.000133922
15 *249:18 *647:A1 5.20546e-06
16 *282:10 *647:A1 0
17 *284:16 *647:A1 0.000347419
18 *343:27 *647:A1 0.000151142
*RES
1 *1012:X *647:A1 48.9357 
*END

*D_NET *469 0.000843525
*CONN
*I *644:A1 I *D sky130_fd_sc_hd__mux2i_1
*I *1013:X O *D sky130_fd_sc_hd__buf_4
*CAP
1 *644:A1 0.000137733
2 *1013:X 0.000137733
3 *644:A1 *478:18 0
4 *534:A2 *644:A1 0.000222438
5 *1026:A *644:A1 0.00021569
6 *259:253 *644:A1 0.000129931
*RES
1 *1013:X *644:A1 32.548 
*END

*D_NET *471 0.0023893
*CONN
*I *638:S I *D sky130_fd_sc_hd__mux2i_1
*I *635:S I *D sky130_fd_sc_hd__mux2i_1
*I *1015:X O *D sky130_fd_sc_hd__buf_6
*CAP
1 *638:S 0.000479582
2 *635:S 0.000351909
3 *1015:X 3.6352e-05
4 *471:6 0.000867843
5 *638:A1 *638:S 6.08467e-05
6 *640:A2 *638:S 0.000210531
7 *666:A0 *635:S 0.000260577
8 *403:18 *638:S 5.57875e-05
9 *439:12 *638:S 7.28567e-06
10 *442:27 *635:S 2.60765e-05
11 *442:27 *638:S 3.25052e-05
*RES
1 *1015:X *471:6 10.2378 
2 *471:6 *635:S 24.5474 
3 *471:6 *638:S 17.6164 
*END

*D_NET *144 0.000692183
*CONN
*I *657:A I *D sky130_fd_sc_hd__nand2_1
*I *869:X O *D sky130_fd_sc_hd__clkdlybuf4s50_1
*CAP
1 *657:A 0.000335274
2 *869:X 0.000335274
3 *657:A *258:23 2.16355e-05
*RES
1 *869:X *657:A 25.901 
*END

*D_NET *472 0.000995998
*CONN
*I *632:S I *D sky130_fd_sc_hd__mux2i_1
*I *1016:X O *D sky130_fd_sc_hd__buf_4
*CAP
1 *632:S 0.000201956
2 *1016:X 0.000201956
3 *610:A1 *632:S 2.36494e-05
4 *632:A0 *632:S 1.54891e-05
5 *684:B2 *632:S 8.62321e-06
6 *687:B1 *632:S 0.000253916
7 *946:A *632:S 1.02368e-05
8 *1016:A *632:S 0.000113968
9 *382:10 *632:S 2.37827e-05
10 *392:12 *632:S 7.77309e-06
11 *445:18 *632:S 0.000134648
*RES
1 *1016:X *632:S 34.4047 
*END

*D_NET *474 0.00219361
*CONN
*I *884:A I *D sky130_fd_sc_hd__buf_6
*I *1018:X O *D sky130_fd_sc_hd__buf_4
*CAP
1 *884:A 0.000512939
2 *1018:X 0.000512939
3 *884:A *539:A 0.000515533
4 *605:A2 *884:A 7.56233e-05
5 *647:A1 *884:A 0.000113811
6 *761:C1 *884:A 3.34614e-05
7 *1018:A *884:A 6.46815e-05
8 *184:14 *884:A 0.000112361
9 *253:18 *884:A 7.12632e-06
10 *258:25 *884:A 0.000200794
11 *259:243 *884:A 1.5714e-05
12 *284:16 *884:A 1.85534e-05
13 *343:27 *884:A 1.00766e-05
*RES
1 *1018:X *884:A 41.6258 
*END

*D_NET *145 0.00119282
*CONN
*I *690:A I *D sky130_fd_sc_hd__nand2_1
*I *870:X O *D sky130_fd_sc_hd__clkdlybuf4s50_1
*CAP
1 *690:A 0.000521713
2 *870:X 0.000521713
3 *690:A *656:S 0.000146652
4 *2:14 *690:A 2.73799e-06
*RES
1 *870:X *690:A 36.4302 
*END

*D_NET *146 0.0028568
*CONN
*I *662:A1 I *D sky130_fd_sc_hd__mux2_4
*I *871:X O *D sky130_fd_sc_hd__clkdlybuf4s50_1
*CAP
1 *662:A1 0
2 *871:X 0.000759347
3 *146:14 0.000759347
4 *146:14 *623:A0 0.00025527
5 *146:14 *629:A0 0.000253345
6 *146:14 *629:S 1.5714e-05
7 *146:14 *662:A0 6.27718e-05
8 *146:14 *891:A 0.00015901
9 *146:14 *382:28 0.000122937
10 *146:14 *436:37 0
11 *146:14 *436:39 0
12 *146:14 *449:96 4.37588e-05
13 *146:14 *479:33 2.19091e-05
14 *146:14 *479:44 0.000353299
15 *625:A2 *146:14 5.00956e-05
*RES
1 *871:X *146:14 41.4684 
2 *146:14 *662:A1 9.24915 
*END

*D_NET *478 0.0131408
*CONN
*I *644:S I *D sky130_fd_sc_hd__mux2i_1
*I *641:S I *D sky130_fd_sc_hd__mux2i_1
*I *689:S I *D sky130_fd_sc_hd__mux2i_1
*I *656:S I *D sky130_fd_sc_hd__mux2i_1
*I *1022:X O *D sky130_fd_sc_hd__buf_4
*CAP
1 *644:S 3.58952e-05
2 *641:S 0.000346387
3 *689:S 0.00010065
4 *656:S 0.000534815
5 *1022:X 0.00123583
6 *478:28 0.00121742
7 *478:24 0.00135384
8 *478:18 0.00169722
9 *478:18 *480:24 0.000360667
10 *478:18 *491:46 1.05601e-05
11 resp_msg[15] *478:28 0
12 *534:A2 *478:18 1.82719e-05
13 *534:B1 *478:18 2.35073e-05
14 *562:A *644:S 2.01179e-05
15 *562:A *478:18 0.000405199
16 *605:B1 *656:S 2.7911e-05
17 *606:A2 *656:S 0.000364665
18 *606:B1 *656:S 7.70918e-05
19 *611:A0 *478:28 7.06708e-05
20 *611:A1 *478:28 0.000309454
21 *611:S *641:S 5.43299e-05
22 *611:S *478:28 0.000144796
23 *644:A1 *478:18 0
24 *669:A0 *641:S 0.000109427
25 *669:A1 *641:S 9.78898e-05
26 *669:S *641:S 6.27718e-05
27 *677:A *641:S 0.000156639
28 *690:A *656:S 0.000146652
29 *691:A2 *656:S 1.84293e-05
30 *691:B1 *656:S 0.000268831
31 *700:DE *656:S 4.0787e-05
32 *717:DE *641:S 2.802e-05
33 *717:DE *478:28 0.000580996
34 *732:B *478:18 4.31539e-05
35 *737:B *478:18 2.8655e-05
36 *742:B1 *478:18 0.000167154
37 *753:A1 *478:18 0
38 *753:A2 *478:18 6.4963e-05
39 *753:B1 *478:18 0.000122802
40 *766:A1 *478:18 5.60804e-05
41 *870:A *656:S 0
42 *887:A *656:S 0.00013309
43 *888:A *656:S 3.99086e-06
44 *888:A *689:S 1.92926e-05
45 *888:A *478:28 6.80864e-05
46 *922:A *478:18 1.5714e-05
47 *938:A *478:24 0.000441308
48 *939:A *641:S 7.67734e-06
49 *1022:A *478:18 6.08467e-05
50 *2:14 *656:S 3.34802e-05
51 *2:14 *478:28 0.00024873
52 *162:6 *656:S 6.11359e-06
53 *174:10 *478:18 2.25583e-07
54 *218:24 *478:18 0.000678767
55 *258:10 *656:S 3.31882e-05
56 *258:23 *656:S 0.000221678
57 *278:18 *656:S 0.000114584
58 *322:18 *478:18 0.000210067
59 *360:8 *656:S 0
60 *360:8 *478:28 0
61 *397:32 *478:18 0.00021505
62 *397:32 *478:24 2.49496e-05
63 *403:52 *641:S 2.11857e-05
64 *427:8 *478:28 8.6833e-05
65 *442:88 *656:S 3.3179e-05
66 *442:92 *656:S 6.01865e-05
*RES
1 *1022:X *478:18 29.3851 
2 *478:18 *478:24 15.824 
3 *478:24 *478:28 27.5099 
4 *478:28 *656:S 37.7553 
5 *478:28 *689:S 11.6364 
6 *478:24 *641:S 23.3722 
7 *478:18 *644:S 14.7506 
*END

*D_NET *479 0.0178756
*CONN
*I *614:S I *D sky130_fd_sc_hd__mux2i_1
*I *626:S I *D sky130_fd_sc_hd__mux2i_1
*I *629:S I *D sky130_fd_sc_hd__mux2i_1
*I *623:S I *D sky130_fd_sc_hd__mux2i_1
*I *617:S I *D sky130_fd_sc_hd__mux2i_1
*I *1023:X O *D sky130_fd_sc_hd__buf_8
*CAP
1 *614:S 0.000649049
2 *626:S 0.000820129
3 *629:S 0.000129063
4 *623:S 0
5 *617:S 0.000151336
6 *1023:X 0.00083291
7 *479:44 0.00141631
8 *479:33 0.00107668
9 *479:20 0.000996692
10 *479:16 0.00247717
11 *479:14 0.00242523
12 *518:A *479:16 7.08262e-05
13 *522:B *614:S 0
14 *523:C1 *479:14 0.000123458
15 *527:B *614:S 0
16 *571:A2 *479:16 8.74978e-05
17 *572:A *614:S 9.5485e-05
18 *576:B *614:S 0
19 *584:C *479:33 4.97549e-05
20 *584:C *479:44 3.67528e-06
21 *614:A0 *614:S 0.00016553
22 *614:A1 *614:S 0.000169728
23 *617:A0 *617:S 0.000161956
24 *625:A2 *479:33 8.42859e-05
25 *629:A0 *629:S 6.27782e-05
26 *659:S *614:S 0
27 *662:A0 *479:44 0
28 *680:C *626:S 1.66771e-05
29 *711:D *614:S 0
30 *721:D *479:44 7.94739e-05
31 *918:A *479:14 7.14746e-05
32 *940:A *617:S 0
33 *940:A *479:33 0
34 *958:A *614:S 0
35 *979:A *479:14 1.77537e-06
36 *1045:A *479:33 0
37 *35:12 *614:S 0.00019364
38 *57:12 *479:44 0.000151026
39 *146:14 *629:S 1.5714e-05
40 *146:14 *479:33 2.19091e-05
41 *146:14 *479:44 0.000353299
42 *163:10 *479:16 0.000959485
43 *163:10 *479:20 0.000336913
44 *167:22 *626:S 0.00148752
45 *167:22 *629:S 0.000194192
46 *194:14 *617:S 0
47 *194:14 *479:33 0
48 *196:40 *479:14 1.47102e-05
49 *196:40 *479:16 0.00086318
50 *300:10 *479:14 2.16355e-05
51 *301:10 *479:14 6.48675e-06
52 *382:28 *629:S 1.85244e-05
53 *388:28 *479:14 0.000188808
54 *424:18 *479:33 0.000400045
55 *434:81 *479:14 5.17424e-06
56 *436:39 *479:33 0
57 *447:52 *614:S 0.000389288
58 *449:96 *479:44 3.51414e-05
*RES
1 *1023:X *479:14 32.47 
2 *479:14 *479:16 26.7898 
3 *479:16 *479:20 8.55102 
4 *479:20 *617:S 17.4137 
5 *479:20 *479:33 16.3658 
6 *479:33 *623:S 13.7491 
7 *479:33 *479:44 19.1117 
8 *479:44 *629:S 18.4993 
9 *479:44 *626:S 19.6117 
10 *479:16 *614:S 38.1086 
*END

*D_NET *147 0.000731999
*CONN
*I *663:A1 I *D sky130_fd_sc_hd__mux2_4
*I *872:X O *D sky130_fd_sc_hd__clkdlybuf4s50_1
*CAP
1 *663:A1 0.000160174
2 *872:X 0.000160174
3 *663:A1 *663:A0 4.03096e-05
4 *663:A1 *663:S 1.63255e-05
5 *663:A1 *720:CLK 0.00014935
6 *663:A1 *872:A 0
7 *663:A1 *382:28 0.000205666
*RES
1 *872:X *663:A1 33.1267 
*END

*D_NET *481 0.0093997
*CONN
*I *647:S I *D sky130_fd_sc_hd__mux2i_1
*I *650:S I *D sky130_fd_sc_hd__mux2i_1
*I *620:S I *D sky130_fd_sc_hd__mux2i_1
*I *653:S I *D sky130_fd_sc_hd__mux2i_1
*I *1025:X O *D sky130_fd_sc_hd__buf_6
*CAP
1 *647:S 0.000409457
2 *650:S 0
3 *620:S 0.000573773
4 *653:S 0.0014084
5 *1025:X 0.000637977
6 *481:16 0.0022107
7 *647:S *491:52 0.000209636
8 *540:A *647:S 5.36567e-05
9 *542:A *647:S 5.13671e-05
10 *581:C *620:S 6.50727e-05
11 *648:A *620:S 9.99069e-05
12 *648:B *620:S 6.50586e-05
13 *649:B1 *620:S 0.000122378
14 *650:A0 *620:S 0.000193944
15 *650:A0 *653:S 6.7584e-05
16 *650:A0 *481:16 2.65667e-05
17 *652:A1 *620:S 0.000119394
18 *653:A1 *653:S 0.000160617
19 *671:A0 *653:S 0.000460994
20 *671:A1 *481:16 0
21 *714:D *653:S 1.65872e-05
22 *505:B *481:16 0.000352481
23 *1007:A *620:S 0.000114584
24 *7:10 *647:S 3.96026e-05
25 *22:27 *647:S 0.000149996
26 *99:16 *481:16 4.28607e-05
27 *207:10 *481:16 0.000702331
28 *307:8 *481:16 0.000284261
29 *360:38 *653:S 6.2854e-05
30 *414:10 *647:S 6.92705e-05
31 *414:10 *653:S 3.08682e-05
32 *448:14 *481:16 0.000123582
33 *452:10 *620:S 0.000146772
34 *458:10 *620:S 0.000327169
*RES
1 *1025:X *481:16 42.8862 
2 *481:16 *653:S 26.3695 
3 *481:16 *620:S 27.2135 
4 *481:16 *650:S 9.24915 
5 *653:S *647:S 39.5002 
*END

*D_NET *482 0.00205274
*CONN
*I *883:A I *D sky130_fd_sc_hd__buf_2
*I *1026:X O *D sky130_fd_sc_hd__buf_4
*CAP
1 *883:A 0.000562516
2 *1026:X 0.000562516
3 *645:A *883:A 0.000547837
4 *645:B *883:A 3.58208e-05
5 *646:B1 *883:A 0.000305829
6 *747:A2 *883:A 3.82176e-05
*RES
1 *1026:X *883:A 30.9407 
*END

*D_NET *121 0.00098483
*CONN
*I *659:A1 I *D sky130_fd_sc_hd__mux2_4
*I *846:X O *D sky130_fd_sc_hd__clkdlybuf4s50_1
*CAP
1 *659:A1 0.000399596
2 *846:X 0.000399596
3 *659:A1 *659:S 5.82465e-05
4 *659:A1 *719:DE 6.31665e-05
5 *659:A1 *431:62 2.16355e-05
6 *711:D *659:A1 4.25893e-05
*RES
1 *846:X *659:A1 34.7664 
*END

*D_NET *148 0.00123702
*CONN
*I *664:A1 I *D sky130_fd_sc_hd__mux2_4
*I *873:X O *D sky130_fd_sc_hd__clkdlybuf4s50_1
*CAP
1 *664:A1 0.000355577
2 *873:X 0.000355577
3 *664:A1 *664:A0 5.09485e-05
4 *664:A1 *664:S 1.50924e-05
5 *664:A1 *722:CLK 0.000198334
6 *664:A1 *436:27 0
7 *664:A1 *449:18 2.16355e-05
8 *664:A1 *449:20 0.000118136
9 *664:A1 *449:44 3.20407e-05
10 *634:B1 *664:A1 1.88563e-05
11 *94:18 *664:A1 7.08247e-05
*RES
1 *873:X *664:A1 38.2704 
*END

*D_NET *483 0.00288576
*CONN
*I *683:A2 I *D sky130_fd_sc_hd__a21oi_2
*I *682:B I *D sky130_fd_sc_hd__nand2_2
*I *1027:X O *D sky130_fd_sc_hd__buf_6
*CAP
1 *683:A2 0
2 *682:B 0.000593216
3 *1027:X 0.000319312
4 *483:12 0.000912528
5 *610:B1_N *682:B 0.000141372
6 *674:A *483:12 9.22246e-05
7 *682:A *682:B 1.27683e-05
8 *683:A1 *682:B 4.12349e-05
9 *684:B1 *483:12 0.000114271
10 *686:B_N *682:B 5.23435e-05
11 *686:B_N *483:12 0.000111466
12 *687:B1 *682:B 0.000114584
13 *103:16 *483:12 8.27709e-05
14 *109:20 *682:B 9.04668e-05
15 *173:16 *483:12 0.000154145
16 *382:10 *682:B 1.04584e-05
17 *439:29 *483:12 4.25952e-05
*RES
1 *1027:X *483:12 19.6178 
2 *483:12 *682:B 31.6934 
3 *483:12 *683:A2 9.24915 
*END

*D_NET *484 0.00188983
*CONN
*I *910:A I *D sky130_fd_sc_hd__buf_4
*I *1028:X O *D sky130_fd_sc_hd__buf_4
*CAP
1 *910:A 0.000378002
2 *1028:X 0.000378002
3 resp_msg[0] *910:A 0.000149987
4 *528:B *910:A 0.000177787
5 *575:B *910:A 5.68225e-06
6 *574:A *910:A 6.50727e-05
7 *614:A0 *910:A 4.37481e-05
8 *614:A1 *910:A 0
9 *679:A *910:A 0.000218079
10 *882:A *910:A 0.000145323
11 *1028:A *910:A 0.000294974
12 *426:14 *910:A 3.31745e-05
*RES
1 *1028:X *910:A 42.9643 
*END

*D_NET *485 0.00434634
*CONN
*I *988:A I *D sky130_fd_sc_hd__buf_8
*I *612:B I *D sky130_fd_sc_hd__or2_4
*I *1029:X O *D sky130_fd_sc_hd__buf_6
*CAP
1 *988:A 0.000467002
2 *612:B 0.000664219
3 *1029:X 0.000388923
4 *485:12 0.00152014
5 *612:A *612:B 6.55124e-05
6 *633:B *988:A 0
7 *688:A *485:12 1.75816e-05
8 *688:B *988:A 5.85383e-05
9 *693:D *612:B 0.000409616
10 *693:D *485:12 0.000305896
11 *693:CLK *612:B 7.67734e-06
12 *933:A *485:12 0
13 *1029:A *988:A 0.000183795
14 *1029:A *485:12 0
15 *28:10 *988:A 0
16 *41:16 *612:B 0.000109421
17 *153:12 *988:A 0.000148017
18 *382:16 *988:A 0
*RES
1 *1029:X *485:12 26.0691 
2 *485:12 *612:B 19.9795 
3 *485:12 *988:A 30.8777 
*END

*D_NET *487 0.0023203
*CONN
*I *666:S I *D sky130_fd_sc_hd__mux2_4
*I *687:A2 I *D sky130_fd_sc_hd__a22oi_2
*I *1031:X O *D sky130_fd_sc_hd__buf_6
*CAP
1 *666:S 0.000473319
2 *687:A2 0.000107567
3 *1031:X 0
4 *487:4 0.000580886
5 *687:A2 *491:10 0.000486427
6 resp_msg[6] *666:S 0.000209817
7 *666:A0 *666:S 3.50249e-05
8 *894:A *666:S 6.18334e-05
9 *923:A *666:S 5.46384e-06
10 *983:A *687:A2 0.000160047
11 *1031:A *687:A2 2.91008e-06
12 *42:8 *666:S 3.6928e-05
13 *95:14 *666:S 6.31814e-05
14 *446:23 *687:A2 7.11648e-05
15 *446:34 *687:A2 1.02229e-05
16 *446:49 *687:A2 1.55033e-05
*RES
1 *1031:X *487:4 9.24915 
2 *487:4 *687:A2 15.7115 
3 *487:4 *666:S 29.1155 
*END

*D_NET *149 0.00371429
*CONN
*I *665:A1 I *D sky130_fd_sc_hd__mux2_4
*I *874:X O *D sky130_fd_sc_hd__clkdlybuf4s50_1
*CAP
1 *665:A1 6.9462e-05
2 *874:X 0.00119271
3 *149:12 0.00126217
4 *665:A1 *665:A0 6.92705e-05
5 *149:12 *665:S 0
6 *149:12 *693:CLK 5.82077e-05
7 *149:12 *860:A 2.60879e-06
8 *149:12 *874:A 6.29203e-05
9 *149:12 *998:A 0.000218517
10 *149:12 *449:44 0
11 *149:12 *449:66 5.01992e-05
12 *149:12 *503:20 0.000305896
13 *633:A *149:12 0.000320776
14 *634:B1 *149:12 0.000101555
*RES
1 *874:X *149:12 49.7384 
2 *149:12 *665:A1 11.0817 
*END

*D_NET *490 0.00593057
*CONN
*I *676:A I *D sky130_fd_sc_hd__nor2b_1
*I *675:A2 I *D sky130_fd_sc_hd__a221o_1
*I *1034:X O *D sky130_fd_sc_hd__buf_6
*CAP
1 *676:A 0.00012893
2 *675:A2 7.21904e-05
3 *1034:X 0.00090528
4 *490:8 0.0011064
5 resp_msg[7] *490:8 0.000122378
6 *666:A1 *490:8 1.99195e-05
7 *675:B2 *675:A2 0.000101984
8 *676:B_N *676:A 0.000158885
9 *862:A *490:8 6.05834e-05
10 *875:A *490:8 2.30636e-05
11 *878:A *676:A 2.65831e-05
12 *880:A *490:8 0.000257044
13 *895:A *490:8 8.85947e-05
14 *155:14 *675:A2 0.000117723
15 *155:14 *490:8 0.000733902
16 *172:6 *675:A2 6.50727e-05
17 *172:6 *490:8 0.000309966
18 *392:171 *676:A 6.50727e-05
19 *392:207 *490:8 0.000749636
20 *442:35 *490:8 3.31745e-05
21 *442:60 *490:8 0.000784182
*RES
1 *1034:X *490:8 43.6828 
2 *490:8 *675:A2 12.209 
3 *490:8 *676:A 22.0503 
*END

*D_NET *491 0.0240993
*CONN
*I *1034:A I *D sky130_fd_sc_hd__buf_6
*I *667:S I *D sky130_fd_sc_hd__mux2_4
*I *881:A I *D sky130_fd_sc_hd__dlygate4sd2_1
*I *673:S I *D sky130_fd_sc_hd__mux2_4
*I *1035:X O *D sky130_fd_sc_hd__buf_6
*CAP
1 *1034:A 0
2 *667:S 0.0006016
3 *881:A 0.000423911
4 *673:S 3.47451e-05
5 *1035:X 0.00183287
6 *491:78 0.000958492
7 *491:52 0.00228779
8 *491:50 0.00257467
9 *491:46 0.00204599
10 *491:18 0.00220497
11 *491:10 0.00238049
12 *491:46 *496:18 0.000520576
13 *491:50 *496:18 0.000112789
14 *547:A *491:52 4.81452e-05
15 *548:B *491:52 0.000114655
16 *610:B1_N *491:10 2.23108e-05
17 *635:A1 *491:18 2.58757e-05
18 *637:A2 *491:10 8.21761e-06
19 *637:A2 *491:18 3.61531e-05
20 *647:A1 *491:52 8.23171e-06
21 *647:S *491:52 0.000209636
22 *673:A1 *673:S 4.76161e-06
23 *673:A1 *881:A 7.22927e-05
24 *673:A1 *491:52 2.84758e-05
25 *687:A2 *491:10 0.000486427
26 *688:B *491:10 6.54573e-06
27 *708:D *491:18 6.27718e-05
28 *505:B *491:50 7.97982e-05
29 *607:A *491:18 0.00035447
30 *607:B *491:46 0.000134066
31 *607:B *491:78 1.59362e-06
32 *731:A1 *491:46 0.000130317
33 *735:A2 *491:50 0.00025769
34 *738:A1 *491:46 0.000276439
35 *740:A *491:46 0.000118485
36 *742:A2 *491:46 1.69467e-05
37 *754:B *491:50 0
38 *851:A *881:A 2.16355e-05
39 *896:A *491:78 5.36206e-05
40 *922:A *491:46 1.80425e-05
41 *980:A *491:46 0.000180292
42 *983:A *491:10 0.000125252
43 *987:A *491:10 7.1782e-05
44 *33:32 *491:46 2.19131e-05
45 *76:22 *491:52 0.00073853
46 *169:12 *491:46 0.000162629
47 *169:12 *491:50 0.000319719
48 *170:10 *491:78 1.70745e-05
49 *223:12 *491:46 2.90208e-05
50 *224:10 *491:18 0.000159032
51 *224:10 *491:46 0
52 *249:18 *491:50 0.000439359
53 *266:14 *491:46 0.000123651
54 *307:8 *491:50 0.000756867
55 *321:8 *491:46 0
56 *322:18 *491:46 0.000368343
57 *328:10 *491:46 7.37686e-05
58 *360:18 *881:A 0.000309588
59 *439:12 *491:46 0
60 *442:6 *491:10 7.60171e-05
61 *442:60 *667:S 0.00038142
62 *442:60 *491:78 0.000211546
63 *445:31 *491:10 0.00026666
64 *446:23 *491:10 6.22026e-05
65 *446:49 *491:10 1.28096e-05
66 *446:53 *491:18 0.000356429
67 *478:18 *491:46 1.05601e-05
68 *480:24 *491:46 0.000248384
*RES
1 *1035:X *491:10 39.4148 
2 *491:10 *491:18 20.9452 
3 *491:18 *491:46 49.8052 
4 *491:46 *491:50 32.7005 
5 *491:50 *491:52 27.899 
6 *491:52 *673:S 10.2378 
7 *491:52 *881:A 27.8694 
8 *491:18 *491:78 13.7022 
9 *491:78 *667:S 19.7143 
10 *491:78 *1034:A 9.24915 
*END

*D_NET *150 0.000420527
*CONN
*I *666:A1 I *D sky130_fd_sc_hd__mux2_4
*I *875:X O *D sky130_fd_sc_hd__clkdlybuf4s50_1
*CAP
1 *666:A1 0.00017712
2 *875:X 0.00017712
3 *666:A1 resp_msg[6] 4.63668e-05
4 *666:A1 *490:8 1.99195e-05
*RES
1 *875:X *666:A1 31.0235 
*END

*D_NET *151 0.00153871
*CONN
*I *667:A1 I *D sky130_fd_sc_hd__mux2_4
*I *876:X O *D sky130_fd_sc_hd__dlymetal6s2s_1
*CAP
1 *667:A1 0.000471011
2 *876:X 0.000471011
3 *667:A1 *667:A0 0.00011815
4 *667:A1 *725:DE 0.00011815
5 *667:A1 *403:18 0.000199451
6 *960:A *667:A1 0.000160942
*RES
1 *876:X *667:A1 36.8469 
*END

*D_NET *152 0.000719887
*CONN
*I *668:A1 I *D sky130_fd_sc_hd__mux2_4
*I *877:X O *D sky130_fd_sc_hd__dlymetal6s2s_1
*CAP
1 *668:A1 0.000163356
2 *877:X 0.000163356
3 *668:A1 *668:S 0.000194842
4 *668:A1 *877:A 0.000198334
*RES
1 *877:X *668:A1 32.9927 
*END

*D_NET *154 0.00431864
*CONN
*I *974:A I *D sky130_fd_sc_hd__buf_4
*I *685:A I *D sky130_fd_sc_hd__clkinv_1
*I *878:X O *D sky130_fd_sc_hd__dlygate4sd2_1
*CAP
1 *974:A 0.000328383
2 *685:A 0
3 *878:X 0.000239561
4 *154:6 0.000567944
5 *974:A *675:B1 1.29348e-05
6 *974:A *676:B_N 0.000176934
7 *974:A *878:A 0.000330596
8 *974:A *173:16 0.00015511
9 *974:A *392:171 6.49003e-05
10 *154:6 *878:A 0.00154326
11 *154:6 *173:16 0.000649254
12 *675:A1 *974:A 5.47111e-05
13 *1029:A *154:6 0.000122378
14 *103:16 *974:A 7.26748e-05
*RES
1 *878:X *154:6 25.5014 
2 *154:6 *685:A 9.24915 
3 *154:6 *974:A 28.9758 
*END

*D_NET *358 0.00370987
*CONN
*I *1023:A I *D sky130_fd_sc_hd__buf_8
*I *899:X O *D sky130_fd_sc_hd__buf_6
*CAP
1 *1023:A 3.64264e-05
2 *899:X 0.00121482
3 *358:20 0.00125124
4 *1023:A *388:28 0.000118796
5 *358:20 *512:B2 0.000403438
6 *358:20 *517:B1 0.000155329
7 *358:20 *505:A 0.000138271
8 *358:20 *434:81 5.46489e-06
9 *758:A2 *358:20 6.84667e-05
10 *761:B1 *358:20 1.26246e-05
11 *899:A *358:20 3.60575e-05
12 *207:10 *358:20 8.26893e-05
13 *249:18 *358:20 1.83795e-06
14 *259:26 *358:20 0
15 *301:10 *358:20 0
16 *306:44 *358:20 0.000116284
17 *322:18 *358:20 6.81223e-05
*RES
1 *899:X *358:20 49.3546 
2 *358:20 *1023:A 15.0271 
*END

*D_NET *155 0.00389936
*CONN
*I *675:C1 I *D sky130_fd_sc_hd__a221o_1
*I *973:A I *D sky130_fd_sc_hd__buf_4
*I *879:X O *D sky130_fd_sc_hd__clkdlybuf4s50_1
*CAP
1 *675:C1 0
2 *973:A 0.000356983
3 *879:X 0.000835547
4 *155:14 0.00119253
5 *973:A *432:16 3.10541e-05
6 *155:14 resp_msg[6] 3.00073e-05
7 *155:14 *675:A2 0.000117723
8 *155:14 *675:B2 3.15414e-05
9 *155:14 *880:A 2.652e-05
10 *155:14 *490:8 0.000733902
11 *674:A *973:A 6.08467e-05
12 *683:B1 *973:A 6.27718e-05
13 *686:B_N *973:A 0.000110458
14 *935:A *973:A 6.46815e-05
15 *4:10 *973:A 0.000244793
*RES
1 *879:X *155:14 33.4345 
2 *155:14 *973:A 19.7866 
3 *155:14 *675:C1 9.24915 
*END

*D_NET *503 0.00417569
*CONN
*I *998:A I *D sky130_fd_sc_hd__buf_4
*I *1047:X O *D sky130_fd_sc_hd__buf_4
*CAP
1 *998:A 6.85818e-05
2 *1047:X 0.00127746
3 *503:20 0.00134604
4 *594:B *503:20 8.60778e-05
5 *598:B *503:20 0.000142062
6 *628:A1 *503:20 0.00016165
7 *628:A2 *503:20 4.7903e-06
8 *664:A0 *503:20 1.80887e-05
9 *722:D *503:20 3.86315e-05
10 *722:CLK *503:20 4.66889e-05
11 *874:A *998:A 0.000182992
12 *874:A *503:20 5.04829e-06
13 *28:18 *503:20 1.70164e-05
14 *57:12 *503:20 0.000256151
15 *149:12 *998:A 0.000218517
16 *149:12 *503:20 0.000305896
17 *447:36 *503:20 0
*RES
1 *1047:X *503:20 47.9869 
2 *503:20 *998:A 17.6574 
*END

*D_NET *172 0.0017803
*CONN
*I *676:B_N I *D sky130_fd_sc_hd__nor2b_1
*I *675:B2 I *D sky130_fd_sc_hd__a221o_1
*I *880:X O *D sky130_fd_sc_hd__dlymetal6s2s_1
*CAP
1 *676:B_N 9.41456e-05
2 *675:B2 0.00021937
3 *880:X 7.1398e-05
4 *172:6 0.000384914
5 *675:B2 *675:A2 0.000101984
6 *676:B_N *676:A 0.000158885
7 *172:6 *675:A2 6.50727e-05
8 *172:6 *880:A 0.000166091
9 *172:6 *490:8 0.000309966
10 *974:A *676:B_N 0.000176934
11 *155:14 *675:B2 3.15414e-05
*RES
1 *880:X *172:6 13.3002 
2 *172:6 *675:B2 15.3016 
3 *172:6 *676:B_N 21.7421 
*END

*D_NET *398 0.00217347
*CONN
*I *611:S I *D sky130_fd_sc_hd__mux2_4
*I *669:S I *D sky130_fd_sc_hd__mux2_4
*I *939:X O *D sky130_fd_sc_hd__buf_6
*CAP
1 *611:S 0.000380605
2 *669:S 6.08028e-05
3 *939:X 0.000200965
4 *398:8 0.000642374
5 *611:S *641:S 5.43299e-05
6 *611:S *478:28 0.000144796
7 *669:S *641:S 6.27718e-05
8 *669:S *939:A 9.50523e-05
9 *398:8 *939:A 3.71556e-05
10 *611:A1 *611:S 5.03545e-06
11 *847:A *611:S 2.29386e-05
12 *864:A *611:S 0.000254108
13 *360:8 *611:S 0.00021253
*RES
1 *939:X *398:8 13.8789 
2 *398:8 *669:S 11.6364 
3 *398:8 *611:S 31.7082 
*END

*D_NET *153 0.00219247
*CONN
*I *1029:A I *D sky130_fd_sc_hd__buf_6
*I *987:A I *D sky130_fd_sc_hd__buf_12
*I *1035:A I *D sky130_fd_sc_hd__buf_6
*I *692:Q O *D sky130_fd_sc_hd__dfxtp_4
*CAP
1 *1029:A 0.000383089
2 *987:A 0.000138628
3 *1035:A 0
4 *692:Q 0
5 *153:12 0.00031148
6 *153:6 0.000555941
7 *987:A *491:10 7.1782e-05
8 *1029:A *878:A 4.33819e-05
9 *1029:A *988:A 0.000183795
10 *1029:A *154:6 0.000122378
11 *1029:A *485:12 0
12 *153:12 *633:B 2.53401e-05
13 *153:12 *988:A 0.000148017
14 *688:B *987:A 0.000129446
15 *688:B *153:12 3.25052e-05
16 *3:6 *153:12 4.66889e-05
17 *94:18 *1029:A 0
*RES
1 *692:Q *153:6 13.7491 
2 *153:6 *153:12 10.1043 
3 *153:12 *1035:A 9.24915 
4 *153:12 *987:A 14.4094 
5 *153:6 *1029:A 24.1971 
*END

*D_NET *360 0.0113801
*CONN
*I *672:S I *D sky130_fd_sc_hd__mux2_4
*I *671:S I *D sky130_fd_sc_hd__mux2_4
*I *670:S I *D sky130_fd_sc_hd__mux2_4
*I *901:X O *D sky130_fd_sc_hd__buf_8
*CAP
1 *672:S 0
2 *671:S 0
3 *670:S 0.000267817
4 *901:X 0
5 *360:38 0.00120439
6 *360:18 0.00155779
7 *360:8 0.00272345
8 *360:6 0.00210223
9 *670:S *670:A0 0.000169041
10 *670:S *382:124 0.000164829
11 *670:S *448:64 0
12 *360:8 *611:S 0.00021253
13 *360:8 *656:S 0
14 *360:8 *939:A 0
15 *360:8 *478:28 0
16 *360:18 *715:DE 0
17 *360:18 *881:A 0.000309588
18 *360:38 *650:A0 0.000433778
19 *360:38 *653:S 6.2854e-05
20 *360:38 *714:DE 0.000190013
21 *360:38 *414:10 0.000164815
22 resp_msg[10] *360:8 3.04193e-05
23 resp_msg[14] *360:8 4.88112e-06
24 resp_msg[15] *360:8 4.51176e-05
25 *605:B1 *360:8 0
26 *653:A1 *360:38 6.08467e-05
27 *671:A0 *670:S 0
28 *671:A0 *360:38 0.000110597
29 *671:A1 *670:S 0.00016554
30 *672:A0 *360:38 0.000103022
31 *712:D *360:8 0.000186404
32 *714:D *670:S 0
33 *714:D *360:38 0.000114584
34 *716:D *360:18 0.000143175
35 *847:A *360:8 2.02035e-05
36 *850:A *360:18 4.90442e-05
37 *851:A *360:8 0
38 *864:A *360:8 0.000249402
39 *869:A *360:8 2.16551e-05
40 *870:A *360:8 3.21003e-05
41 *877:A *360:8 1.20478e-05
42 *886:A *360:38 6.74667e-05
43 *888:A *360:8 4.47578e-05
44 *2:14 *360:8 0
45 *6:16 *360:18 0
46 *7:10 *360:38 0.000113033
47 *21:18 *360:38 0.000198406
48 *22:27 *360:38 3.64685e-05
49 *160:18 *360:38 7.77309e-06
50 *258:10 *360:8 0
51 *258:23 *360:8 0
*RES
1 *901:X *360:6 13.7491 
2 *360:6 *360:8 53.1156 
3 *360:8 *360:18 21.5895 
4 *360:18 *360:38 39.3069 
5 *360:38 *670:S 26.8968 
6 *360:38 *671:S 9.24915 
7 *360:18 *672:S 9.24915 
*END

*D_NET *486 0.0010032
*CONN
*I *668:S I *D sky130_fd_sc_hd__mux2_4
*I *1030:X O *D sky130_fd_sc_hd__buf_6
*CAP
1 *668:S 0.00040418
2 *1030:X 0.00040418
3 *668:S *1030:A 0
4 *668:A1 *668:S 0.000194842
*RES
1 *1030:X *668:S 38.3587 
*END

*D_NET *492 0.004736
*CONN
*I *665:A0 I *D sky130_fd_sc_hd__mux2_4
*I *1036:X O *D sky130_fd_sc_hd__buf_4
*CAP
1 *665:A0 0.000300686
2 *1036:X 0.000864837
3 *492:20 0.00116552
4 *634:A2 *492:20 9.86195e-05
5 *664:S *492:20 3.31733e-05
6 *665:A1 *665:A0 6.92705e-05
7 *665:S *665:A0 0.000177851
8 *665:S *492:20 0.000525231
9 *707:D *492:20 0.000264583
10 *28:10 *492:20 0
11 *41:16 *665:A0 0.000160135
12 *94:18 *665:A0 0.000435563
13 *94:18 *492:20 0.000114342
14 *382:16 *492:20 6.72103e-06
15 *447:10 *492:20 0.000519467
*RES
1 *1036:X *492:20 45.5638 
2 *492:20 *665:A0 25.0987 
*END

*D_NET *156 0.00285132
*CONN
*I *882:A I *D sky130_fd_sc_hd__buf_2
*I *1028:A I *D sky130_fd_sc_hd__buf_4
*I *528:Y O *D sky130_fd_sc_hd__xnor2_2
*CAP
1 *882:A 0.000439604
2 *1028:A 0.000262287
3 *528:Y 3.181e-05
4 *156:6 0.0007337
5 *882:A resp_msg[0] 3.25087e-05
6 *882:A *528:B 0.000164843
7 *882:A *575:A 0
8 *882:A *575:B 0.000149643
9 *882:A *910:A 0.000145323
10 *1028:A *528:A 0.000107496
11 *1028:A *528:B 1.07248e-05
12 *1028:A *575:B 0.000144107
13 *1028:A *574:A 0.000216118
14 *1028:A *910:A 0.000294974
15 *1028:A *913:A 0
16 *156:6 *528:A 0.00011818
*RES
1 *528:Y *156:6 10.5271 
2 *156:6 *1028:A 27.6612 
3 *156:6 *882:A 30.3881 
*END

*D_NET *489 0.000445888
*CONN
*I *1030:A I *D sky130_fd_sc_hd__buf_6
*I *1033:X O *D sky130_fd_sc_hd__buf_6
*CAP
1 *1030:A 0.000222944
2 *1033:X 0.000222944
3 *668:S *1030:A 0
*RES
1 *1033:X *1030:A 32.8239 
*END

*D_NET *122 0.00152833
*CONN
*I *669:A1 I *D sky130_fd_sc_hd__mux2_4
*I *847:X O *D sky130_fd_sc_hd__clkdlybuf4s50_1
*CAP
1 *669:A1 0.000590364
2 *847:X 0.000590364
3 *669:A1 *641:S 9.78898e-05
4 *669:A1 *717:DE 0.000111489
5 *669:A1 *939:A 2.58616e-05
6 *669:A1 *397:32 0.000112361
*RES
1 *847:X *669:A1 37.8476 
*END

*D_NET *157 0.00454812
*CONN
*I *1026:A I *D sky130_fd_sc_hd__buf_4
*I *1013:A I *D sky130_fd_sc_hd__buf_4
*I *743:Y O *D sky130_fd_sc_hd__xnor2_1
*CAP
1 *1026:A 0.000120071
2 *1013:A 0
3 *743:Y 0.000878462
4 *157:26 0.000998533
5 *1026:A *534:A1 9.97706e-05
6 *1026:A *534:A2 9.16785e-05
7 *1026:A *644:A1 0.00021569
8 *157:26 *532:B1 4.52011e-05
9 *157:26 *533:A1 6.37264e-05
10 *157:26 *533:A2 0.000238768
11 *157:26 *534:A1 0.000107496
12 *157:26 *534:A2 1.65872e-05
13 *157:26 *743:A 1.80176e-05
14 *157:26 *753:A1 5.07137e-05
15 *157:26 *753:A2 4.7618e-05
16 *157:26 *753:B2 2.03363e-06
17 *157:26 *763:D 0.000839248
18 *157:26 *766:A1 0.000225876
19 *157:26 *178:10 1.5714e-05
20 *157:26 *178:30 0.000109421
21 *157:26 *336:10 0.00033069
22 *157:26 *457:16 2.77564e-05
23 *646:A1 *157:26 0
24 *646:B1 *1026:A 5.04829e-06
*RES
1 *743:Y *157:26 39.2142 
2 *157:26 *1013:A 9.24915 
3 *157:26 *1026:A 13.8548 
*END

*D_NET *158 0.00199895
*CONN
*I *1012:A I *D sky130_fd_sc_hd__buf_4
*I *1018:A I *D sky130_fd_sc_hd__buf_4
*I *751:Y O *D sky130_fd_sc_hd__xnor2_1
*CAP
1 *1012:A 5.62199e-05
2 *1018:A 0.000221818
3 *751:Y 0.000233435
4 *158:8 0.000511473
5 *1012:A *647:A1 4.27003e-05
6 *1012:A *284:16 8.92568e-06
7 *1012:A *334:18 5.21927e-05
8 *1018:A *604:C1 0.000121389
9 *1018:A *647:A1 3.07317e-05
10 *1018:A *884:A 6.46815e-05
11 *1018:A *184:14 4.64416e-05
12 *1018:A *184:40 0
13 *1018:A *334:18 1.09738e-05
14 *1018:A *343:27 0.000195713
15 *1018:A *428:8 2.08293e-05
16 *158:8 *757:A 0.000113968
17 *158:8 *758:B1 0.000267462
*RES
1 *751:Y *158:8 17.8002 
2 *158:8 *1018:A 20.6882 
3 *158:8 *1012:A 15.9964 
*END

*D_NET *159 0.00741478
*CONN
*I *650:A1 I *D sky130_fd_sc_hd__mux2i_1
*I *885:A I *D sky130_fd_sc_hd__clkbuf_2
*I *754:Y O *D sky130_fd_sc_hd__xnor2_2
*CAP
1 *650:A1 0
2 *885:A 0.000264928
3 *754:Y 0.000796624
4 *159:32 0.00128977
5 *159:20 0.00182146
6 *885:A resp_msg[12] 6.08467e-05
7 *885:A *697:DE 8.96665e-05
8 *885:A *855:A 0.000116971
9 *885:A *382:124 0.000159651
10 *159:20 *539:A 5.04829e-06
11 *159:20 *647:A1 0
12 *159:20 *670:A0 0.000255876
13 *159:20 *678:D 0.000109421
14 *159:20 *714:DE 6.93171e-05
15 *159:20 *160:18 0.000223463
16 *159:20 *283:27 5.31805e-05
17 *159:20 *283:31 2.24582e-05
18 *159:20 *344:20 1.21461e-06
19 *159:20 *428:8 0.000195574
20 *159:32 *650:A0 0.00134972
21 *159:32 *697:DE 3.95141e-05
22 *159:32 *714:DE 0.000181412
23 *159:32 *160:18 0.000149245
24 *159:32 *414:10 4.0752e-05
25 *99:16 *885:A 9.17629e-05
26 *99:16 *159:32 2.69064e-05
*RES
1 *754:Y *159:20 47.1753 
2 *159:20 *159:32 34.5227 
3 *159:32 *885:A 23.4471 
4 *159:32 *650:A1 13.7491 
*END

*D_NET *160 0.00336182
*CONN
*I *653:A1 I *D sky130_fd_sc_hd__mux2i_1
*I *886:A I *D sky130_fd_sc_hd__buf_2
*I *762:Y O *D sky130_fd_sc_hd__xnor2_1
*CAP
1 *653:A1 3.41415e-05
2 *886:A 0.000280555
3 *762:Y 0.000553832
4 *160:18 0.000868528
5 *653:A1 *653:S 0.000160617
6 *653:A1 *360:38 6.08467e-05
7 *653:A1 *414:10 4.0752e-05
8 *886:A *714:DE 5.68225e-06
9 *886:A *867:A 0
10 *886:A *360:38 6.74667e-05
11 *160:18 *564:B 0.000203209
12 *160:18 *647:A0 3.98182e-05
13 *160:18 *647:A1 5.30055e-05
14 *160:18 *678:A 0.000232325
15 *160:18 *714:DE 3.76569e-05
16 *160:18 *762:B 1.43848e-05
17 *160:18 *360:38 7.77309e-06
18 *654:A *886:A 6.92705e-05
19 *655:A2 *886:A 0
20 *22:27 *886:A 9.24241e-05
21 *22:27 *160:18 0.00016682
22 *159:20 *160:18 0.000223463
23 *159:32 *160:18 0.000149245
*RES
1 *762:Y *160:18 32.6459 
2 *160:18 *886:A 21.1899 
3 *160:18 *653:A1 15.5817 
*END

*D_NET *161 0.00327501
*CONN
*I *887:A I *D sky130_fd_sc_hd__buf_2
*I *656:A1 I *D sky130_fd_sc_hd__mux2i_1
*I *767:Y O *D sky130_fd_sc_hd__xnor2_1
*CAP
1 *887:A 0.000391764
2 *656:A1 9.00764e-06
3 *767:Y 0.00032501
4 *161:12 0.000725782
5 *656:A1 *920:A 6.36477e-05
6 *656:A1 *278:18 6.64392e-05
7 *887:A *606:A2 0
8 *887:A *606:B1 0.00033733
9 *887:A *656:S 0.00013309
10 *887:A *920:A 0.000429471
11 *887:A *278:18 0.00029856
12 *161:12 resp_msg[11] 6.30541e-06
13 *161:12 *536:B 2.07055e-05
14 *161:12 *605:A2 9.70244e-05
15 *161:12 *256:10 1.03986e-05
16 *161:12 *258:25 0.00025175
17 *658:A2 *161:12 0.00010872
*RES
1 *767:Y *161:12 25.5145 
2 *161:12 *656:A1 9.97254 
3 *161:12 *887:A 23.4036 
*END

*D_NET *162 0.00262894
*CONN
*I *888:A I *D sky130_fd_sc_hd__buf_2
*I *689:A1 I *D sky130_fd_sc_hd__mux2i_1
*I *603:Y O *D sky130_fd_sc_hd__xnor2_1
*CAP
1 *888:A 0.000196779
2 *689:A1 2.06324e-05
3 *603:Y 0.000702487
4 *162:6 0.000919899
5 *888:A *656:S 3.99086e-06
6 *888:A *689:S 1.92926e-05
7 *888:A *360:8 4.47578e-05
8 *888:A *478:28 6.80864e-05
9 *162:6 *603:B 1.19618e-05
10 *162:6 *656:S 6.11359e-06
11 *162:6 *691:A1 1.19721e-05
12 *162:6 *701:DE 0.000362266
13 *162:6 *921:A 1.88014e-05
14 *691:A2 *162:6 0.000211492
15 *701:D *162:6 3.04105e-05
*RES
1 *603:Y *162:6 20.51 
2 *162:6 *689:A1 9.82786 
3 *162:6 *888:A 22.7442 
*END

*D_NET *163 0.00403368
*CONN
*I *617:A1 I *D sky130_fd_sc_hd__mux2i_1
*I *889:A I *D sky130_fd_sc_hd__buf_2
*I *527:Y O *D sky130_fd_sc_hd__xnor2_4
*CAP
1 *617:A1 0
2 *889:A 0.000475881
3 *527:Y 0.000363674
4 *163:10 0.000839555
5 *889:A *617:A0 0.000114271
6 *163:10 *522:B 0.000267394
7 *163:10 *571:A2 5.04829e-06
8 *163:10 *617:A0 0.000210819
9 *163:10 *479:16 0.000959485
10 *163:10 *479:20 0.000336913
11 *618:A *889:A 0.000151529
12 *619:A1 *889:A 0.000141816
13 *619:B1 *889:A 0.000167291
*RES
1 *527:Y *163:10 25.6943 
2 *163:10 *889:A 20.4618 
3 *163:10 *617:A1 9.24915 
*END

*D_NET *164 0.00263717
*CONN
*I *620:A1 I *D sky130_fd_sc_hd__mux2i_1
*I *890:A I *D sky130_fd_sc_hd__buf_2
*I *526:Y O *D sky130_fd_sc_hd__xnor2_2
*CAP
1 *620:A1 0
2 *890:A 0.00035629
3 *526:Y 0.000319804
4 *164:12 0.000676095
5 *890:A resp_msg[2] 7.97944e-05
6 *890:A *583:B 0.00010084
7 *890:A *382:90 0.00027329
8 *164:12 *526:B 2.75733e-05
9 *164:12 *583:B 9.11614e-05
10 *164:12 *950:A 0.000246254
11 *164:12 *208:12 8.23171e-06
12 *164:12 *259:38 0.000457833
13 *661:A1 *890:A 0
14 *719:D *890:A 0
15 *719:D *164:12 0
*RES
1 *526:Y *164:12 25.8879 
2 *164:12 *890:A 24.5563 
3 *164:12 *620:A1 13.7491 
*END

*D_NET *165 0.00499077
*CONN
*I *623:A1 I *D sky130_fd_sc_hd__mux2i_1
*I *891:A I *D sky130_fd_sc_hd__buf_2
*I *522:Y O *D sky130_fd_sc_hd__xnor2_4
*CAP
1 *623:A1 0
2 *891:A 0.000408348
3 *522:Y 0.0011173
4 *165:26 0.000482908
5 *165:22 0.00119186
6 *165:22 resp_msg[4] 0.000249928
7 *165:22 *527:B 0.000258195
8 *165:22 *892:A 0.000292558
9 *165:22 *928:A 0
10 *165:22 *390:12 0.000255643
11 *165:22 *493:16 0.000122925
12 *165:26 *436:39 0.000168319
13 *625:A2 *165:26 6.87335e-05
14 *965:A *165:22 0.000177064
15 *31:6 *165:22 3.79836e-05
16 *146:14 *891:A 0.00015901
*RES
1 *522:Y *165:22 48.0082 
2 *165:22 *165:26 7.57775 
3 *165:26 *891:A 18.171 
4 *165:26 *623:A1 9.24915 
*END

*D_NET *166 0.00409872
*CONN
*I *626:A1 I *D sky130_fd_sc_hd__mux2i_1
*I *892:A I *D sky130_fd_sc_hd__buf_2
*I *521:X O *D sky130_fd_sc_hd__xor2_2
*CAP
1 *626:A1 0.000349487
2 *892:A 0.000655301
3 *521:X 3.25395e-05
4 *166:8 0.00103733
5 *626:A1 *626:A0 1.63874e-05
6 *626:A1 *680:C 6.85171e-05
7 *626:A1 *259:126 9.94119e-05
8 *626:A1 *407:12 7.30654e-05
9 *892:A resp_msg[4] 0.000110458
10 *892:A *527:B 1.97124e-05
11 *892:A *585:A 2.02035e-05
12 *892:A *623:A0 8.33514e-05
13 *892:A *213:27 0.000411897
14 *892:A *259:73 0
15 *892:A *259:86 0
16 *892:A *407:12 6.13441e-05
17 *892:A *493:16 0.000296198
18 *166:8 *663:A0 0.00013121
19 *166:8 *942:A 0.000157107
20 *589:C *626:A1 5.89129e-05
21 *589:C *892:A 0.000102567
22 *948:A *892:A 5.68225e-06
23 *964:A *892:A 1.54809e-05
24 *16:10 *892:A 0
25 *165:22 *892:A 0.000292558
*RES
1 *521:X *166:8 15.5817 
2 *166:8 *892:A 36.5776 
3 *166:8 *626:A1 23.368 
*END

*D_NET *123 0.000347823
*CONN
*I *670:A1 I *D sky130_fd_sc_hd__mux2_4
*I *848:X O *D sky130_fd_sc_hd__clkdlybuf4s50_1
*CAP
1 *670:A1 0.000149557
2 *848:X 0.000149557
3 *670:A1 *671:A1 3.55432e-05
4 *670:A1 *698:DE 0
5 *670:A1 *699:DE 1.31657e-05
*RES
1 *848:X *670:A1 30.8842 
*END

*D_NET *167 0.00794624
*CONN
*I *629:A1 I *D sky130_fd_sc_hd__mux2i_1
*I *893:A I *D sky130_fd_sc_hd__buf_2
*I *515:X O *D sky130_fd_sc_hd__xor2_2
*CAP
1 *629:A1 0
2 *893:A 9.42278e-05
3 *515:X 0.00240482
4 *167:22 0.00249905
5 *893:A *629:A0 5.31465e-05
6 *893:A *721:CLK 1.00901e-05
7 *167:22 *512:C1 7.11343e-06
8 *167:22 *567:A2 0
9 *167:22 *593:A1 3.67859e-05
10 *167:22 *626:S 0.00148752
11 *167:22 *629:S 0.000194192
12 *167:22 *681:A 2.72515e-05
13 *167:22 *734:C 0.000112361
14 *167:22 *927:A 4.47179e-05
15 *167:22 *220:31 2.41489e-05
16 *167:22 *228:31 1.65872e-05
17 *167:22 *386:6 0.000546753
18 *167:22 *436:27 1.66771e-05
19 *631:A2 *893:A 0.000275256
20 *681:D *167:22 6.96846e-05
21 *706:D *893:A 2.58616e-05
*RES
1 *515:X *167:22 46.5695 
2 *167:22 *893:A 13.3243 
3 *167:22 *629:A1 9.24915 
*END

*D_NET *168 0.0050231
*CONN
*I *894:A I *D sky130_fd_sc_hd__buf_2
*I *904:A I *D sky130_fd_sc_hd__buf_4
*I *511:X O *D sky130_fd_sc_hd__xor2_2
*CAP
1 *894:A 0.000589884
2 *904:A 0.000403451
3 *511:X 0.000109479
4 *168:10 0.00110281
5 *894:A resp_msg[6] 2.58616e-05
6 *894:A *666:S 6.18334e-05
7 *894:A *908:A 0.000416809
8 *894:A *169:28 0
9 *894:A *435:37 2.75747e-05
10 *894:A *439:29 7.19887e-05
11 *894:A *449:12 4.70741e-05
12 *894:A *466:16 8.68133e-05
13 *904:A *507:B 0
14 *904:A *511:A 0.000310205
15 *904:A *681:A 4.75488e-05
16 *904:A *1017:A 6.50727e-05
17 *904:A *239:10 9.75356e-05
18 *904:A *363:14 0.000111708
19 *904:A *435:37 3.05478e-05
20 *904:A *451:10 0.000158357
21 *168:10 *511:B 5.37479e-05
22 *168:10 *400:16 4.231e-05
23 *168:10 *444:10 0.000304838
24 *923:A *894:A 0
25 *95:14 *894:A 0.000751157
26 *120:28 *894:A 0.000106488
*RES
1 *511:X *168:10 17.9784 
2 *168:10 *904:A 25.9173 
3 *168:10 *894:A 35.2696 
*END

*D_NET *169 0.0110223
*CONN
*I *895:A I *D sky130_fd_sc_hd__buf_2
*I *635:A1 I *D sky130_fd_sc_hd__mux2i_1
*I *505:X O *D sky130_fd_sc_hd__xor2_4
*CAP
1 *895:A 0.000348324
2 *635:A1 3.68809e-05
3 *505:X 0.000939098
4 *169:34 0.000760741
5 *169:28 0.00168259
6 *169:12 0.00224615
7 *635:A1 *446:49 1.3808e-05
8 *635:A1 *446:53 1.50924e-05
9 *635:A1 *491:18 2.58757e-05
10 *895:A *708:DE 5.6118e-05
11 *895:A *490:8 8.85947e-05
12 *169:12 *552:B 0.000139684
13 *169:12 *737:B 0.000109488
14 *169:12 *743:A 5.9036e-05
15 *169:12 *743:B 1.00901e-05
16 *169:12 *754:B 0
17 *169:12 *762:A 6.72622e-05
18 *169:12 *764:A2 3.79614e-05
19 *169:12 *249:18 0.000435702
20 *169:12 *341:12 0.00122224
21 *169:12 *480:24 4.6447e-05
22 *169:12 *491:46 0.000162629
23 *169:12 *491:50 0.000319719
24 *169:28 *506:C1 0.000146017
25 *169:28 *507:B 0.000103263
26 *169:28 *511:A 0
27 *169:28 *511:B 0.000162898
28 *169:28 *590:A1 0.000648584
29 *169:28 *730:A1 4.70005e-05
30 *169:28 *764:A2 1.61631e-05
31 *169:28 *915:A 0.000270919
32 *169:28 *1000:A 1.02356e-05
33 *169:28 *240:10 0.000117376
34 *169:28 *367:14 1.1431e-06
35 *169:28 *449:12 0
36 *169:34 *635:A0 1.91391e-05
37 *169:34 *708:DE 3.18342e-06
38 *169:34 *708:CLK 6.92004e-05
39 *169:34 *367:14 9.21914e-05
40 *592:A1 *169:34 0
41 *636:A *895:A 0.000168319
42 *637:A2 *635:A1 1.41976e-05
43 *637:B1 *895:A 4.29019e-05
44 *708:D *169:34 0.000117421
45 *894:A *169:28 0
46 *95:14 *169:28 0
47 *120:28 *169:28 0.000148612
*RES
1 *505:X *169:12 42.8605 
2 *169:12 *169:28 46.9731 
3 *169:28 *169:34 10.2958 
4 *169:34 *635:A1 15.0513 
5 *169:34 *895:A 22.9514 
*END

*D_NET *170 0.00255165
*CONN
*I *896:A I *D sky130_fd_sc_hd__clkbuf_2
*I *638:A1 I *D sky130_fd_sc_hd__mux2i_1
*I *607:Y O *D sky130_fd_sc_hd__xnor2_4
*CAP
1 *896:A 0.000117467
2 *638:A1 1.98947e-05
3 *607:Y 0.000576665
4 *170:10 0.000714027
5 *638:A1 *638:S 6.08467e-05
6 *638:A1 *403:18 2.16355e-05
7 *896:A *439:12 6.56589e-05
8 *896:A *491:78 5.36206e-05
9 *170:10 *439:12 9.29777e-05
10 *170:10 *446:53 0.000811781
11 *170:10 *491:78 1.70745e-05
*RES
1 *607:Y *170:10 24.6236 
2 *170:10 *638:A1 14.4725 
3 *170:10 *896:A 17.2421 
*END

*D_NET *171 0.00327684
*CONN
*I *641:A1 I *D sky130_fd_sc_hd__mux2i_1
*I *897:A I *D sky130_fd_sc_hd__buf_2
*I *737:Y O *D sky130_fd_sc_hd__xnor2_2
*CAP
1 *641:A1 1.94222e-05
2 *897:A 0.000487115
3 *737:Y 0.000316555
4 *171:12 0.000823092
5 *897:A *641:A0 0.000183795
6 *897:A *726:DE 4.7903e-06
7 *897:A *443:10 0.000262669
8 *897:A *450:68 3.82228e-05
9 *897:A *466:33 0.000179185
10 *897:A *466:52 5.69234e-05
11 *171:12 *563:B 0.000250642
12 *171:12 *392:213 6.73169e-05
13 *171:12 *457:16 5.1674e-06
14 *563:A *171:12 1.9447e-05
15 *643:A2 *641:A1 2.58757e-05
16 *643:A2 *897:A 0.000437228
17 *643:A2 *171:12 5.04829e-06
18 *926:A *171:12 9.43419e-05
*RES
1 *737:Y *171:12 27.0417 
2 *171:12 *897:A 42.0798 
3 *171:12 *641:A1 9.97254 
*END

*D_NET *173 0.00337735
*CONN
*I *898:A I *D sky130_fd_sc_hd__buf_2
*I *675:B1 I *D sky130_fd_sc_hd__a221o_1
*I *674:Y O *D sky130_fd_sc_hd__nor2_4
*CAP
1 *898:A 0
2 *675:B1 0.00014935
3 *674:Y 0.000478406
4 *173:16 0.000627756
5 *173:16 *392:12 0.000384419
6 *173:16 *392:171 0.000383703
7 *173:16 *483:12 0.000154145
8 *674:A *173:16 1.17054e-05
9 *675:A1 *675:B1 0.000139727
10 *683:A1 *173:16 5.23577e-05
11 *684:A2 *675:B1 0
12 *684:A2 *173:16 1.92336e-05
13 *686:B_N *173:16 0.000154584
14 *933:A *173:16 0
15 *974:A *675:B1 1.29348e-05
16 *974:A *173:16 0.00015511
17 *41:16 *173:16 4.65954e-06
18 *154:6 *173:16 0.000649254
*RES
1 *674:Y *173:16 37.3484 
2 *173:16 *675:B1 22.1574 
3 *173:16 *898:A 9.24915 
*END

*D_NET *124 0.00145394
*CONN
*I *671:A1 I *D sky130_fd_sc_hd__mux2_4
*I *849:X O *D sky130_fd_sc_hd__clkdlybuf4s50_1
*CAP
1 *671:A1 0.000586983
2 *849:X 0.000586983
3 *671:A1 *670:S 0.00016554
4 *671:A1 *698:DE 0
5 *671:A1 *699:DE 7.98425e-06
6 *671:A1 *849:A 7.09013e-05
7 *671:A1 *481:16 0
8 *670:A1 *671:A1 3.55432e-05
*RES
1 *849:X *671:A1 40.3012 
*END

*D_NET *125 0.00131711
*CONN
*I *672:A1 I *D sky130_fd_sc_hd__mux2_4
*I *850:X O *D sky130_fd_sc_hd__clkdlybuf4s50_1
*CAP
1 *672:A1 0.000530937
2 *850:X 0.000530937
3 *672:A1 *715:DE 4.34143e-05
4 *6:16 *672:A1 0.00021182
*RES
1 *850:X *672:A1 36.9848 
*END

*D_NET *126 0.000744325
*CONN
*I *673:A1 I *D sky130_fd_sc_hd__mux2_4
*I *851:X O *D sky130_fd_sc_hd__dlymetal6s2s_1
*CAP
1 *673:A1 0.000238927
2 *851:X 0.000238927
3 *673:A1 *673:S 4.76161e-06
4 *673:A1 *851:A 0.000160942
5 *673:A1 *881:A 7.22927e-05
6 *673:A1 *491:52 2.84758e-05
*RES
1 *851:X *673:A1 25.3464 
*END

*D_NET *127 0.00162388
*CONN
*I *611:A1 I *D sky130_fd_sc_hd__mux2_4
*I *852:X O *D sky130_fd_sc_hd__clkdlybuf4s50_1
*CAP
1 *611:A1 0.000527564
2 *852:X 0.000527564
3 *611:A1 *611:S 5.03545e-06
4 *611:A1 *478:28 0.000309454
5 *36:10 *611:A1 0.000254261
*RES
1 *852:X *611:A1 39.337 
*END

*D_NET *259 0.0448507
*CONN
*I *581:B I *D sky130_fd_sc_hd__xor3_1
*I *566:A I *D sky130_fd_sc_hd__xor2_2
*I *549:A I *D sky130_fd_sc_hd__xor2_2
*I *551:B I *D sky130_fd_sc_hd__xor2_2
*I *559:B I *D sky130_fd_sc_hd__xor2_1
*I *557:A I *D sky130_fd_sc_hd__xnor3_2
*I *556:B I *D sky130_fd_sc_hd__xor2_1
*I *740:A I *D sky130_fd_sc_hd__xor2_2
*I *554:B I *D sky130_fd_sc_hd__xnor3_2
*I *563:B I *D sky130_fd_sc_hd__xor2_2
*I *545:B I *D sky130_fd_sc_hd__xor2_2
*I *542:B I *D sky130_fd_sc_hd__xor2_1
*I *583:B I *D sky130_fd_sc_hd__xor2_2
*I *589:B I *D sky130_fd_sc_hd__xnor3_2
*I *602:A I *D sky130_fd_sc_hd__xor2_2
*I *598:A I *D sky130_fd_sc_hd__xor2_4
*I *596:B I *D sky130_fd_sc_hd__xor2_1
*I *586:B I *D sky130_fd_sc_hd__xor2_1
*I *584:A I *D sky130_fd_sc_hd__xnor3_2
*I *578:B I *D sky130_fd_sc_hd__xor2_4
*I *576:A I *D sky130_fd_sc_hd__xnor2_2
*I *572:B I *D sky130_fd_sc_hd__xor3_1
*I *727:HI O *D sky130_fd_sc_hd__conb_1
*CAP
1 *581:B 0
2 *566:A 0.000173329
3 *549:A 3.24236e-05
4 *551:B 0.000352993
5 *559:B 8.98636e-05
6 *557:A 0
7 *556:B 0
8 *740:A 0.000987728
9 *554:B 2.60774e-05
10 *563:B 9.40951e-05
11 *545:B 0.000418768
12 *542:B 0
13 *583:B 0.000398759
14 *589:B 1.41765e-05
15 *602:A 1.86244e-05
16 *598:A 0.000760087
17 *596:B 0
18 *586:B 0
19 *584:A 0
20 *578:B 0
21 *576:A 0.000123327
22 *572:B 0.000357491
23 *727:HI 0.000479607
24 *259:290 0.00166807
25 *259:280 0.000791097
26 *259:274 0.000335347
27 *259:263 0.000342097
28 *259:253 0.000928327
29 *259:243 0.0017947
30 *259:231 0.000884142
31 *259:211 0.000613103
32 *259:196 0.000420265
33 *259:192 0.00168038
34 *259:126 0.00158743
35 *259:106 0.00105226
36 *259:97 0.000306957
37 *259:86 0.000335103
38 *259:73 0.000882289
39 *259:60 0.000658409
40 *259:49 0.000156959
41 *259:38 0.00144694
42 *259:30 0.00175027
43 *259:28 0.00150151
44 *259:26 0.00052439
45 *259:22 0.000982717
46 *545:B *543:B 9.64718e-05
47 *545:B *544:B 6.50727e-05
48 *545:B *656:A0 0.000205343
49 *545:B *276:6 4.39405e-05
50 *545:B *413:14 2.36728e-05
51 *551:B *531:C1 1.65872e-05
52 *551:B *531:A1 0.0001283
53 *551:B *531:A2 6.36477e-05
54 *551:B *269:6 0.00015147
55 *551:B *392:230 2.3339e-05
56 *554:B *466:33 0.000107496
57 *559:B *559:A 0.000136545
58 *559:B *443:10 8.62625e-06
59 *559:B *450:56 1.22289e-05
60 *583:B *431:23 0.000184338
61 *598:A *628:A1 4.58003e-05
62 *598:A *664:A0 5.03285e-05
63 *598:A *382:18 0.000119905
64 *598:A *382:20 2.36813e-05
65 *598:A *436:14 0.00021366
66 *598:A *449:90 0.000324981
67 *598:A *454:18 0.000309964
68 *740:A *556:A 6.08467e-05
69 *740:A *367:14 4.31539e-05
70 *740:A *439:12 3.12316e-05
71 *740:A *466:16 2.44451e-05
72 *740:A *466:18 0.000967842
73 *740:A *477:10 6.08467e-05
74 *740:A *491:46 0.000118485
75 *259:22 *506:B2 0.000198429
76 *259:22 *515:B 0.000233853
77 *259:22 *733:B 0
78 *259:22 *736:B 0.000150675
79 *259:22 *758:A1 4.02362e-05
80 *259:22 *758:A2 0
81 *259:22 *301:10 5.37077e-05
82 *259:22 *310:12 1.43991e-05
83 *259:22 *320:16 6.49003e-05
84 *259:22 *460:24 0
85 *259:22 *461:24 1.98663e-05
86 *259:26 *301:10 0.000166732
87 *259:26 *358:20 0
88 *259:26 *377:20 3.71003e-05
89 *259:26 *431:12 0.000561812
90 *259:30 *581:C 0.000153463
91 *259:38 *526:B 3.38524e-05
92 *259:38 *578:A 0.000190979
93 *259:73 *527:B 0.000729468
94 *259:73 *391:18 0.000527516
95 *259:86 *680:A 6.50727e-05
96 *259:86 *408:6 0.000217937
97 *259:86 *408:29 6.08467e-05
98 *259:97 *680:A 5.31074e-05
99 *259:97 *423:10 0.000179286
100 *259:106 *423:10 0.000152146
101 *259:126 *680:A 0
102 *259:126 *680:C 2.27637e-05
103 *259:126 *680:D 0
104 *259:126 *947:A 0.00064682
105 *259:126 *436:14 1.00766e-05
106 *259:126 *454:18 4.76794e-05
107 *259:192 *517:B1 7.69126e-05
108 *259:192 *649:A2 0.00021217
109 *259:192 *993:A 1.70188e-05
110 *259:192 *377:20 1.15862e-05
111 *259:192 *388:28 6.05974e-05
112 *259:192 *435:37 2.26712e-05
113 *259:192 *435:52 8.36586e-06
114 *259:196 *541:B 0.000154434
115 *259:196 *416:10 2.99747e-05
116 *259:196 *435:52 0.000204339
117 *259:196 *435:75 0.00030611
118 *259:211 *541:B 0.000112361
119 *259:211 *280:10 6.08467e-05
120 *259:211 *435:75 9.11446e-05
121 *259:231 *656:A0 0.000135572
122 *259:243 *531:C1 0.000260978
123 *259:243 *656:A0 0.000356558
124 *259:243 *701:DE 0.000203833
125 *259:243 *755:B1 0
126 *259:243 *759:A2 0.000134701
127 *259:243 *884:A 1.5714e-05
128 *259:243 *1039:A 7.40248e-05
129 *259:243 *278:31 0.000331903
130 *259:243 *288:10 0.000363719
131 *259:253 *531:C1 4.24488e-05
132 *259:253 *534:A2 1.16709e-05
133 *259:253 *641:A0 8.36586e-06
134 *259:253 *644:A0 0.000163478
135 *259:253 *644:A1 0.000129931
136 *259:253 *717:CLK 0
137 *259:253 *765:B1 0.00011768
138 *259:253 *1039:A 0.000131571
139 *259:253 *285:18 9.17656e-06
140 *259:253 *370:24 7.78039e-05
141 *259:263 *641:A0 0.000183809
142 *259:263 *644:A0 0.000175444
143 *259:263 *392:213 0
144 *259:263 *443:10 0.000210202
145 *259:274 *392:213 0
146 *259:274 *443:10 0.000217587
147 *259:290 *556:A 6.50727e-05
148 *259:290 *477:10 0.000379445
149 *543:A *545:B 0.000121019
150 *546:B *259:243 0.000160617
151 *554:A *554:B 0.000107496
152 *557:B *559:B 0
153 *557:B *259:274 0
154 *557:C *259:280 4.23874e-05
155 *557:C *259:290 0.000219242
156 *569:A1 *259:26 3.66675e-05
157 *572:A *572:B 0.000316431
158 *576:B *576:A 3.28433e-06
159 *581:A *259:26 3.3403e-05
160 *583:A *583:B 0.000250843
161 *584:B *259:73 3.3403e-05
162 *584:B *259:86 0.000162028
163 *589:A *589:B 6.27782e-05
164 *589:C *259:97 8.07939e-05
165 *589:C *259:106 0.000135968
166 *589:C *259:126 1.53424e-05
167 *594:A *259:126 0
168 *602:B *598:A 0.000143645
169 *602:B *602:A 5.11335e-06
170 *602:B *259:126 3.00829e-05
171 *626:A1 *259:126 9.94119e-05
172 *628:A2 *259:126 7.48797e-05
173 *646:A1 *259:253 0.000522221
174 *646:B1 *259:253 4.09467e-05
175 *649:B1 *259:192 6.36477e-05
176 *696:D *259:253 0.000219686
177 *890:A *583:B 0.00010084
178 *892:A *259:73 0
179 *892:A *259:86 0
180 *953:A *551:B 0.000264923
181 *953:A *259:243 1.94615e-05
182 *953:A *259:253 2.79618e-05
183 *955:A *545:B 0.000113211
184 *984:A *259:280 3.01683e-06
185 *1:10 *259:290 1.31897e-05
186 *8:6 *259:196 0.00023957
187 *10:8 *259:280 6.11359e-06
188 *16:10 *259:86 3.67708e-05
189 *18:12 *576:A 5.65046e-05
190 *18:12 *259:60 2.59855e-05
191 *18:12 *259:73 7.56672e-05
192 *21:18 *545:B 1.07248e-05
193 *23:12 *566:A 6.3657e-05
194 *30:8 *259:86 2.42273e-05
195 *76:22 *566:A 6.3657e-05
196 *76:22 *259:192 8.96634e-05
197 *99:16 *259:192 5.42436e-05
198 *109:16 *589:B 2.58757e-05
199 *164:12 *583:B 9.11614e-05
200 *164:12 *259:38 0.000457833
201 *171:12 *563:B 0.000250642
202 *204:28 *259:38 2.60765e-05
203 *209:10 *259:26 4.18987e-05
204 *220:18 *259:126 0.000127179
205 *251:29 *259:22 0.000561739
206 *253:18 *259:243 0.000140114
207 *254:12 *259:243 6.40849e-05
208 *256:10 *259:243 8.20492e-06
209 *257:10 *545:B 0.000132114
210 *257:10 *259:231 6.04133e-05
211 *257:10 *259:243 0.000158358
*RES
1 *727:HI *259:22 39.564 
2 *259:22 *259:26 20.4506 
3 *259:26 *259:28 0.578717 
4 *259:28 *259:30 6.26943 
5 *259:30 *259:38 21.4607 
6 *259:38 *572:B 17.7611 
7 *259:38 *259:49 4.5 
8 *259:49 *576:A 16.8269 
9 *259:49 *259:60 1.00149 
10 *259:60 *578:B 13.7491 
11 *259:60 *259:73 21.0069 
12 *259:73 *584:A 13.7491 
13 *259:73 *259:86 12.5986 
14 *259:86 *586:B 9.24915 
15 *259:86 *259:97 8.30115 
16 *259:97 *596:B 13.7491 
17 *259:97 *259:106 6.81502 
18 *259:106 *259:126 36.4547 
19 *259:126 *598:A 38.6292 
20 *259:126 *602:A 9.82786 
21 *259:106 *589:B 14.4725 
22 *259:30 *583:B 21.6286 
23 *259:28 *259:192 36.9002 
24 *259:192 *259:196 15.7609 
25 *259:196 *542:B 9.24915 
26 *259:196 *259:211 8.62336 
27 *259:211 *545:B 24.8973 
28 *259:211 *259:231 2.6625 
29 *259:231 *259:243 43.0812 
30 *259:243 *259:253 25.5391 
31 *259:253 *563:B 7.35741 
32 *259:253 *259:263 7.23027 
33 *259:263 *554:B 15.0271 
34 *259:263 *259:274 3.90826 
35 *259:274 *259:280 7.46592 
36 *259:280 *259:290 18.1572 
37 *259:290 *740:A 37.5203 
38 *259:290 *556:B 9.24915 
39 *259:280 *557:A 9.24915 
40 *259:274 *559:B 16.8269 
41 *259:243 *551:B 16.7706 
42 *259:231 *549:A 14.4819 
43 *259:192 *566:A 17.9655 
44 *259:26 *581:B 9.24915 
*END

*D_NET *260 0.00136976
*CONN
*I *513:A I *D sky130_fd_sc_hd__clkinv_1
*I *528:A I *D sky130_fd_sc_hd__xnor2_2
*I *728:HI O *D sky130_fd_sc_hd__conb_1
*CAP
1 *513:A 0.000106116
2 *528:A 0.000176701
3 *728:HI 0
4 *260:4 0.000282817
5 *513:A *719:DE 0.000164843
6 *528:A *575:B 0
7 *528:A *382:90 0.000366603
8 *913:A *528:A 4.70005e-05
9 *1028:A *528:A 0.000107496
10 *156:6 *528:A 0.00011818
*RES
1 *728:HI *260:4 9.24915 
2 *260:4 *528:A 24.5474 
3 *260:4 *513:A 11.0817 
*END

*D_NET *342 0.000698476
*CONN
*P req_msg[0] I
*I *846:A I *D sky130_fd_sc_hd__clkdlybuf4s50_1
*CAP
1 req_msg[0] 0.000130559
2 *846:A 0.000130559
3 *846:A *702:CLK 0.000176284
4 *846:A *392:53 0
5 *853:A *846:A 0.000261075
*RES
1 req_msg[0] *846:A 21.0347 
*END

*D_NET *339 0.000712793
*CONN
*P req_msg[10] I
*I *847:A I *D sky130_fd_sc_hd__clkdlybuf4s50_1
*CAP
1 req_msg[10] 0.000334825
2 *847:A 0.000334825
3 *847:A *611:S 2.29386e-05
4 *847:A *360:8 2.02035e-05
5 resp_msg[10] *847:A 0
6 *864:A *847:A 0
*RES
1 req_msg[10] *847:A 18.3246 
*END

*D_NET *333 0.000384709
*CONN
*P req_msg[11] I
*I *848:A I *D sky130_fd_sc_hd__clkdlybuf4s50_1
*CAP
1 req_msg[11] 0.00016551
2 *848:A 0.00016551
3 *848:A *698:DE 1.44611e-05
4 *848:A *392:99 3.92275e-05
5 resp_msg[12] *848:A 0
*RES
1 req_msg[11] *848:A 18.1948 
*END

*D_NET *330 0.000873804
*CONN
*P req_msg[12] I
*I *849:A I *D sky130_fd_sc_hd__clkdlybuf4s50_1
*CAP
1 req_msg[12] 0.000236153
2 *849:A 0.000236153
3 *849:A *699:DE 0.000330596
4 *671:A1 *849:A 7.09013e-05
*RES
1 req_msg[12] *849:A 21.6912 
*END

*D_NET *327 0.000962747
*CONN
*P req_msg[13] I
*I *850:A I *D sky130_fd_sc_hd__clkdlybuf4s50_1
*CAP
1 req_msg[13] 0.000415518
2 *850:A 0.000415518
3 *850:A *715:DE 0
4 *850:A *360:18 4.90442e-05
5 req_rdy *850:A 8.26668e-05
*RES
1 req_msg[13] *850:A 20.1386 
*END

*D_NET *318 0.000875372
*CONN
*P req_msg[14] I
*I *851:A I *D sky130_fd_sc_hd__dlymetal6s2s_1
*CAP
1 req_msg[14] 0.000346398
2 *851:A 0.000346398
3 *851:A *881:A 2.16355e-05
4 *851:A *360:8 0
5 resp_msg[14] *851:A 0
6 *673:A1 *851:A 0.000160942
*RES
1 req_msg[14] *851:A 25.3508 
*END

*D_NET *317 0.000907928
*CONN
*P req_msg[15] I
*I *852:A I *D sky130_fd_sc_hd__clkdlybuf4s50_1
*CAP
1 req_msg[15] 0.000214563
2 *852:A 0.000214563
3 resp_msg[15] *852:A 2.12195e-05
4 *36:10 *852:A 0.000457582
*RES
1 req_msg[15] *852:A 23.5505 
*END

*D_NET *312 0.00103056
*CONN
*P req_msg[16] I
*I *853:A I *D sky130_fd_sc_hd__clkdlybuf4s50_1
*CAP
1 req_msg[16] 0.000329355
2 *853:A 0.000329355
3 *853:A *695:CLK 0.000103312
4 *853:A *702:CLK 7.46648e-06
5 *853:A *846:A 0.000261075
6 *853:A *392:53 0
*RES
1 req_msg[16] *853:A 27.0799 
*END

*D_NET *309 0.000425404
*CONN
*P req_msg[17] I
*I *854:A I *D sky130_fd_sc_hd__clkdlybuf4s50_1
*CAP
1 req_msg[17] 0.000117859
2 *854:A 0.000117859
3 *854:A *392:53 2.02035e-05
4 *857:A *854:A 0.000169483
*RES
1 req_msg[17] *854:A 18.0187 
*END

*D_NET *303 0.00350888
*CONN
*P req_msg[18] I
*I *855:A I *D sky130_fd_sc_hd__clkdlybuf4s50_1
*CAP
1 req_msg[18] 0.00120432
2 *855:A 0.00120432
3 *855:A *697:DE 0.000113374
4 *855:A *703:DE 0
5 *855:A *703:CLK 0.000193265
6 *855:A *425:12 1.41291e-05
7 resp_msg[2] *855:A 0.000179085
8 *622:A1 *855:A 0
9 *652:A1 *855:A 6.83185e-06
10 *698:D *855:A 0.000160617
11 *703:D *855:A 0
12 *885:A *855:A 0.000116971
13 *966:A *855:A 4.56667e-05
14 *1002:A *855:A 5.69479e-06
15 *32:10 *855:A 0
16 *211:16 *855:A 0.000264614
*RES
1 req_msg[18] *855:A 47.6256 
*END

*D_NET *302 0.000577157
*CONN
*P req_msg[19] I
*I *856:A I *D sky130_fd_sc_hd__clkdlybuf4s50_1
*CAP
1 req_msg[19] 0.000234154
2 *856:A 0.000234154
3 *856:A *382:34 4.823e-05
4 resp_msg[1] *856:A 0
5 resp_msg[3] *856:A 6.0619e-05
*RES
1 req_msg[19] *856:A 21.0347 
*END

*D_NET *298 0.000583556
*CONN
*P req_msg[1] I
*I *857:A I *D sky130_fd_sc_hd__clkdlybuf4s50_1
*CAP
1 req_msg[1] 9.29926e-05
2 *857:A 9.29926e-05
3 *857:A *854:A 0.000169483
4 *857:A *392:53 7.00991e-05
5 resp_msg[1] *857:A 0.000157989
*RES
1 req_msg[1] *857:A 18.8492 
*END

*D_NET *297 0.000263788
*CONN
*P req_msg[20] I
*I *858:A I *D sky130_fd_sc_hd__clkdlybuf4s50_1
*CAP
1 req_msg[20] 7.68884e-05
2 *858:A 7.68884e-05
3 *858:A *382:34 1.21976e-05
4 resp_msg[4] *858:A 3.71946e-05
5 *872:A *858:A 6.0619e-05
*RES
1 req_msg[20] *858:A 18.128 
*END

*D_NET *296 0.000452051
*CONN
*P req_msg[21] I
*I *859:A I *D sky130_fd_sc_hd__clkdlybuf4s50_1
*CAP
1 req_msg[21] 0.000101007
2 *859:A 0.000101007
3 resp_msg[5] *859:A 0.00015724
4 *706:D *859:A 2.02035e-05
5 *873:A *859:A 7.2593e-05
*RES
1 req_msg[21] *859:A 18.0187 
*END

*D_NET *295 0.00068153
*CONN
*P req_msg[22] I
*I *860:A I *D sky130_fd_sc_hd__clkdlybuf4s50_1
*CAP
1 req_msg[22] 0.000210788
2 *860:A 0.000210788
3 *860:A *449:44 6.95223e-05
4 *634:B1 *860:A 0.000150629
5 *874:A *860:A 3.71946e-05
6 *149:12 *860:A 2.60879e-06
*RES
1 req_msg[22] *860:A 20.5102 
*END

*D_NET *294 0.000754014
*CONN
*P req_msg[23] I
*I *861:A I *D sky130_fd_sc_hd__clkdlybuf4s50_1
*CAP
1 req_msg[23] 0.000215991
2 *861:A 0.000215991
3 *861:A resp_msg[7] 0.000143072
4 *861:A *392:188 0.000164829
5 *636:A *861:A 1.41307e-05
*RES
1 req_msg[23] *861:A 20.8579 
*END

*D_NET *281 0.00189355
*CONN
*P req_msg[24] I
*I *862:A I *D sky130_fd_sc_hd__clkdlybuf4s50_1
*CAP
1 req_msg[24] 0.000650475
2 *862:A 0.000650475
3 *862:A resp_msg[8] 0.000112569
4 *862:A *392:207 7.58595e-05
5 *862:A *442:35 1.65872e-05
6 *862:A *490:8 6.05834e-05
7 *639:A *862:A 6.08467e-05
8 *640:B1 *862:A 8.36586e-06
9 *709:D *862:A 0.000257792
*RES
1 req_msg[24] *862:A 30.0911 
*END

*D_NET *279 0.00105184
*CONN
*P req_msg[25] I
*I *863:A I *D sky130_fd_sc_hd__clkdlybuf4s50_1
*CAP
1 req_msg[25] 0.000431914
2 *863:A 0.000431914
3 *863:A *392:207 2.60544e-05
4 *863:A *442:60 0.000161956
5 *725:D *863:A 0
*RES
1 req_msg[25] *863:A 25.4989 
*END

*D_NET *277 0.00188093
*CONN
*P req_msg[26] I
*I *864:A I *D sky130_fd_sc_hd__clkdlybuf4s50_1
*CAP
1 req_msg[26] 0.000453573
2 *864:A 0.000453573
3 *864:A *611:S 0.000254108
4 *864:A *847:A 0
5 *864:A *360:8 0.000249402
6 resp_msg[10] *864:A 0.000159035
7 *645:A *864:A 0.000311235
*RES
1 req_msg[26] *864:A 25.9736 
*END

*D_NET *275 0.0011796
*CONN
*P req_msg[27] I
*I *865:A I *D sky130_fd_sc_hd__clkdlybuf4s50_1
*CAP
1 req_msg[27] 0.000435186
2 *865:A 0.000435186
3 *865:A *651:B 5.66978e-05
4 *865:A *382:107 8.67831e-05
5 *865:A *382:120 1.75176e-05
6 *621:A *865:A 0.000117566
7 *648:A *865:A 3.06627e-05
8 *703:D *865:A 0
9 *866:A *865:A 0
10 *32:10 *865:A 0
*RES
1 req_msg[27] *865:A 27.2432 
*END

*D_NET *273 0.000446006
*CONN
*P req_msg[28] I
*I *866:A I *D sky130_fd_sc_hd__clkdlybuf4s50_1
*CAP
1 req_msg[28] 0.00012565
2 *866:A 0.00012565
3 *866:A *651:B 1.77537e-06
4 *866:A *697:DE 0.000127179
5 *866:A *865:A 0
6 resp_msg[12] *866:A 6.57513e-05
*RES
1 req_msg[28] *866:A 18.1948 
*END

*D_NET *271 0.000920938
*CONN
*P req_msg[29] I
*I *867:A I *D sky130_fd_sc_hd__clkdlybuf4s50_1
*CAP
1 req_msg[29] 0.000306924
2 *867:A 0.000306924
3 resp_msg[13] *867:A 0.00018891
4 *654:A *867:A 0.00011818
5 *886:A *867:A 0
*RES
1 req_msg[29] *867:A 23.2101 
*END

*D_NET *270 0.000526562
*CONN
*P req_msg[2] I
*I *868:A I *D sky130_fd_sc_hd__clkdlybuf4s50_1
*CAP
1 req_msg[2] 0.000263281
2 *868:A 0.000263281
*RES
1 req_msg[2] *868:A 20.0274 
*END

*D_NET *268 0.00104954
*CONN
*P req_msg[30] I
*I *869:A I *D sky130_fd_sc_hd__clkdlybuf4s50_1
*CAP
1 req_msg[30] 0.00027235
2 *869:A 0.00027235
3 *869:A *360:8 2.16551e-05
4 resp_msg[11] *869:A 0.000268544
5 resp_msg[14] *869:A 0.00017534
6 *605:B1 *869:A 3.92987e-05
*RES
1 req_msg[30] *869:A 19.7234 
*END

*D_NET *263 0.000843631
*CONN
*P req_msg[31] I
*I *870:A I *D sky130_fd_sc_hd__clkdlybuf4s50_1
*CAP
1 req_msg[31] 0.000399006
2 *870:A 0.000399006
3 *870:A *656:S 0
4 *870:A *360:8 3.21003e-05
5 resp_msg[15] *870:A 0
6 *2:14 *870:A 1.35179e-05
*RES
1 req_msg[31] *870:A 20.1386 
*END

*D_NET *261 0.00046093
*CONN
*P req_msg[3] I
*I *871:A I *D sky130_fd_sc_hd__clkdlybuf4s50_1
*CAP
1 req_msg[3] 0.000160336
2 *871:A 0.000160336
3 *871:A *382:34 2.02035e-05
4 *871:A *392:51 2.02035e-05
5 resp_msg[3] *871:A 9.98498e-05
6 resp_msg[4] *871:A 0
*RES
1 req_msg[3] *871:A 18.0187 
*END

*D_NET *245 0.00106637
*CONN
*P req_msg[4] I
*I *872:A I *D sky130_fd_sc_hd__clkdlybuf4s50_1
*CAP
1 req_msg[4] 0.00031945
2 *872:A 0.00031945
3 *872:A *720:CLK 0
4 *872:A *858:A 6.0619e-05
5 *872:A *382:34 0.000226601
6 *872:A *382:208 8.14463e-05
7 *627:A *872:A 5.8802e-05
8 *663:A1 *872:A 0
*RES
1 req_msg[4] *872:A 23.0017 
*END

*D_NET *244 0.000247861
*CONN
*P req_msg[5] I
*I *873:A I *D sky130_fd_sc_hd__clkdlybuf4s50_1
*CAP
1 req_msg[5] 8.76339e-05
2 *873:A 8.76339e-05
3 *873:A *859:A 7.2593e-05
*RES
1 req_msg[5] *873:A 18.5432 
*END

*D_NET *243 0.000725329
*CONN
*P req_msg[6] I
*I *874:A I *D sky130_fd_sc_hd__clkdlybuf4s50_1
*CAP
1 req_msg[6] 0.000218587
2 *874:A 0.000218587
3 *874:A *860:A 3.71946e-05
4 *874:A *998:A 0.000182992
5 *874:A *503:20 5.04829e-06
6 *149:12 *874:A 6.29203e-05
*RES
1 req_msg[6] *874:A 23.3426 
*END

*D_NET *241 0.00118475
*CONN
*P req_msg[7] I
*I *875:A I *D sky130_fd_sc_hd__clkdlybuf4s50_1
*CAP
1 req_msg[7] 0.000406308
2 *875:A 0.000406308
3 *875:A *490:8 2.30636e-05
4 resp_msg[6] *875:A 0
5 *878:A *875:A 0
6 *879:A *875:A 0.000147992
7 *880:A *875:A 0.000201077
*RES
1 req_msg[7] *875:A 25.1498 
*END

*D_NET *236 0.00220271
*CONN
*P req_msg[8] I
*I *876:A I *D sky130_fd_sc_hd__dlymetal6s2s_1
*CAP
1 req_msg[8] 0.000669988
2 *876:A 0.000669988
3 *876:A *725:DE 0
4 *876:A *403:18 0.000515817
5 *876:A *450:119 0.000346916
*RES
1 req_msg[8] *876:A 32.7032 
*END

*D_NET *234 0.00184967
*CONN
*P req_msg[9] I
*I *877:A I *D sky130_fd_sc_hd__dlymetal6s2s_1
*CAP
1 req_msg[9] 0.000661998
2 *877:A 0.000661998
3 *877:A resp_msg[9] 0.000315295
4 *877:A *939:A 0
5 *877:A *360:8 1.20478e-05
6 *877:A *446:55 0
7 *668:A1 *877:A 0.000198334
8 *726:D *877:A 0
*RES
1 req_msg[9] *877:A 29.2742 
*END

*D_NET *217 0.000266927
*CONN
*P req_rdy O
*I *881:X O *D sky130_fd_sc_hd__dlygate4sd2_1
*CAP
1 req_rdy 9.21303e-05
2 *881:X 9.21303e-05
3 req_rdy *850:A 8.26668e-05
*RES
1 *881:X req_rdy 17.7892 
*END

*D_NET *232 0.00515846
*CONN
*P req_val I
*I *878:A I *D sky130_fd_sc_hd__dlygate4sd2_1
*CAP
1 req_val 0.0016006
2 *878:A 0.0016006
3 *878:A *676:A 2.65831e-05
4 *878:A *875:A 0
5 *878:A *392:171 1.34424e-05
6 *974:A *878:A 0.000330596
7 *1029:A *878:A 4.33819e-05
8 *154:6 *878:A 0.00154326
*RES
1 req_val *878:A 43.7548 
*END

*D_NET *230 0.000972492
*CONN
*P reset I
*I *879:A I *D sky130_fd_sc_hd__clkdlybuf4s50_1
*CAP
1 reset 0.000154566
2 *879:A 0.000154566
3 *879:A *875:A 0.000147992
4 *879:A *392:171 0.000222149
5 *880:A *879:A 0.00029322
*RES
1 reset *879:A 21.4125 
*END

*D_NET *215 0.00125323
*CONN
*P resp_msg[0] O
*I *882:X O *D sky130_fd_sc_hd__buf_2
*CAP
1 resp_msg[0] 0.000526859
2 *882:X 0.000526859
3 resp_msg[0] *575:B 5.04829e-06
4 resp_msg[0] *910:A 0.000149987
5 *528:B resp_msg[0] 1.19721e-05
6 *882:A resp_msg[0] 3.25087e-05
*RES
1 *882:X resp_msg[0] 23.6337 
*END

*D_NET *212 0.000588583
*CONN
*P resp_msg[10] O
*I *883:X O *D sky130_fd_sc_hd__buf_2
*CAP
1 resp_msg[10] 0.000199564
2 *883:X 0.000199564
3 resp_msg[10] *847:A 0
4 resp_msg[10] *864:A 0.000159035
5 resp_msg[10] *360:8 3.04193e-05
*RES
1 *883:X resp_msg[10] 19.6797 
*END

*D_NET *210 0.0018154
*CONN
*P resp_msg[11] O
*I *884:X O *D sky130_fd_sc_hd__buf_6
*CAP
1 resp_msg[11] 0.000770275
2 *884:X 0.000770275
3 resp_msg[11] *869:A 0.000268544
4 *161:12 resp_msg[11] 6.30541e-06
*RES
1 *884:X resp_msg[11] 19.472 
*END

*D_NET *205 0.000905895
*CONN
*P resp_msg[12] O
*I *885:X O *D sky130_fd_sc_hd__clkbuf_2
*CAP
1 resp_msg[12] 0.000244327
2 *885:X 0.000244327
3 resp_msg[12] *697:DE 0.000290644
4 resp_msg[12] *698:DE 0
5 resp_msg[12] *848:A 0
6 resp_msg[12] *866:A 6.57513e-05
7 resp_msg[12] *392:99 0
8 *885:A resp_msg[12] 6.08467e-05
*RES
1 *885:X resp_msg[12] 21.8249 
*END

*D_NET *203 0.00099055
*CONN
*P resp_msg[13] O
*I *886:X O *D sky130_fd_sc_hd__buf_2
*CAP
1 resp_msg[13] 0.000315183
2 *886:X 0.000315183
3 resp_msg[13] *867:A 0.00018891
4 resp_msg[13] *448:77 0.000171273
5 *699:D resp_msg[13] 0
*RES
1 *886:X resp_msg[13] 22.5189 
*END

*D_NET *201 0.000396352
*CONN
*P resp_msg[14] O
*I *887:X O *D sky130_fd_sc_hd__buf_2
*CAP
1 resp_msg[14] 0.000108065
2 *887:X 0.000108065
3 resp_msg[14] *851:A 0
4 resp_msg[14] *869:A 0.00017534
5 resp_msg[14] *360:8 4.88112e-06
*RES
1 *887:X resp_msg[14] 18.0187 
*END

*D_NET *192 0.000701743
*CONN
*P resp_msg[15] O
*I *888:X O *D sky130_fd_sc_hd__buf_2
*CAP
1 resp_msg[15] 0.000317703
2 *888:X 0.000317703
3 resp_msg[15] *852:A 2.12195e-05
4 resp_msg[15] *870:A 0
5 resp_msg[15] *360:8 4.51176e-05
6 resp_msg[15] *478:28 0
*RES
1 *888:X resp_msg[15] 18.7399 
*END

*D_NET *188 0.00184409
*CONN
*P resp_msg[1] O
*I *889:X O *D sky130_fd_sc_hd__buf_2
*CAP
1 resp_msg[1] 0.000453063
2 *889:X 0.000453063
3 resp_msg[1] *856:A 0
4 resp_msg[1] *857:A 0.000157989
5 resp_msg[1] *392:53 0.000192276
6 resp_msg[1] *431:91 0.000235344
7 resp_msg[1] *431:104 0.000232571
8 resp_msg[3] resp_msg[1] 0
9 *619:A1 resp_msg[1] 0.000109427
10 *702:D resp_msg[1] 1.03594e-05
*RES
1 *889:X resp_msg[1] 27.4159 
*END

*D_NET *186 0.00177021
*CONN
*P resp_msg[2] O
*I *890:X O *D sky130_fd_sc_hd__buf_2
*CAP
1 resp_msg[2] 0.000592179
2 *890:X 0.000592179
3 resp_msg[2] *855:A 0.000179085
4 resp_msg[2] *382:90 7.13613e-05
5 resp_msg[2] *382:94 0
6 *583:A resp_msg[2] 0.000214113
7 *703:D resp_msg[2] 4.15008e-05
8 *890:A resp_msg[2] 7.97944e-05
*RES
1 *890:X resp_msg[2] 29.3671 
*END

*D_NET *183 0.000375271
*CONN
*P resp_msg[3] O
*I *891:X O *D sky130_fd_sc_hd__buf_2
*CAP
1 resp_msg[3] 9.54529e-05
2 *891:X 9.54529e-05
3 resp_msg[3] resp_msg[1] 0
4 resp_msg[3] *856:A 6.0619e-05
5 resp_msg[3] *871:A 9.98498e-05
6 resp_msg[3] *382:34 1.91391e-05
7 resp_msg[4] resp_msg[3] 4.75721e-06
*RES
1 *891:X resp_msg[3] 17.8657 
*END

*D_NET *181 0.00344767
*CONN
*P resp_msg[4] O
*I *892:X O *D sky130_fd_sc_hd__buf_2
*CAP
1 resp_msg[4] 0.00137351
2 *892:X 0.00137351
3 resp_msg[4] resp_msg[3] 4.75721e-06
4 resp_msg[4] *704:CLK 8.26601e-05
5 resp_msg[4] *858:A 3.71946e-05
6 resp_msg[4] *871:A 0
7 resp_msg[4] *213:27 4.47179e-05
8 resp_msg[4] *382:34 0
9 resp_msg[4] *424:18 0.000159038
10 *704:D resp_msg[4] 8.21761e-06
11 *892:A resp_msg[4] 0.000110458
12 *965:A resp_msg[4] 3.67622e-06
13 *165:22 resp_msg[4] 0.000249928
*RES
1 *892:X resp_msg[4] 45.312 
*END

*D_NET *177 0.00075694
*CONN
*P resp_msg[5] O
*I *893:X O *D sky130_fd_sc_hd__buf_2
*CAP
1 resp_msg[5] 0.000269302
2 *893:X 0.000269302
3 resp_msg[5] *859:A 0.00015724
4 resp_msg[5] *436:27 0
5 *706:D resp_msg[5] 6.1096e-05
*RES
1 *893:X resp_msg[5] 19.0022 
*END

*D_NET *175 0.00174824
*CONN
*P resp_msg[6] O
*I *894:X O *D sky130_fd_sc_hd__buf_2
*CAP
1 resp_msg[6] 0.000505306
2 *894:X 0.000505306
3 resp_msg[6] resp_msg[7] 0
4 resp_msg[6] resp_val 0.000340215
5 resp_msg[6] *666:A0 2.38172e-05
6 resp_msg[6] *666:S 0.000209817
7 resp_msg[6] *708:DE 0
8 resp_msg[6] *875:A 0
9 resp_msg[6] *880:A 0
10 resp_msg[6] *439:29 2.77625e-06
11 *666:A1 resp_msg[6] 4.63668e-05
12 *894:A resp_msg[6] 2.58616e-05
13 *95:14 resp_msg[6] 5.87657e-05
14 *155:14 resp_msg[6] 3.00073e-05
*RES
1 *894:X resp_msg[6] 29.7908 
*END

*D_NET *354 0.00098674
*CONN
*P resp_msg[7] O
*I *895:X O *D sky130_fd_sc_hd__buf_2
*CAP
1 resp_msg[7] 0.000305185
2 *895:X 0.000305185
3 resp_msg[7] *708:DE 3.58321e-05
4 resp_msg[7] *490:8 0.000122378
5 resp_msg[6] resp_msg[7] 0
6 *636:A resp_msg[7] 7.50872e-05
7 *861:A resp_msg[7] 0.000143072
*RES
1 *895:X resp_msg[7] 22.7948 
*END

*D_NET *355 0.00122777
*CONN
*P resp_msg[8] O
*I *896:X O *D sky130_fd_sc_hd__clkbuf_2
*CAP
1 resp_msg[8] 0.000366539
2 *896:X 0.000366539
3 resp_msg[8] *392:207 0.000170577
4 resp_msg[8] *442:60 0.000211546
5 *862:A resp_msg[8] 0.000112569
*RES
1 *896:X resp_msg[8] 25.1498 
*END

*D_NET *356 0.00163123
*CONN
*P resp_msg[9] O
*I *897:X O *D sky130_fd_sc_hd__buf_2
*CAP
1 resp_msg[9] 0.000543086
2 *897:X 0.000543086
3 resp_msg[9] *403:52 0.000117754
4 resp_msg[9] *442:82 0.000112013
5 *877:A resp_msg[9] 0.000315295
*RES
1 *897:X resp_msg[9] 20.7505 
*END

*D_NET *226 0.00184886
*CONN
*P resp_rdy I
*I *880:A I *D sky130_fd_sc_hd__dlymetal6s2s_1
*CAP
1 resp_rdy 0.000389576
2 *880:A 0.000389576
3 *880:A resp_val 0.000125755
4 *880:A *875:A 0.000201077
5 *880:A *879:A 0.00029322
6 *880:A *490:8 0.000257044
7 resp_msg[6] *880:A 0
8 *155:14 *880:A 2.652e-05
9 *172:6 *880:A 0.000166091
*RES
1 resp_rdy *880:A 29.1588 
*END

*D_NET *357 0.00251151
*CONN
*P resp_val O
*I *898:X O *D sky130_fd_sc_hd__buf_2
*CAP
1 resp_val 0.000702465
2 *898:X 0.000702465
3 resp_val *392:171 0.000334115
4 resp_msg[6] resp_val 0.000340215
5 *684:A2 resp_val 0.00030649
6 *880:A resp_val 0.000125755
*RES
1 *898:X resp_val 30.755 
*END
