*SPEF "ieee 1481-1999"
*DESIGN "gcd"
*DATE "06:05:43 Thursday October 08, 2026"
*VENDOR "The OpenROAD Project"
*PROGRAM "OpenROAD"
*VERSION "unknown"
*DESIGN_FLOW "NAME_SCOPE LOCAL" "PIN_CAP NONE"
*DIVIDER /
*DELIMITER :
*BUS_DELIMITER []
*T_UNIT 1 NS
*C_UNIT 1 PF
*R_UNIT 1 OHM
*L_UNIT 1 HENRY

*NAME_MAP
*2 _001_
*3 _002_
*4 _003_
*5 _004_
*6 _005_
*7 _006_
*8 _007_
*9 _008_
*10 _009_
*11 _010_
*12 _011_
*13 _012_
*14 _013_
*15 _014_
*16 _015_
*17 _016_
*18 _017_
*19 _018_
*20 _019_
*21 _020_
*22 _021_
*23 _022_
*24 _023_
*25 _024_
*26 _025_
*27 _026_
*28 _027_
*29 _028_
*30 _029_
*31 _030_
*32 _031_
*33 _032_
*34 _033_
*35 _034_
*36 _035_
*37 _036_
*38 _037_
*39 _038_
*40 _039_
*41 _040_
*42 _041_
*43 _042_
*44 _043_
*45 _044_
*46 _045_
*47 _046_
*48 _047_
*49 _048_
*50 _049_
*51 _050_
*52 _051_
*53 _052_
*54 _053_
*55 _054_
*56 _055_
*57 _056_
*58 _057_
*59 _058_
*60 _059_
*61 _060_
*62 _061_
*63 _062_
*64 _063_
*65 _064_
*66 _065_
*67 _066_
*68 _067_
*69 _068_
*70 _069_
*71 _070_
*72 _071_
*73 _072_
*74 _073_
*75 _074_
*76 _075_
*77 _076_
*78 _077_
*79 _078_
*80 _079_
*81 _080_
*82 _081_
*83 _082_
*84 _083_
*85 _084_
*86 _085_
*87 _086_
*88 _087_
*89 _088_
*90 _089_
*91 _090_
*92 _091_
*93 _092_
*94 _093_
*95 _094_
*96 _095_
*97 _096_
*98 _097_
*99 _098_
*100 _099_
*101 _100_
*102 _101_
*103 _102_
*104 _103_
*105 _104_
*106 _105_
*107 _106_
*108 _107_
*109 _108_
*110 _109_
*111 _110_
*112 _111_
*113 _112_
*114 _113_
*115 _114_
*116 _115_
*117 _116_
*118 _117_
*119 _118_
*255 _119_/_000_
*252 _119_/_001_
*247 _119_/_002_
*242 _119_/_003_
*240 _119_/_004_
*239 _119_/_005_
*237 _119_/_006_
*235 _119_/_007_
*233 _119_/_008_
*231 _119_/_009_
*229 _119_/_010_
*228 _119_/_011_
*227 _119_/_012_
*224 _119_/_013_
*222 _119_/_014_
*221 _119_/_015_
*220 _119_/_016_
*219 _119_/_017_
*218 _119_/_018_
*216 _119_/_019_
*214 _119_/_020_
*213 _119_/_021_
*211 _119_/_022_
*209 _119_/_023_
*208 _119_/_024_
*207 _119_/_025_
*206 _119_/_026_
*204 _119_/_027_
*202 _119_/_028_
*200 _119_/_029_
*198 _119_/_030_
*196 _119_/_031_
*195 _119_/_032_
*194 _119_/_033_
*193 _119_/_034_
*199 _119_/_035_
*191 _119_/_036_
*190 _119_/_037_
*189 _119_/_038_
*187 _119_/_039_
*185 _119_/_040_
*184 _119_/_041_
*182 _119_/_042_
*180 _119_/_043_
*179 _119_/_044_
*178 _119_/_045_
*176 _119_/_046_
*174 _119_/_047_
*1 _119_/_048_
*262 _119_/_049_
*264 _119_/_050_
*265 _119_/_051_
*266 _119_/_052_
*267 _119_/_053_
*269 _119_/_054_
*246 _119_/_055_
*272 _119_/_056_
*256 _119_/_057_
*258 _119_/_058_
*274 _119_/_059_
*276 _119_/_060_
*257 _119_/_061_
*278 _119_/_062_
*280 _119_/_063_
*282 _119_/_064_
*283 _119_/_065_
*284 _119_/_066_
*285 _119_/_067_
*286 _119_/_068_
*287 _119_/_069_
*288 _119_/_070_
*289 _119_/_071_
*290 _119_/_072_
*291 _119_/_073_
*292 _119_/_074_
*293 _119_/_075_
*299 _119_/_076_
*300 _119_/_077_
*301 _119_/_078_
*304 _119_/_079_
*305 _119_/_080_
*306 _119_/_081_
*307 _119_/_082_
*308 _119_/_083_
*310 _119_/_084_
*197 _119_/_085_
*311 _119_/_086_
*313 _119_/_087_
*314 _119_/_088_
*315 _119_/_089_
*316 _119_/_090_
*251 _119_/_091_
*319 _119_/_092_
*320 _119_/_093_
*321 _119_/_094_
*322 _119_/_095_
*323 _119_/_096_
*324 _119_/_097_
*325 _119_/_098_
*326 _119_/_099_
*328 _119_/_100_
*329 _119_/_101_
*225 _119_/_102_
*331 _119_/_103_
*332 _119_/_104_
*334 _119_/_105_
*223 _119_/_106_
*335 _119_/_107_
*336 _119_/_108_
*337 _119_/_109_
*250 _119_/_110_
*338 _119_/_111_
*340 _119_/_112_
*341 _119_/_113_
*254 _119_/_114_
*343 _119_/_115_
*344 _119_/_116_
*345 _119_/_117_
*346 _119_/_118_
*238 _119_/_119_
*347 _119_/_120_
*349 _119_/_121_
*350 _119_/_122_
*351 _119_/_123_
*352 _119_/_124_
*253 _119_/_125_
*249 _119_/_126_
*248 _119_/_127_
*360 _119_/net153
*362 _119_/net154
*363 _119_/net155
*364 _119_/net156
*437 _119_/net157
*365 _119_/net158
*366 _119_/net159
*367 _119_/net161
*439 _119_/net162
*368 _119_/net163
*370 _119_/net164
*371 _119_/net165
*372 _119_/net166
*373 _119_/net167
*369 _119_/net168
*440 _119_/net170
*375 _119_/net171
*376 _119_/net172
*377 _119_/net173
*441 _119_/net174
*442 _119_/net175
*379 _119_/net176
*382 _119_/net178
*381 _119_/net179
*378 _119_/net180
*383 _119_/net181
*388 _119_/net188
*389 _119_/net189
*385 _119_/net190
*390 _119_/net191
*392 _119_/net192
*393 _119_/net193
*396 _119_/net194
*397 _119_/net195
*417 _119_/net216
*449 _119_/net231
*450 _119_/net232
*451 _119_/net233
*453 _119_/net235
*455 _119_/net237
*456 _119_/net238
*462 _119_/net252
*463 _119_/net257
*469 _119_/net415
*470 _119_/net416
*472 _119_/net418
*479 _119_/net441
*480 _119_/net442
*482 _119_/net444
*484 _119_/net456
*485 _119_/net457
*488 _119_/net460
*358 _119_/net576
*475 _119_/net586
*120 clk
*429 clknet_0_clk
*427 clknet_2_0__leaf_clk
*446 clknet_2_1__leaf_clk
*447 clknet_2_2__leaf_clk
*448 clknet_2_3__leaf_clk
*128 net10
*129 net11
*130 net12
*131 net13
*132 net14
*430 net143
*431 net144
*359 net145
*433 net148
*434 net149
*133 net15
*435 net150
*436 net151
*361 net152
*134 net16
*374 net169
*135 net17
*136 net18
*384 net182
*443 net183
*444 net184
*445 net185
*386 net186
*387 net187
*137 net19
*398 net196
*399 net197
*400 net198
*401 net199
*138 net20
*402 net200
*403 net201
*404 net202
*405 net203
*406 net204
*407 net205
*408 net206
*409 net207
*410 net208
*411 net209
*139 net21
*395 net210
*412 net211
*413 net212
*414 net213
*415 net214
*416 net217
*418 net218
*140 net22
*420 net220
*421 net221
*422 net222
*423 net223
*424 net224
*394 net226
*425 net227
*426 net228
*391 net229
*141 net23
*428 net230
*452 net234
*454 net236
*457 net239
*142 net24
*458 net240
*459 net241
*460 net244
*143 net25
*461 net250
*144 net26
*145 net27
*146 net28
*147 net29
*121 net3
*148 net30
*149 net31
*465 net318
*150 net32
*467 net320
*151 net33
*152 net34
*154 net35
*155 net36
*172 net37
*153 net38
*156 net39
*122 net4
*157 net40
*158 net41
*468 net414
*471 net417
*159 net42
*473 net420
*380 net422
*474 net424
*476 net426
*160 net43
*477 net439
*161 net44
*478 net440
*481 net443
*162 net45
*483 net451
*486 net458
*487 net459
*163 net46
*164 net47
*165 net48
*166 net49
*123 net5
*167 net50
*168 net51
*169 net52
*170 net53
*171 net54
*173 net55
*466 net578
*438 net581
*464 net584
*432 net585
*124 net6
*125 net7
*126 net8
*127 net9
*259 net_1
*260 net_2
*342 req_msg[0]
*339 req_msg[10]
*333 req_msg[11]
*330 req_msg[12]
*327 req_msg[13]
*318 req_msg[14]
*317 req_msg[15]
*312 req_msg[16]
*309 req_msg[17]
*303 req_msg[18]
*302 req_msg[19]
*298 req_msg[1]
*297 req_msg[20]
*296 req_msg[21]
*295 req_msg[22]
*294 req_msg[23]
*281 req_msg[24]
*279 req_msg[25]
*277 req_msg[26]
*275 req_msg[27]
*273 req_msg[28]
*271 req_msg[29]
*270 req_msg[2]
*268 req_msg[30]
*263 req_msg[31]
*261 req_msg[3]
*245 req_msg[4]
*244 req_msg[5]
*243 req_msg[6]
*241 req_msg[7]
*236 req_msg[8]
*234 req_msg[9]
*217 req_rdy
*232 req_val
*230 reset
*215 resp_msg[0]
*212 resp_msg[10]
*210 resp_msg[11]
*205 resp_msg[12]
*203 resp_msg[13]
*201 resp_msg[14]
*192 resp_msg[15]
*188 resp_msg[1]
*186 resp_msg[2]
*183 resp_msg[3]
*181 resp_msg[4]
*177 resp_msg[5]
*175 resp_msg[6]
*354 resp_msg[7]
*355 resp_msg[8]
*356 resp_msg[9]
*226 resp_rdy
*357 resp_val
*1014 FILLER_0_132
*1015 FILLER_0_159
*939 FILLER_0_19
*1012 FILLER_0_21
*1013 FILLER_0_51
*1056 FILLER_10_106
*1053 FILLER_10_28
*1054 FILLER_10_50
*1055 FILLER_10_67
*1059 FILLER_11_145
*1057 FILLER_11_33
*1058 FILLER_11_37
*1061 FILLER_12_145
*1060 FILLER_12_88
*1063 FILLER_13_116
*1062 FILLER_13_71
*1065 FILLER_14_107
*1066 FILLER_14_142
*1067 FILLER_14_158
*1064 FILLER_14_42
*1068 FILLER_15_53
*1069 FILLER_15_82
*1073 FILLER_16_117
*1074 FILLER_16_137
*1075 FILLER_16_151
*1071 FILLER_16_19
*1072 FILLER_16_37
*1070 FILLER_16_8
*1079 FILLER_17_158
*1076 FILLER_17_3
*1077 FILLER_17_32
*1078 FILLER_17_58
*1084 FILLER_18_159
*1081 FILLER_18_18
*1082 FILLER_18_22
*1083 FILLER_18_43
*1080 FILLER_18_6
*1086 FILLER_19_102
*1085 FILLER_19_41
*1017 FILLER_1_157
*1018 FILLER_1_159
*1016 FILLER_1_36
*1089 FILLER_20_159
*1087 FILLER_20_83
*1088 FILLER_20_97
*1090 FILLER_21_32
*1091 FILLER_21_43
*1092 FILLER_21_90
*1093 FILLER_22_148
*1094 FILLER_22_151
*1095 FILLER_23_112
*1096 FILLER_23_119
*1097 FILLER_23_121
*1098 FILLER_23_129
*1103 FILLER_24_157
*1104 FILLER_24_159
*1099 FILLER_24_16
*1100 FILLER_24_42
*1101 FILLER_24_82
*1102 FILLER_24_97
*1107 FILLER_25_107
*1108 FILLER_25_133
*1109 FILLER_25_142
*1110 FILLER_25_157
*1111 FILLER_25_159
*1105 FILLER_25_21
*1106 FILLER_25_38
*1023 FILLER_2_151
*1019 FILLER_2_4
*1020 FILLER_2_47
*1021 FILLER_2_49
*1022 FILLER_2_98
*1025 FILLER_3_110
*1024 FILLER_3_36
*1028 FILLER_4_105
*1029 FILLER_4_151
*1030 FILLER_4_153
*1026 FILLER_4_28
*1027 FILLER_4_65
*1031 FILLER_5_0
*1035 FILLER_5_159
*1032 FILLER_5_43
*1033 FILLER_5_59
*1034 FILLER_5_89
*1038 FILLER_6_117
*1039 FILLER_6_121
*1040 FILLER_6_136
*1041 FILLER_6_159
*1036 FILLER_6_23
*1037 FILLER_6_46
*1044 FILLER_7_114
*1042 FILLER_7_8
*1043 FILLER_7_89
*1046 FILLER_8_120
*1047 FILLER_8_135
*1048 FILLER_8_151
*1045 FILLER_8_42
*1051 FILLER_9_110
*1052 FILLER_9_133
*1049 FILLER_9_45
*1050 FILLER_9_53
*755 TAP_TAPCELL_ROW_0_0
*756 TAP_TAPCELL_ROW_0_1
*757 TAP_TAPCELL_ROW_0_2
*758 TAP_TAPCELL_ROW_0_3
*759 TAP_TAPCELL_ROW_0_4
*782 TAP_TAPCELL_ROW_10_27
*783 TAP_TAPCELL_ROW_10_28
*784 TAP_TAPCELL_ROW_10_29
*785 TAP_TAPCELL_ROW_11_30
*786 TAP_TAPCELL_ROW_11_31
*787 TAP_TAPCELL_ROW_12_32
*788 TAP_TAPCELL_ROW_12_33
*789 TAP_TAPCELL_ROW_12_34
*790 TAP_TAPCELL_ROW_13_35
*791 TAP_TAPCELL_ROW_13_36
*792 TAP_TAPCELL_ROW_14_37
*793 TAP_TAPCELL_ROW_14_38
*794 TAP_TAPCELL_ROW_14_39
*795 TAP_TAPCELL_ROW_15_40
*796 TAP_TAPCELL_ROW_15_41
*797 TAP_TAPCELL_ROW_16_42
*798 TAP_TAPCELL_ROW_16_43
*799 TAP_TAPCELL_ROW_16_44
*800 TAP_TAPCELL_ROW_17_45
*801 TAP_TAPCELL_ROW_17_46
*802 TAP_TAPCELL_ROW_18_47
*803 TAP_TAPCELL_ROW_18_48
*804 TAP_TAPCELL_ROW_18_49
*805 TAP_TAPCELL_ROW_19_50
*806 TAP_TAPCELL_ROW_19_51
*760 TAP_TAPCELL_ROW_1_5
*761 TAP_TAPCELL_ROW_1_6
*807 TAP_TAPCELL_ROW_20_52
*808 TAP_TAPCELL_ROW_20_53
*809 TAP_TAPCELL_ROW_20_54
*810 TAP_TAPCELL_ROW_21_55
*811 TAP_TAPCELL_ROW_21_56
*812 TAP_TAPCELL_ROW_22_57
*813 TAP_TAPCELL_ROW_22_58
*814 TAP_TAPCELL_ROW_22_59
*815 TAP_TAPCELL_ROW_23_60
*816 TAP_TAPCELL_ROW_23_61
*817 TAP_TAPCELL_ROW_24_62
*818 TAP_TAPCELL_ROW_24_63
*819 TAP_TAPCELL_ROW_24_64
*820 TAP_TAPCELL_ROW_25_65
*821 TAP_TAPCELL_ROW_25_66
*822 TAP_TAPCELL_ROW_25_67
*823 TAP_TAPCELL_ROW_25_68
*824 TAP_TAPCELL_ROW_25_69
*762 TAP_TAPCELL_ROW_2_7
*763 TAP_TAPCELL_ROW_2_8
*764 TAP_TAPCELL_ROW_2_9
*765 TAP_TAPCELL_ROW_3_10
*766 TAP_TAPCELL_ROW_3_11
*767 TAP_TAPCELL_ROW_4_12
*768 TAP_TAPCELL_ROW_4_13
*769 TAP_TAPCELL_ROW_4_14
*770 TAP_TAPCELL_ROW_5_15
*771 TAP_TAPCELL_ROW_5_16
*772 TAP_TAPCELL_ROW_6_17
*773 TAP_TAPCELL_ROW_6_18
*774 TAP_TAPCELL_ROW_6_19
*775 TAP_TAPCELL_ROW_7_20
*776 TAP_TAPCELL_ROW_7_21
*777 TAP_TAPCELL_ROW_8_22
*778 TAP_TAPCELL_ROW_8_23
*779 TAP_TAPCELL_ROW_8_24
*780 TAP_TAPCELL_ROW_9_25
*781 TAP_TAPCELL_ROW_9_26
*590 _119_/_128_
*589 _119_/_129_
*588 _119_/_130_
*587 _119_/_131_
*586 _119_/_132_
*585 _119_/_133_
*584 _119_/_134_
*583 _119_/_135_
*582 _119_/_136_
*581 _119_/_137_
*580 _119_/_138_
*579 _119_/_139_
*578 _119_/_140_
*577 _119_/_141_
*576 _119_/_142_
*575 _119_/_143_
*574 _119_/_144_
*573 _119_/_145_
*572 _119_/_146_
*571 _119_/_147_
*570 _119_/_148_
*569 _119_/_149_
*568 _119_/_150_
*567 _119_/_151_
*566 _119_/_152_
*565 _119_/_153_
*564 _119_/_154_
*563 _119_/_155_
*562 _119_/_156_
*561 _119_/_157_
*560 _119_/_158_
*559 _119_/_159_
*558 _119_/_160_
*557 _119_/_161_
*556 _119_/_162_
*555 _119_/_163_
*554 _119_/_164_
*553 _119_/_165_
*552 _119_/_166_
*551 _119_/_167_
*550 _119_/_168_
*549 _119_/_169_
*548 _119_/_170_
*547 _119_/_171_
*546 _119_/_172_
*545 _119_/_173_
*544 _119_/_174_
*543 _119_/_175_
*542 _119_/_176_
*541 _119_/_177_
*540 _119_/_178_
*539 _119_/_179_
*538 _119_/_180_
*537 _119_/_181_
*536 _119_/_182_
*535 _119_/_183_
*534 _119_/_184_
*533 _119_/_185_
*532 _119_/_186_
*531 _119_/_187_
*530 _119_/_188_
*529 _119_/_189_
*528 _119_/_190_
*527 _119_/_191_
*526 _119_/_192_
*525 _119_/_193_
*524 _119_/_194_
*523 _119_/_195_
*522 _119_/_196_
*521 _119_/_197_
*520 _119_/_198_
*519 _119_/_199_
*518 _119_/_200_
*517 _119_/_201_
*516 _119_/_202_
*515 _119_/_203_
*514 _119_/_204_
*513 _119_/_205_
*512 _119_/_206_
*511 _119_/_207_
*510 _119_/_208_
*509 _119_/_209_
*508 _119_/_210_
*507 _119_/_211_
*506 _119_/_212_
*505 _119_/_213_
*504 _119_/_214_
*503 _119_/_215_
*502 _119_/_216_
*501 _119_/_217_
*500 _119_/_218_
*499 _119_/_219_
*498 _119_/_220_
*497 _119_/_221_
*496 _119_/_222_
*495 _119_/_223_
*494 _119_/_224_
*493 _119_/_225_
*492 _119_/_226_
*491 _119_/_227_
*490 _119_/_228_
*489 _119_/_229_
*591 _119_/_230_
*713 _119_/_231_
*714 _119_/_232_
*715 _119_/_233_
*716 _119_/_234_
*717 _119_/_235_
*718 _119_/_236_
*719 _119_/_237_
*720 _119_/_238_
*721 _119_/_239_
*722 _119_/_240_
*723 _119_/_241_
*724 _119_/_242_
*725 _119_/_243_
*726 _119_/_244_
*727 _119_/_245_
*728 _119_/_246_
*729 _119_/_247_
*730 _119_/_248_
*731 _119_/_249_
*732 _119_/_250_
*733 _119_/_251_
*734 _119_/_252_
*735 _119_/_253_
*736 _119_/_254_
*737 _119_/_255_
*738 _119_/_256_
*739 _119_/_257_
*740 _119_/_258_
*741 _119_/_259_
*742 _119_/_260_
*743 _119_/_261_
*744 _119_/_262_
*745 _119_/_263_
*746 _119_/_264_
*747 _119_/_265_
*748 _119_/_266_
*749 _119_/_267_
*750 _119_/_268_
*751 _119_/_269_
*752 _119_/_270_
*753 _119_/_271_
*754 _119_/_272_
*880 _119_/place138
*882 _119_/place139
*883 _119_/place140
*884 _119_/place141
*957 _119_/place142
*885 _119_/place143
*886 _119_/place144
*887 _119_/place146
*959 _119_/place147
*888 _119_/place148
*890 _119_/place149
*891 _119_/place150
*892 _119_/place151
*893 _119_/place152
*889 _119_/place153
*960 _119_/place155
*895 _119_/place156
*896 _119_/place157
*897 _119_/place158
*961 _119_/place159
*962 _119_/place160
*899 _119_/place161
*902 _119_/place163
*901 _119_/place164
*898 _119_/place165
*903 _119_/place166
*908 _119_/place173
*909 _119_/place174
*905 _119_/place175
*910 _119_/place176
*912 _119_/place177
*913 _119_/place178
*916 _119_/place179
*917 _119_/place180
*937 _119_/place200
*972 _119_/rebuffer214
*973 _119_/rebuffer215
*974 _119_/rebuffer216
*976 _119_/rebuffer218
*978 _119_/rebuffer220
*979 _119_/rebuffer221
*985 _119_/rebuffer234
*986 _119_/rebuffer239
*992 _119_/rebuffer397
*993 _119_/rebuffer398
*995 _119_/rebuffer400
*1002 _119_/rebuffer422
*1003 _119_/rebuffer423
*1005 _119_/rebuffer425
*1007 _119_/rebuffer437
*1008 _119_/rebuffer438
*1011 _119_/rebuffer441
*878 _119_/rebuffer557
*998 _119_/rebuffer567
*711 _119__1
*712 _119__2
*592 _121_
*593 _122_
*594 _123_
*595 _124_
*596 _125_
*597 _126_
*598 _127_
*599 _128_
*600 _129_
*601 _130_
*602 _131_
*603 _132_
*604 _133_
*605 _134_
*606 _135_
*607 _136_
*608 _137_
*609 _138_
*610 _139_
*611 _140_
*612 _141_
*613 _142_
*614 _143_
*615 _144_
*616 _145_
*617 _146_
*618 _147_
*619 _148_
*620 _149_
*621 _150_
*622 _151_
*623 _152_
*624 _153_
*625 _154_
*626 _155_
*627 _156_
*628 _157_
*629 _158_
*630 _159_
*631 _160_
*632 _161_
*633 _162_
*634 _163_
*635 _164_
*636 _165_
*637 _166_
*638 _167_
*639 _168_
*640 _169_
*641 _170_
*642 _171_
*643 _172_
*644 _173_
*645 _174_
*646 _175_
*647 _176_
*648 _177_
*649 _178_
*650 _179_
*651 _180_
*652 _181_
*653 _182_
*654 _183_
*655 _184_
*656 _185_
*657 _186_
*658 _187_
*659 _188_
*660 _189_
*661 _190_
*662 _191_
*663 _192_
*664 _193_
*665 _194_
*666 _195_
*667 _196_
*668 _197_
*669 _198_
*670 _199_
*671 _200_
*672 _201_
*673 _202_
*674 _203_
*675 _204_
*949 clkbuf_0_clk
*947 clkbuf_2_0__f_clk
*966 clkbuf_2_1__f_clk
*967 clkbuf_2_2__f_clk
*968 clkbuf_2_3__f_clk
*969 clkload0
*970 clkload1
*971 clkload2
*958 clone562
*676 ctrl\.state\.out\[0\]\$_DFF_P_
*677 ctrl\.state\.out\[1\]\$_DFF_P_
*678 ctrl\.state\.out\[2\]\$_DFF_P_
*679 dpath\.a_reg\.out\[0\]\$_DFFE_PP_
*680 dpath\.a_reg\.out\[10\]\$_DFFE_PP_
*681 dpath\.a_reg\.out\[11\]\$_DFFE_PP_
*682 dpath\.a_reg\.out\[12\]\$_DFFE_PP_
*683 dpath\.a_reg\.out\[13\]\$_DFFE_PP_
*684 dpath\.a_reg\.out\[14\]\$_DFFE_PP_
*685 dpath\.a_reg\.out\[15\]\$_DFFE_PP_
*686 dpath\.a_reg\.out\[1\]\$_DFFE_PP_
*687 dpath\.a_reg\.out\[2\]\$_DFFE_PP_
*688 dpath\.a_reg\.out\[3\]\$_DFFE_PP_
*689 dpath\.a_reg\.out\[4\]\$_DFFE_PP_
*690 dpath\.a_reg\.out\[5\]\$_DFFE_PP_
*691 dpath\.a_reg\.out\[6\]\$_DFFE_PP_
*692 dpath\.a_reg\.out\[7\]\$_DFFE_PP_
*693 dpath\.a_reg\.out\[8\]\$_DFFE_PP_
*694 dpath\.a_reg\.out\[9\]\$_DFFE_PP_
*695 dpath\.b_reg\.out\[0\]\$_DFFE_PP_
*696 dpath\.b_reg\.out\[10\]\$_DFFE_PP_
*697 dpath\.b_reg\.out\[11\]\$_DFFE_PP_
*698 dpath\.b_reg\.out\[12\]\$_DFFE_PP_
*699 dpath\.b_reg\.out\[13\]\$_DFFE_PP_
*700 dpath\.b_reg\.out\[14\]\$_DFFE_PP_
*701 dpath\.b_reg\.out\[15\]\$_DFFE_PP_
*702 dpath\.b_reg\.out\[1\]\$_DFFE_PP_
*703 dpath\.b_reg\.out\[2\]\$_DFFE_PP_
*704 dpath\.b_reg\.out\[3\]\$_DFFE_PP_
*705 dpath\.b_reg\.out\[4\]\$_DFFE_PP_
*706 dpath\.b_reg\.out\[5\]\$_DFFE_PP_
*707 dpath\.b_reg\.out\[6\]\$_DFFE_PP_
*708 dpath\.b_reg\.out\[7\]\$_DFFE_PP_
*709 dpath\.b_reg\.out\[8\]\$_DFFE_PP_
*710 dpath\.b_reg\.out\[9\]\$_DFFE_PP_
*832 input10
*833 input11
*834 input12
*835 input13
*836 input14
*837 input15
*838 input16
*839 input17
*840 input18
*841 input19
*842 input20
*843 input21
*844 input22
*845 input23
*846 input24
*847 input25
*848 input26
*849 input27
*850 input28
*851 input29
*825 input3
*852 input30
*853 input31
*854 input32
*855 input33
*856 input34
*857 input35
*858 input36
*859 input37
*826 input4
*827 input5
*828 input6
*829 input7
*830 input8
*831 input9
*860 output38
*861 output39
*862 output40
*863 output41
*864 output42
*865 output43
*866 output44
*867 output45
*868 output46
*869 output47
*870 output48
*871 output49
*872 output50
*873 output51
*874 output52
*875 output53
*876 output54
*877 output55
*950 place128
*951 place129
*879 place130
*953 place133
*954 place134
*955 place135
*956 place136
*881 place137
*894 place154
*904 place167
*963 place168
*964 place169
*965 place170
*906 place171
*907 place172
*918 place181
*919 place182
*920 place183
*921 place184
*922 place185
*923 place186
*924 place187
*925 place188
*926 place189
*927 place190
*928 place191
*929 place192
*930 place193
*931 place194
*915 place195
*932 place196
*933 place197
*934 place198
*935 place199
*936 place201
*938 place202
*940 place204
*941 place205
*942 place206
*943 place207
*944 place208
*914 place209
*945 place210
*946 place211
*911 place212
*948 place213
*975 rebuffer217
*977 rebuffer219
*980 rebuffer222
*981 rebuffer223
*982 rebuffer224
*983 rebuffer227
*984 rebuffer233
*988 rebuffer300
*990 rebuffer302
*991 rebuffer396
*994 rebuffer399
*996 rebuffer402
*900 rebuffer404
*997 rebuffer406
*999 rebuffer408
*1000 rebuffer420
*1001 rebuffer421
*1004 rebuffer424
*1006 rebuffer432
*1009 rebuffer439
*1010 rebuffer440
*989 rebuffer559
*987 rebuffer565
*952 rebuffer566

*PORTS
clk I
req_msg[0] I
req_msg[10] I
req_msg[11] I
req_msg[12] I
req_msg[13] I
req_msg[14] I
req_msg[15] I
req_msg[16] I
req_msg[17] I
req_msg[18] I
req_msg[19] I
req_msg[1] I
req_msg[20] I
req_msg[21] I
req_msg[22] I
req_msg[23] I
req_msg[24] I
req_msg[25] I
req_msg[26] I
req_msg[27] I
req_msg[28] I
req_msg[29] I
req_msg[2] I
req_msg[30] I
req_msg[31] I
req_msg[3] I
req_msg[4] I
req_msg[5] I
req_msg[6] I
req_msg[7] I
req_msg[8] I
req_msg[9] I
req_rdy O
req_val I
reset I
resp_msg[0] O
resp_msg[10] O
resp_msg[11] O
resp_msg[12] O
resp_msg[13] O
resp_msg[14] O
resp_msg[15] O
resp_msg[1] O
resp_msg[2] O
resp_msg[3] O
resp_msg[4] O
resp_msg[5] O
resp_msg[6] O
resp_msg[7] O
resp_msg[8] O
resp_msg[9] O
resp_rdy I
resp_val O

*D_NET *2 0.00160403
*CONN
*I *534:A I *D sky130_fd_sc_hd__xnor2_1
*I *943:A I *D sky130_fd_sc_hd__buf_4
*I *685:Q O *D sky130_fd_sc_hd__edfxtp_1
*CAP
1 *534:A 0.000191871
2 *943:A 3.13783e-05
3 *685:Q 0.000231867
4 *2:10 0.000455116
5 *534:A *534:B 6.64392e-05
6 *534:A *751:A 6.36477e-05
7 *534:A *269:12 0.000153007
8 *534:A *423:10 4.19401e-06
9 *534:A *436:31 0
10 *943:A *752:B 0.000169655
11 *943:A *961:A 0.00021217
12 *2:10 *595:A0 0
13 *2:10 *269:12 2.46812e-05
*RES
1 *685:Q *2:10 17.9669 
2 *2:10 *943:A 16.1364 
3 *2:10 *534:A 18.8449 
*END

*D_NET *3 0.0071717
*CONN
*I *596:A I *D sky130_fd_sc_hd__or2_4
*I *945:A I *D sky130_fd_sc_hd__buf_4
*I *678:Q O *D sky130_fd_sc_hd__dfxtp_1
*CAP
1 *596:A 0.00109473
2 *945:A 0
3 *678:Q 0.00180699
4 *3:14 0.000712267
5 *596:A *592:A 0.000566144
6 *596:A *596:B 9.54356e-05
7 *596:A *617:A 6.24914e-06
8 *596:A *659:A2 1.91391e-05
9 *596:A *996:A 6.63489e-05
10 *596:A *37:8 0.000216458
11 *596:A *113:10 7.04109e-05
12 *596:A *374:20 9.80242e-07
13 *596:A *432:18 4.6284e-05
14 *596:A *433:32 0.00020502
15 *596:A *473:30 3.67123e-05
16 *3:14 *649:A0 0.00059301
17 *3:14 *649:A1 5.92162e-05
18 *3:14 *658:B 2.87136e-06
19 *3:14 *666:B 0.000204548
20 *3:14 *667:A2 0.000211464
21 *3:14 *707:D 0.00013536
22 *3:14 *60:12 1.62321e-05
23 *3:14 *104:10 0.00078497
24 *3:14 *115:14 2.41483e-05
25 *3:14 *425:18 0.000117382
26 *3:14 *473:30 7.93248e-05
*RES
1 *678:Q *3:14 42.9901 
2 *3:14 *945:A 9.24915 
3 *678:Q *596:A 46.5524 
*END

*D_NET *4 0.00324383
*CONN
*I *592:A I *D sky130_fd_sc_hd__clkinv_1
*I *667:B1 I *D sky130_fd_sc_hd__a21oi_2
*I *677:Q O *D sky130_fd_sc_hd__dfxtp_1
*CAP
1 *592:A 0.000167689
2 *667:B1 0.000213834
3 *677:Q 0.000129154
4 *4:10 0.000510677
5 *592:A *473:30 0.000319111
6 *667:B1 *104:10 1.22289e-05
7 *667:B1 *111:12 0.000544234
8 *667:B1 *172:14 0.000570696
9 *4:10 *894:A 5.04829e-06
10 *4:10 *111:12 0.000108542
11 *4:10 *172:14 9.64718e-05
12 *596:A *592:A 0.000566144
*RES
1 *677:Q *4:10 16.8591 
2 *4:10 *667:B1 24.3014 
3 *4:10 *592:A 21.1278 
*END

*D_NET *5 0.00553688
*CONN
*I *994:A I *D sky130_fd_sc_hd__buf_4
*I *533:B I *D sky130_fd_sc_hd__xor2_2
*I *700:Q O *D sky130_fd_sc_hd__edfxtp_1
*CAP
1 *994:A 0.000300144
2 *533:B 0.000525278
3 *700:Q 0.000329651
4 *5:10 0.00115507
5 *533:B *637:S 6.08467e-05
6 *533:B *656:A0 0.000511298
7 *533:B *990:A 1.88422e-05
8 *533:B *21:25 0.000107496
9 *533:B *259:326 1.21461e-06
10 *994:A resp_msg[13] 0.000911075
11 *994:A *528:A 0.000196376
12 *994:A *21:25 0.000709863
13 *5:10 resp_msg[13] 1.94472e-05
14 *5:10 *829:A 0
15 *5:10 *929:A 6.11447e-06
16 *5:10 *21:25 2.86829e-05
17 *5:10 *276:18 0.000581194
18 *5:10 *471:10 7.42783e-05
*RES
1 *700:Q *5:10 25.7174 
2 *5:10 *533:B 17.2197 
3 *5:10 *994:A 30.115 
*END

*D_NET *6 0.00243207
*CONN
*I *990:A I *D sky130_fd_sc_hd__buf_4
*I *529:A I *D sky130_fd_sc_hd__xor2_2
*I *699:Q O *D sky130_fd_sc_hd__edfxtp_1
*CAP
1 *990:A 0.000290384
2 *529:A 0.000425934
3 *699:Q 1.70365e-05
4 *6:8 0.000733355
5 *529:A *656:A1 0.000189593
6 *529:A *699:D 2.75449e-05
7 *529:A *276:18 0.00011739
8 *990:A *637:A1 0
9 *990:A *656:A0 6.08467e-05
10 *990:A *656:A1 0
11 *990:A *699:D 0.000216441
12 *990:A *21:12 0.000113096
13 *990:A *21:25 9.52298e-05
14 *6:8 *638:A 3.72574e-05
15 *6:8 *699:D 8.9116e-05
16 *533:B *990:A 1.88422e-05
*RES
1 *699:Q *6:8 14.7498 
2 *6:8 *529:A 26.279 
3 *6:8 *990:A 22.5361 
*END

*D_NET *7 0.00460767
*CONN
*I *930:A I *D sky130_fd_sc_hd__buf_4
*I *526:A I *D sky130_fd_sc_hd__xor2_1
*I *698:Q O *D sky130_fd_sc_hd__edfxtp_1
*CAP
1 *930:A 0.000194657
2 *526:A 0.000689329
3 *698:Q 0.00023332
4 *7:10 0.00111731
5 *526:A *524:B 2.42273e-05
6 *526:A *524:A 0.000366486
7 *526:A *525:A 2.71651e-05
8 *526:A *654:S 0.000128119
9 *526:A *698:D 2.95757e-05
10 *526:A *698:DE 9.75243e-05
11 *526:A *864:A 0.000245096
12 *526:A *199:40 0.000224395
13 *526:A *259:315 1.80257e-05
14 *526:A *260:26 1.19856e-05
15 *526:A *430:123 0.000317707
16 *526:A *477:14 0.000190942
17 *930:A *634:A0 1.66626e-05
18 *930:A *662:B 2.91525e-05
19 *930:A *22:12 0
20 *930:A *80:18 5.94052e-06
21 *930:A *408:16 0.000352099
22 *7:10 *525:B 0
23 *7:10 *655:A0 0.000113096
24 *7:10 *408:16 0.000165495
25 *7:10 *446:114 9.3667e-06
*RES
1 *698:Q *7:10 18.9368 
2 *7:10 *526:A 44.4436 
3 *7:10 *930:A 20.1489 
*END

*D_NET *8 0.001566
*CONN
*I *550:A I *D sky130_fd_sc_hd__xor2_2
*I *931:A I *D sky130_fd_sc_hd__buf_4
*I *697:Q O *D sky130_fd_sc_hd__edfxtp_1
*CAP
1 *550:A 0.000239723
2 *931:A 0
3 *697:Q 2.88921e-05
4 *8:6 0.000268615
5 *550:A *631:A0 4.36956e-05
6 *550:A *640:A0 0.000203756
7 *550:A *662:A 0.000110297
8 *550:A *80:18 6.0227e-06
9 *550:A *257:22 0.000542279
10 *550:A *409:10 2.41274e-06
11 *550:A *410:8 3.31745e-05
12 *8:6 *631:A0 8.7133e-05
*RES
1 *697:Q *8:6 10.2498 
2 *8:6 *931:A 9.24915 
3 *8:6 *550:A 18.3398 
*END

*D_NET *9 0.00507108
*CONN
*I *915:A I *D sky130_fd_sc_hd__buf_4
*I *547:A I *D sky130_fd_sc_hd__xor2_2
*I *696:Q O *D sky130_fd_sc_hd__edfxtp_1
*CAP
1 *915:A 0.00038798
2 *547:A 0.000472961
3 *696:Q 0.000942268
4 *9:14 0.00180321
5 *547:A *545:B 6.27782e-05
6 *547:A *546:A 0.000504947
7 *547:A *627:B1 0.0001045
8 *547:A *730:B1 5.8802e-05
9 *547:A *182:30 3.82228e-05
10 *547:A *386:41 0.000232674
11 *547:A *426:56 5.54516e-05
12 *915:A *398:12 0
13 *915:A *399:24 1.45944e-05
14 *915:A *399:80 5.07906e-05
15 *915:A *444:120 7.70074e-05
16 *9:14 *696:D 3.0019e-05
17 *9:14 *826:A 8.44956e-05
18 *9:14 *398:12 0
19 *9:14 *426:56 5.42889e-05
20 *9:14 *426:90 1.15276e-05
21 *1:10 *915:A 3.14194e-05
22 *1:28 *547:A 5.31422e-05
*RES
1 *696:Q *9:14 20.0195 
2 *9:14 *547:A 25.5824 
3 *9:14 *915:A 23.3355 
*END

*D_NET *10 0.00197898
*CONN
*I *918:A I *D sky130_fd_sc_hd__buf_4
*I *541:B I *D sky130_fd_sc_hd__xnor3_2
*I *710:Q O *D sky130_fd_sc_hd__edfxtp_1
*CAP
1 *918:A 6.10058e-05
2 *541:B 0.000187594
3 *710:Q 0.000193779
4 *10:8 0.000442379
5 *541:B *541:A 6.78549e-05
6 *541:B *541:C 0.000482518
7 *541:B *629:A 1.88014e-05
8 *541:B *73:12 0.000194016
9 *541:B *75:14 0
10 *918:A *541:C 0.000153367
11 *918:A *933:A 8.03393e-06
12 *918:A *73:12 0.000169629
*RES
1 *710:Q *10:8 18.0775 
2 *10:8 *541:B 21.2932 
3 *10:8 *918:A 16.8269 
*END

*D_NET *11 0.00118732
*CONN
*I *919:A I *D sky130_fd_sc_hd__buf_4
*I *538:B I *D sky130_fd_sc_hd__xnor3_2
*I *709:Q O *D sky130_fd_sc_hd__edfxtp_1
*CAP
1 *919:A 0.000182881
2 *538:B 0.000188025
3 *709:Q 8.13169e-05
4 *11:6 0.000452223
5 *538:B *842:A 0
6 *538:B *934:A 0.000146198
7 *538:B *26:26 1.86487e-05
8 *538:B *259:189 3.51394e-05
9 *538:B *319:36 1.43358e-05
10 *538:B *426:56 0
11 *919:A *626:A 2.44829e-05
12 *919:A *259:216 2.41274e-06
13 *11:6 *842:A 4.16532e-05
*RES
1 *709:Q *11:6 11.3591 
2 *11:6 *538:B 22.8902 
3 *11:6 *919:A 13.3243 
*END

*D_NET *12 0.00433221
*CONN
*I *920:A I *D sky130_fd_sc_hd__buf_4
*I *724:B I *D sky130_fd_sc_hd__xor2_4
*I *708:Q O *D sky130_fd_sc_hd__edfxtp_1
*CAP
1 *920:A 0
2 *724:B 0.000589361
3 *708:Q 0.000549183
4 *12:16 0.00113854
5 *724:B *619:A0 7.1935e-06
6 *724:B *663:D 9.51861e-05
7 *724:B *591:B 0.000215771
8 *724:B *714:A1 0.000282548
9 *724:B *170:12 0.000193893
10 *724:B *239:8 0.000193322
11 *724:B *355:26 3.20264e-05
12 *724:B *443:18 0.000164829
13 *12:16 resp_msg[7] 1.11499e-05
14 *12:16 resp_msg[8] 0.000157363
15 *12:16 *619:A0 0.000178614
16 *12:16 *619:A1 7.39583e-06
17 *12:16 *621:A2 0.00028959
18 *12:16 *691:DE 1.72594e-05
19 *12:16 *708:DE 1.96152e-05
20 *12:16 *840:A 3.79772e-05
21 *12:16 *355:26 0.000149616
22 *12:16 *431:36 1.77537e-06
*RES
1 *708:Q *12:16 29.8527 
2 *12:16 *724:B 32.6768 
3 *12:16 *920:A 13.7491 
*END

*D_NET *13 0.00565973
*CONN
*I *921:A I *D sky130_fd_sc_hd__buf_4
*I *586:B I *D sky130_fd_sc_hd__xor2_4
*I *707:Q O *D sky130_fd_sc_hd__edfxtp_1
*CAP
1 *921:A 4.69018e-05
2 *586:B 0.000296631
3 *707:Q 0.001154
4 *13:26 0.00149753
5 *586:B *613:A1 0.000155293
6 *586:B *613:S 4.47427e-05
7 *586:B *615:A1 0.000187307
8 *586:B *615:A2 9.29919e-05
9 *586:B *60:12 0.000158497
10 *586:B *93:24 9.43419e-05
11 *586:B *242:19 5.71353e-05
12 *921:A *613:A0 6.08467e-05
13 *921:A *922:A 0.000260325
14 *921:A *93:24 1.88152e-05
15 *921:A *402:6 0.000165521
16 *13:26 *613:S 6.68864e-05
17 *13:26 *658:B 0.000106365
18 *13:26 *659:B2 6.23101e-05
19 *13:26 *659:C1 6.21488e-06
20 *13:26 *664:C 0
21 *13:26 *671:A1 0.000790545
22 *13:26 *707:DE 2.82027e-05
23 *13:26 *29:40 0.00010563
24 *13:26 *42:12 5.65463e-05
25 *13:26 *447:32 8.51541e-05
26 *13:26 *476:30 6.09999e-05
*RES
1 *707:Q *13:26 30.5282 
2 *13:26 *586:B 25.1698 
3 *13:26 *921:A 16.691 
*END

*D_NET *14 0.00349256
*CONN
*I *582:B I *D sky130_fd_sc_hd__xor2_2
*I *922:A I *D sky130_fd_sc_hd__buf_4
*I *706:Q O *D sky130_fd_sc_hd__edfxtp_1
*CAP
1 *582:B 0.000336274
2 *922:A 0.000318402
3 *706:Q 0.000335884
4 *14:6 0.000990561
5 *582:B *503:A2 1.94472e-05
6 *582:B *579:B 1.58551e-05
7 *582:B *613:A0 1.99195e-05
8 *582:B *29:48 5.04829e-06
9 *582:B *108:18 6.19292e-05
10 *582:B *305:16 0.000122838
11 *582:B *403:24 2.77419e-05
12 *582:B *403:37 0.00027052
13 *922:A *579:B 2.06836e-05
14 *922:A *613:A0 1.65872e-05
15 *922:A *951:A 0.000178876
16 *922:A *29:40 0.000207883
17 *922:A *93:24 7.1326e-05
18 *14:6 *613:A0 5.99529e-06
19 *14:6 *613:A1 6.08467e-05
20 *14:6 *613:S 0.000126987
21 *14:6 *93:24 1.86318e-05
22 *921:A *922:A 0.000260325
*RES
1 *706:Q *14:6 14.6867 
2 *14:6 *922:A 28.1722 
3 *14:6 *582:B 17.5111 
*END

*D_NET *15 0.00744999
*CONN
*I *923:A I *D sky130_fd_sc_hd__buf_4
*I *573:C I *D sky130_fd_sc_hd__xnor3_2
*I *705:Q O *D sky130_fd_sc_hd__edfxtp_1
*CAP
1 *923:A 0.00086027
2 *573:C 0
3 *705:Q 0.00142724
4 *15:22 0.000914643
5 *15:20 0.00148162
6 *923:A *557:B 0.000118166
7 *923:A *568:A 3.94005e-05
8 *923:A *569:A 6.86533e-05
9 *923:A *609:A1 0.000158002
10 *923:A *609:B1 3.27437e-05
11 *923:A *611:A 5.21276e-05
12 *923:A *647:S 0.000246111
13 *923:A *704:CLK 2.16355e-05
14 *923:A *976:A 9.22246e-05
15 *923:A *52:18 2.4815e-05
16 *923:A *166:33 0.000490862
17 *923:A *427:104 8.90311e-06
18 *923:A *427:112 4.9073e-05
19 *923:A *430:45 8.03699e-06
20 *923:A *430:62 7.92249e-05
21 *923:A *449:20 7.82909e-05
22 *15:20 *496:B1 9.08727e-05
23 *15:20 *506:A 8.86331e-05
24 *15:20 *689:CLK 7.41247e-05
25 *15:20 *705:DE 9.1894e-05
26 *15:20 *705:CLK 0.000187034
27 *15:20 *30:12 8.41713e-05
28 *15:20 *31:37 6.50586e-05
29 *15:20 *381:20 0.000178466
30 *15:20 *420:18 1.41976e-05
31 *15:20 *427:112 6.50727e-05
32 *15:20 *451:22 0
33 *15:22 *611:A 0.000182869
34 *15:22 *166:33 7.55529e-05
*RES
1 *705:Q *15:20 48.1277 
2 *15:20 *15:22 3.07775 
3 *15:22 *573:C 13.7491 
4 *15:22 *923:A 46.7329 
*END

*D_NET *16 0.00364722
*CONN
*I *1006:A I *D sky130_fd_sc_hd__buf_4
*I *568:B I *D sky130_fd_sc_hd__xnor3_2
*I *704:Q O *D sky130_fd_sc_hd__edfxtp_1
*CAP
1 *1006:A 9.29935e-05
2 *568:B 0.000389411
3 *704:Q 0.00075197
4 *16:6 0.00123437
5 *568:B *557:B 0.000116971
6 *568:B *704:DE 1.31764e-05
7 *568:B *704:CLK 1.00846e-05
8 *568:B *427:104 0.000372253
9 *1006:A *31:37 0.000234493
10 *1006:A *430:45 0.000140436
11 *1006:A *430:62 0.000101154
12 *16:6 *704:D 0.000111893
13 *16:6 *704:DE 1.99543e-06
14 *16:6 *435:14 7.60121e-05
*RES
1 *704:Q *16:6 20.2327 
2 *16:6 *568:B 25.6566 
3 *16:6 *1006:A 22.5727 
*END

*D_NET *17 0.00840565
*CONN
*I *984:A I *D sky130_fd_sc_hd__buf_4
*I *567:A I *D sky130_fd_sc_hd__xor2_2
*I *703:Q O *D sky130_fd_sc_hd__edfxtp_1
*CAP
1 *984:A 0.00137996
2 *567:A 0
3 *703:Q 0.000897529
4 *17:10 0.00227749
5 *984:A *502:C 0
6 *984:A *508:A 0
7 *984:A *552:B1 0.000935615
8 *984:A *567:B 5.25096e-05
9 *984:A *33:16 5.03143e-05
10 *984:A *107:26 7.21271e-05
11 *984:A *128:16 0.000591861
12 *984:A *190:14 4.33708e-05
13 *984:A *259:16 1.5747e-05
14 *984:A *306:8 0
15 *984:A *365:16 4.59822e-05
16 *984:A *451:22 3.12828e-05
17 *984:A *456:28 0.000806442
18 *984:A *474:53 4.31485e-06
19 *17:10 *35:16 0.000154777
20 *17:10 *128:16 0.000140264
21 *17:10 *199:22 0.000127698
22 *17:10 *205:24 8.84776e-05
23 *17:10 *430:117 0.000209624
24 *17:10 *456:28 0.000404448
25 *17:10 *474:90 7.58052e-05
*RES
1 *703:Q *17:10 34.0364 
2 *17:10 *567:A 13.7491 
3 *17:10 *984:A 39.9692 
*END

*D_NET *18 0.0025815
*CONN
*I *926:A I *D sky130_fd_sc_hd__buf_4
*I *556:C I *D sky130_fd_sc_hd__xor3_2
*I *702:Q O *D sky130_fd_sc_hd__edfxtp_1
*CAP
1 *926:A 0.000107348
2 *556:C 0.000542762
3 *702:Q 0.00016994
4 *18:6 0.00082005
5 *556:C *644:A1 0.000105851
6 *556:C *702:DE 0.000125274
7 *556:C *163:10 0.000304694
8 *556:C *430:79 2.23124e-05
9 *926:A *942:A 0.000247231
10 *926:A *163:10 0
11 *926:A *430:62 8.16827e-05
12 *18:6 *430:79 5.4353e-05
*RES
1 *702:Q *18:6 11.9137 
2 *18:6 *556:C 30.0878 
3 *18:6 *926:A 22.5727 
*END

*D_NET *19 0.00302218
*CONN
*I *1001:A I *D sky130_fd_sc_hd__buf_4
*I *560:B I *D sky130_fd_sc_hd__xnor2_2
*I *695:Q O *D sky130_fd_sc_hd__edfxtp_1
*CAP
1 *1001:A 0.00040298
2 *560:B 0
3 *695:Q 0.000335039
4 *19:10 0.000738019
5 *1001:A *512:A 4.14681e-05
6 *1001:A *567:B 0
7 *1001:A *681:D 0.000283978
8 *1001:A *734:A1 0.000149768
9 *1001:A *23:8 8.41713e-05
10 *1001:A *123:18 7.13972e-05
11 *1001:A *197:18 0.000349593
12 *1001:A *333:29 3.28912e-05
13 *19:10 *643:A1 4.26187e-05
14 *19:10 *654:S 1.9101e-05
15 *19:10 *932:A 0.000144546
16 *19:10 *197:18 3.67708e-05
17 *19:10 *259:261 3.81741e-05
18 *19:10 *430:117 0.000251669
*RES
1 *695:Q *19:10 20.74 
2 *19:10 *560:B 13.7491 
3 *19:10 *1001:A 26.8521 
*END

*D_NET *20 0.00475654
*CONN
*I *532:A I *D sky130_fd_sc_hd__nand2_1
*I *531:B I *D sky130_fd_sc_hd__xnor2_1
*I *657:A0 I *D sky130_fd_sc_hd__mux2_4
*I *684:Q O *D sky130_fd_sc_hd__edfxtp_1
*CAP
1 *532:A 0.000377299
2 *531:B 0
3 *657:A0 0.000307305
4 *684:Q 0.000332778
5 *20:23 0.000529776
6 *20:8 0.000792561
7 *532:A resp_msg[11] 1.49054e-05
8 *532:A resp_msg[14] 0.000522756
9 *532:A *532:B 0.000201681
10 *532:A *145:12 0.000552365
11 *532:A *258:12 4.24629e-05
12 *657:A0 *657:A1 7.73759e-05
13 *657:A0 *896:A 0.000229862
14 *657:A0 *102:14 0.00014792
15 *657:A0 *359:26 0
16 *20:8 *674:A 0.000145324
17 *20:23 *528:B 0.000165989
18 *20:23 *896:A 6.65668e-05
19 *20:23 *276:18 3.01677e-05
20 *20:23 *278:16 0.000219451
21 *20:23 *359:26 0
*RES
1 *684:Q *20:8 18.6321 
2 *20:8 *657:A0 23.2329 
3 *20:8 *20:23 10.0693 
4 *20:23 *531:B 9.24915 
5 *20:23 *532:A 33.8787 
*END

*D_NET *21 0.00579446
*CONN
*I *528:A I *D sky130_fd_sc_hd__nand2_1
*I *527:B I *D sky130_fd_sc_hd__xnor2_2
*I *656:A0 I *D sky130_fd_sc_hd__mux2_4
*I *683:Q O *D sky130_fd_sc_hd__edfxtp_1
*CAP
1 *528:A 0.000168255
2 *527:B 0.000201164
3 *656:A0 0.000167034
4 *683:Q 0.000386693
5 *21:25 0.000647854
6 *21:12 0.000832162
7 *527:B *527:A 0.00040456
8 *527:B *848:A 6.08467e-05
9 *528:A resp_msg[13] 6.07928e-05
10 *528:A *528:B 0.000125884
11 *528:A *751:A 3.20407e-05
12 *656:A0 *699:D 2.07365e-05
13 *21:12 *699:D 7.37686e-05
14 *21:12 *276:18 4.81913e-05
15 *21:12 *471:28 1.47695e-05
16 *21:25 *528:B 1.09738e-05
17 *21:25 *276:18 0.00071585
18 *533:B *656:A0 0.000511298
19 *533:B *21:25 0.000107496
20 *990:A *656:A0 6.08467e-05
21 *990:A *21:12 0.000113096
22 *990:A *21:25 9.52298e-05
23 *994:A *528:A 0.000196376
24 *994:A *21:25 0.000709863
25 *5:10 *21:25 2.86829e-05
*RES
1 *683:Q *21:12 25.24 
2 *21:12 *656:A0 14.964 
3 *21:12 *21:25 19.2371 
4 *21:25 *527:B 19.464 
5 *21:25 *528:A 20.1489 
*END

*D_NET *22 0.00253393
*CONN
*I *524:A I *D sky130_fd_sc_hd__xnor2_1
*I *944:A I *D sky130_fd_sc_hd__buf_4
*I *682:Q O *D sky130_fd_sc_hd__edfxtp_1
*CAP
1 *524:A 0.000110243
2 *944:A 0
3 *682:Q 0.000508364
4 *22:12 0.000618607
5 *524:A *524:B 3.31745e-05
6 *524:A *525:A 0.000118792
7 *524:A *655:A0 0.000216458
8 *22:12 *525:B 3.67528e-06
9 *22:12 *739:A2 2.99291e-05
10 *22:12 *80:18 0
11 *22:12 *199:40 0
12 *22:12 *255:18 0.000181757
13 *22:12 *257:22 1.60687e-05
14 *22:12 *258:12 0.000115761
15 *22:12 *282:20 0.000214617
16 *526:A *524:A 0.000366486
17 *930:A *22:12 0
*RES
1 *682:Q *22:12 31.4631 
2 *22:12 *944:A 9.24915 
3 *22:12 *524:A 14.4094 
*END

*D_NET *23 0.00493808
*CONN
*I *548:A I *D sky130_fd_sc_hd__xnor2_2
*I *914:A I *D sky130_fd_sc_hd__buf_4
*I *681:Q O *D sky130_fd_sc_hd__edfxtp_1
*CAP
1 *548:A 0
2 *914:A 0
3 *681:Q 0.000120163
4 *23:33 0.000953807
5 *23:8 0.00107397
6 *23:8 *512:A 0.000432172
7 *23:8 *123:18 8.15574e-05
8 *23:33 *512:A 1.65872e-05
9 *23:33 *517:A1 0.000111708
10 *23:33 *519:A1 0.000213725
11 *23:33 *549:A 7.94048e-05
12 *23:33 *549:B 0.000401641
13 *23:33 *679:DE 2.70226e-05
14 *23:33 *682:D 0.000113756
15 *23:33 *682:CLK 0.000125289
16 *23:33 *684:DE 0.000160617
17 *23:33 *738:B 0.000113968
18 *23:33 *739:A2 0.000258128
19 *23:33 *106:20 0
20 *23:33 *123:18 2.58757e-05
21 *23:33 *159:18 0.000453457
22 *23:33 *184:12 1.80122e-05
23 *23:33 *290:14 6.36477e-05
24 *23:33 *386:101 0
25 *23:33 *386:103 9.40407e-06
26 *1001:A *23:8 8.41713e-05
*RES
1 *681:Q *23:8 14.7108 
2 *23:8 *914:A 9.24915 
3 *23:8 *23:33 44.5124 
4 *23:33 *548:A 9.24915 
*END

*D_NET *24 0.00628613
*CONN
*I *653:A0 I *D sky130_fd_sc_hd__mux2_4
*I *545:A I *D sky130_fd_sc_hd__xnor2_2
*I *546:A I *D sky130_fd_sc_hd__nand2_1
*I *680:Q O *D sky130_fd_sc_hd__edfxtp_1
*CAP
1 *653:A0 0.000106422
2 *545:A 0
3 *546:A 0.00101851
4 *680:Q 0
5 *24:16 0.00184897
6 *24:4 0.000936878
7 *546:A *545:B 3.11366e-05
8 *546:A *651:A1 2.57795e-05
9 *546:A *709:D 0
10 *546:A *730:B1 6.98978e-05
11 *546:A *27:24 4.51619e-05
12 *546:A *69:16 0.000229756
13 *546:A *171:16 6.08467e-05
14 *546:A *179:33 3.13805e-06
15 *546:A *180:26 0.000374878
16 *546:A *182:30 7.74044e-06
17 *546:A *265:12 0.000129251
18 *546:A *322:10 2.12494e-05
19 *546:A *328:10 6.7671e-06
20 *546:A *358:20 0.000306212
21 *546:A *426:42 1.54769e-05
22 *653:A0 *653:A1 0
23 *653:A0 *653:S 0.000243843
24 *24:16 *535:A 7.26606e-05
25 *24:16 *653:S 3.05338e-05
26 *24:16 *701:D 6.93171e-05
27 *24:16 *730:B1 7.98171e-06
28 *24:16 *75:14 7.56233e-05
29 *24:16 *179:8 3.04399e-05
30 *547:A *546:A 0.000504947
31 *1:28 *546:A 1.27122e-05
*RES
1 *680:Q *24:4 9.24915 
2 *24:4 *24:16 22.0031 
3 *24:16 *546:A 47.5158 
4 *24:16 *545:A 9.24915 
5 *24:4 *653:A0 12.9023 
*END

*D_NET *25 0.00292646
*CONN
*I *933:A I *D sky130_fd_sc_hd__buf_4
*I *541:C I *D sky130_fd_sc_hd__xnor3_2
*I *694:Q O *D sky130_fd_sc_hd__edfxtp_1
*CAP
1 *933:A 0.000133285
2 *541:C 0.000404932
3 *694:Q 5.24376e-05
4 *25:8 0.000590654
5 *541:C *541:A 0.000105652
6 *541:C *542:B 7.27245e-06
7 *541:C *629:A 0.000674412
8 *541:C *259:216 9.88683e-05
9 *933:A *542:B 5.797e-05
10 *933:A *630:A2 2.58757e-05
11 *933:A *73:12 6.83999e-05
12 *933:A *413:6 6.27782e-05
13 *541:B *541:C 0.000482518
14 *918:A *541:C 0.000153367
15 *918:A *933:A 8.03393e-06
*RES
1 *694:Q *25:8 14.7498 
2 *25:8 *541:C 29.7648 
3 *25:8 *933:A 18.3808 
*END

*D_NET *26 0.00736321
*CONN
*I *934:A I *D sky130_fd_sc_hd__buf_4
*I *538:A I *D sky130_fd_sc_hd__xnor3_2
*I *693:Q O *D sky130_fd_sc_hd__edfxtp_1
*CAP
1 *934:A 0.000398833
2 *538:A 5.31238e-05
3 *693:Q 0.0019191
4 *26:26 0.00237105
5 *538:A *730:A2 2.57986e-05
6 *934:A *626:A 2.64787e-05
7 *934:A *842:A 5.63944e-05
8 *934:A *174:10 0
9 *934:A *319:36 7.09666e-06
10 *934:A *414:8 4.58003e-05
11 *934:A *431:73 4.58003e-05
12 *26:26 *517:A2 3.17436e-05
13 *26:26 *544:B 0.000226609
14 *26:26 *661:B 2.45955e-06
15 *26:26 *730:A1 0.000206333
16 *26:26 *734:A2 4.65164e-05
17 *26:26 *105:34 7.03096e-05
18 *26:26 *292:22 2.69702e-06
19 *26:26 *319:36 0.00145524
20 *26:26 *399:24 7.02044e-06
21 *26:26 *455:24 0.000199956
22 *538:B *934:A 0.000146198
23 *538:B *26:26 1.86487e-05
*RES
1 *693:Q *26:26 31.5903 
2 *26:26 *538:A 15.0513 
3 *26:26 *934:A 23.4543 
*END

*D_NET *27 0.00524409
*CONN
*I *935:A I *D sky130_fd_sc_hd__buf_6
*I *744:A I *D sky130_fd_sc_hd__xnor2_4
*I *692:Q O *D sky130_fd_sc_hd__edfxtp_1
*CAP
1 *935:A 0
2 *744:A 0.000413492
3 *692:Q 0.000964896
4 *27:24 0.00137839
5 *744:A *619:S 8.69732e-05
6 *744:A *709:CLK 0.000148144
7 *744:A *65:20 0
8 *744:A *66:14 1.92336e-05
9 *744:A *105:34 0.000369551
10 *744:A *415:20 0.000269012
11 *744:A *415:71 5.01737e-05
12 *744:A *426:42 6.50727e-05
13 *27:24 *625:S 0
14 *27:24 *651:A1 1.51658e-05
15 *27:24 *652:S 3.52699e-05
16 *27:24 *692:DE 2.56868e-05
17 *27:24 *842:A 5.54675e-05
18 *27:24 *66:14 0.000162583
19 *27:24 *171:16 2.21323e-05
20 *27:24 *386:20 6.73297e-05
21 *27:24 *426:42 0.00102459
22 *27:24 *444:103 2.57684e-05
23 *546:A *27:24 4.51619e-05
*RES
1 *692:Q *27:24 41.1994 
2 *27:24 *744:A 32.4316 
3 *27:24 *935:A 9.24915 
*END

*D_NET *28 0.0110468
*CONN
*I *937:A I *D sky130_fd_sc_hd__buf_4
*I *492:A1 I *D sky130_fd_sc_hd__o211ai_1
*I *936:A I *D sky130_fd_sc_hd__buf_4
*I *584:A I *D sky130_fd_sc_hd__xnor2_4
*I *691:Q O *D sky130_fd_sc_hd__edfxtp_1
*CAP
1 *937:A 1.93983e-05
2 *492:A1 4.38154e-05
3 *936:A 0.00130495
4 *584:A 4.94549e-05
5 *691:Q 0.000347028
6 *28:35 0.00171388
7 *28:22 0.000914552
8 *28:14 0.000866405
9 *492:A1 *492:B1 0
10 *584:A *61:26 0.000174439
11 *584:A *63:22 0.000174439
12 *936:A *492:A2 1.91391e-05
13 *936:A *492:C1 1.91391e-05
14 *936:A *649:A0 4.81015e-05
15 *936:A *658:B 0
16 *936:A *659:C1 9.29815e-05
17 *936:A *664:D 0.000286997
18 *936:A *667:A2 0.000134688
19 *936:A *672:A 0.000138405
20 *936:A *907:A 0.00106731
21 *936:A *109:20 0
22 *936:A *404:68 0.000278502
23 *936:A *425:18 1.6546e-05
24 *936:A *430:14 3.70787e-05
25 *937:A *619:S 9.95922e-06
26 *937:A *620:B 4.31603e-06
27 *28:14 *619:S 2.99711e-05
28 *28:14 *136:24 9.34404e-05
29 *28:14 *265:16 1.66732e-05
30 *28:14 *415:20 0
31 *28:14 *444:63 6.08467e-05
32 *28:14 *444:80 7.14746e-05
33 *28:22 resp_msg[7] 6.25883e-06
34 *28:22 *619:A0 5.9036e-05
35 *28:22 *619:A1 7.67734e-06
36 *28:22 *619:S 2.57847e-05
37 *28:22 *650:A0 7.93063e-05
38 *28:22 *650:A1 6.08467e-05
39 *28:22 *591:A 7.84431e-05
40 *28:22 *61:26 5.03168e-05
41 *28:22 *63:22 0.000346414
42 *28:22 *95:26 0.000137821
43 *28:22 *431:36 2.22705e-05
44 *28:22 *443:18 1.97501e-05
45 *28:22 *444:63 0.000930613
46 *28:35 *492:B1 0.000123229
47 *28:35 *492:C1 0.000156946
48 *28:35 *572:A 2.16355e-05
49 *28:35 *33:37 0.000501419
50 *28:35 *33:48 2.71636e-05
51 *28:35 *168:30 0.000157107
52 *28:35 *219:14 0.000200794
*RES
1 *691:Q *28:14 24.5783 
2 *28:14 *28:22 23.4305 
3 *28:22 *584:A 16.8269 
4 *28:22 *28:35 15.7609 
5 *28:35 *936:A 34.2208 
6 *28:35 *492:A1 10.2378 
7 *28:14 *937:A 9.82786 
*END

*D_NET *29 0.00656053
*CONN
*I *938:A I *D sky130_fd_sc_hd__buf_4
*I *578:B I *D sky130_fd_sc_hd__xnor2_2
*I *690:Q O *D sky130_fd_sc_hd__edfxtp_1
*CAP
1 *938:A 6.96799e-05
2 *578:B 0.000488487
3 *690:Q 0.000863412
4 *29:48 0.000743037
5 *29:40 0.00104828
6 *578:B *496:B1 0.000278412
7 *578:B *578:A 4.29314e-06
8 *578:B *579:A 5.03545e-06
9 *578:B *916:A 4.92017e-06
10 *578:B *220:55 9.4056e-05
11 *578:B *229:10 0.000138334
12 *578:B *305:16 1.50753e-05
13 *578:B *404:68 0.000437992
14 *578:B *481:32 0.00041509
15 *938:A *579:A 6.08467e-05
16 *938:A *579:B 1.50924e-05
17 *938:A *418:14 4.24488e-05
18 *938:A *431:22 9.81288e-06
19 *938:A *474:47 1.63255e-05
20 *29:40 *610:A1 0.000101605
21 *29:40 *613:A0 1.58551e-05
22 *29:40 *613:S 0.000119522
23 *29:40 *648:A0 7.04343e-05
24 *29:40 *648:A1 0
25 *29:40 *648:S 9.95922e-06
26 *29:40 *664:C 6.13844e-05
27 *29:40 *108:18 0.000145871
28 *29:40 *155:10 6.02833e-05
29 *29:40 *357:26 6.36477e-05
30 *29:40 *387:20 3.39313e-06
31 *29:40 *474:14 1.43848e-05
32 *29:40 *474:47 0.000278377
33 *29:48 *579:B 0.000207032
34 *29:48 *108:18 0.000100557
35 *29:48 *403:37 0.000239027
36 *582:B *29:48 5.04829e-06
37 *922:A *29:40 0.000207883
38 *13:26 *29:40 0.00010563
*RES
1 *690:Q *29:40 49.3321 
2 *29:40 *29:48 15.7107 
3 *29:48 *578:B 35.66 
4 *29:48 *938:A 11.6605 
*END

*D_NET *30 0.00371942
*CONN
*I *1004:A I *D sky130_fd_sc_hd__buf_4
*I *573:A I *D sky130_fd_sc_hd__xnor3_2
*I *689:Q O *D sky130_fd_sc_hd__edfxtp_1
*CAP
1 *1004:A 0.00107936
2 *573:A 0
3 *689:Q 0.000117357
4 *30:12 0.00119672
5 *1004:A *498:D 1.30259e-05
6 *1004:A *563:B 7.48749e-05
7 *1004:A *579:A 1.12605e-05
8 *1004:A *582:A 0.000298734
9 *1004:A *885:A 2.16355e-05
10 *1004:A *960:A 7.34948e-06
11 *1004:A *220:8 1.45322e-05
12 *1004:A *259:58 4.96443e-05
13 *1004:A *259:66 3.01683e-06
14 *1004:A *404:68 0.000170107
15 *1004:A *474:53 0.000328377
16 *30:12 *31:37 0.000122083
17 *30:12 *430:45 0.000127164
18 *15:20 *30:12 8.41713e-05
*RES
1 *689:Q *30:12 21.4971 
2 *30:12 *573:A 9.24915 
3 *30:12 *1004:A 39.0392 
*END

*D_NET *31 0.00664224
*CONN
*I *940:A I *D sky130_fd_sc_hd__buf_4
*I *568:C I *D sky130_fd_sc_hd__xnor3_2
*I *688:Q O *D sky130_fd_sc_hd__edfxtp_1
*CAP
1 *940:A 0
2 *568:C 0.000621968
3 *688:Q 0.000619374
4 *31:37 0.000892845
5 *31:6 0.00213419
6 *568:C *509:B 4.75721e-06
7 *568:C *557:B 6.54541e-06
8 *568:C *688:D 2.93639e-05
9 *568:C *52:18 4.89251e-05
10 *568:C *163:10 5.71992e-05
11 *568:C *194:10 2.1812e-05
12 *568:C *213:8 7.22927e-05
13 *568:C *427:85 2.23108e-05
14 *568:C *427:104 0.000141129
15 *568:C *438:40 2.38015e-05
16 *31:6 *688:D 2.41274e-06
17 *31:6 *438:34 0.000151869
18 *31:37 *506:A 0.000295637
19 *31:37 *509:B 0.000246281
20 *31:37 *557:B 0
21 *31:37 *609:A1 0.000149428
22 *31:37 *609:B1 4.10791e-05
23 *31:37 *646:S 6.93171e-05
24 *31:37 *704:D 0
25 *31:37 *705:CLK 6.08467e-05
26 *31:37 *924:A 0.000187285
27 *31:37 *422:42 0
28 *31:37 *430:45 0.000218887
29 *31:37 *430:62 6.42282e-05
30 *31:37 *445:63 1.69465e-05
31 *31:37 *449:20 1.98711e-05
32 *1006:A *31:37 0.000234493
33 *15:20 *31:37 6.50586e-05
34 *30:12 *31:37 0.000122083
*RES
1 *688:Q *31:6 18.5689 
2 *31:6 *568:C 31.7839 
3 *31:6 *31:37 41.2434 
4 *31:37 *940:A 9.24915 
*END

*D_NET *32 0.0071935
*CONN
*I *565:A I *D sky130_fd_sc_hd__xor3_1
*I *941:A I *D sky130_fd_sc_hd__buf_4
*I *687:Q O *D sky130_fd_sc_hd__edfxtp_1
*CAP
1 *565:A 0.000590152
2 *941:A 0
3 *687:Q 0.000882557
4 *32:22 0.00147271
5 *565:A *508:A 2.55661e-06
6 *565:A *508:B 0.000188184
7 *565:A *508:C 0
8 *565:A *565:B 2.16355e-05
9 *565:A *566:B 0.000547194
10 *565:A *663:C 2.8298e-05
11 *565:A *977:A 0.000297172
12 *565:A *191:10 1.05982e-05
13 *565:A *196:14 5.09367e-05
14 *565:A *299:8 5.51483e-06
15 *565:A *393:20 0.000148964
16 *565:A *421:18 6.36477e-05
17 *565:A *454:16 0.000120573
18 *32:22 *510:A 0.000213739
19 *32:22 *601:A0 6.08467e-05
20 *32:22 *606:A2 4.20662e-05
21 *32:22 *606:B1 0
22 *32:22 *644:A0 9.94284e-06
23 *32:22 *663:B 0.000317707
24 *32:22 *847:A 0.000110297
25 *32:22 *942:A 2.15184e-05
26 *32:22 *986:A 0.000269681
27 *32:22 *196:14 0.000263135
28 *32:22 *202:14 8.62625e-06
29 *32:22 *204:12 2.36813e-05
30 *32:22 *204:22 0.000108054
31 *32:22 *309:19 0.000137209
32 *32:22 *406:27 0.000202269
33 *32:22 *421:18 0.000344268
34 *32:22 *427:44 0.000553227
35 *32:22 *435:16 3.91205e-05
36 *32:22 *435:18 3.74182e-05
*RES
1 *687:Q *32:22 48.249 
2 *32:22 *941:A 9.24915 
3 *32:22 *565:A 37.171 
*END

*D_NET *33 0.0198777
*CONN
*I *956:A I *D sky130_fd_sc_hd__buf_12
*I *954:A I *D sky130_fd_sc_hd__buf_6
*I *953:A I *D sky130_fd_sc_hd__buf_4
*I *996:A I *D sky130_fd_sc_hd__buf_6
*I *981:A I *D sky130_fd_sc_hd__buf_6
*I *991:A I *D sky130_fd_sc_hd__buf_6
*I *955:A I *D sky130_fd_sc_hd__buf_6
*I *513:X O *D sky130_fd_sc_hd__a21o_4
*CAP
1 *956:A 0.000249455
2 *954:A 0.00103864
3 *953:A 0
4 *996:A 9.87657e-05
5 *981:A 0.000330421
6 *991:A 0
7 *955:A 0.00011
8 *513:X 3.99107e-05
9 *33:84 0.00113246
10 *33:73 0.000576856
11 *33:48 0.00092682
12 *33:37 0.000426164
13 *33:33 0.00137628
14 *33:16 0.00185908
15 *33:10 0.000876206
16 *954:A resp_val 0.000159968
17 *954:A *616:A1 0.000551253
18 *954:A *617:A 0.000208606
19 *954:A *669:A 6.27782e-05
20 *954:A *948:A 0.000127781
21 *954:A *952:A 3.87022e-06
22 *954:A *170:51 0.000145521
23 *954:A *386:16 7.62744e-05
24 *954:A *476:6 0.000343197
25 *954:A *476:20 0.000405074
26 *955:A *501:B1 1.80266e-05
27 *955:A *502:B 3.91685e-05
28 *955:A *512:B 3.5534e-06
29 *955:A *304:20 0.000163515
30 *955:A *456:28 3.4731e-05
31 *956:A *493:C 0.000114495
32 *956:A *513:A1 1.16986e-05
33 *956:A *719:B1 3.61024e-05
34 *956:A *746:B 0
35 *981:A *492:A2 0
36 *981:A *610:A0 5.17042e-05
37 *981:A *616:A0 5.36085e-05
38 *981:A *659:B1 2.53145e-06
39 *981:A *659:C1 2.66665e-05
40 *981:A *907:A 0.000245966
41 *981:A *948:A 1.66771e-05
42 *981:A *38:8 1.19856e-05
43 *981:A *108:18 0.000182759
44 *981:A *109:20 0
45 *981:A *401:8 0.000120121
46 *981:A *403:37 0.000111504
47 *981:A *404:68 2.02035e-05
48 *981:A *458:12 0.00013611
49 *996:A *37:8 0.000114584
50 *996:A *230:23 3.82228e-05
51 *996:A *374:20 5.51483e-06
52 *996:A *473:30 6.53173e-05
53 *33:10 *493:C 2.65831e-05
54 *33:10 *513:A1 5.39635e-06
55 *33:10 *286:14 3.07159e-05
56 *33:16 *502:C 0.000172833
57 *33:16 *655:S 4.59195e-06
58 *33:16 *746:B 0.000300413
59 *33:16 *1008:A 0
60 *33:33 *501:B1 5.66988e-05
61 *33:33 *502:B 3.55968e-05
62 *33:33 *507:A2 0.000317026
63 *33:33 *507:C1 0
64 *33:33 *551:A1 0.000120226
65 *33:33 *575:A 0.00100796
66 *33:33 *665:A 0.000538479
67 *33:33 *736:A 2.25623e-05
68 *33:33 *61:26 4.37753e-05
69 *33:33 *107:26 0.000738987
70 *33:33 *222:24 0.000155074
71 *33:33 *340:40 3.89332e-06
72 *33:33 *431:36 0
73 *33:37 *492:B1 0
74 *33:37 *594:A2 0.000111352
75 *33:37 *950:A 7.69292e-05
76 *33:37 *61:26 0.000107496
77 *33:48 *492:B1 0.000144857
78 *33:48 *492:C1 3.31745e-05
79 *33:48 *572:A 6.08467e-05
80 *33:48 *858:A 0.000298399
81 *33:48 *950:A 0.000835468
82 *33:73 resp_val 0.000341926
83 *33:73 *610:A0 0.000112509
84 *33:73 *616:A0 0.00014748
85 *33:73 *948:A 3.89332e-06
86 *33:73 *39:8 1.22289e-05
87 *33:73 *230:23 0.000314447
88 *33:73 *387:20 3.17009e-05
89 *33:73 *432:18 8.28857e-05
90 *33:84 resp_val 0.000100809
91 *33:84 *948:A 6.39347e-05
92 *33:84 *230:23 2.11664e-05
93 *596:A *996:A 6.63489e-05
94 *984:A *33:16 5.03143e-05
95 *28:35 *33:37 0.000501419
96 *28:35 *33:48 2.71636e-05
*RES
1 *513:X *33:10 14.8512 
2 *33:10 *33:16 8.31726 
3 *33:16 *955:A 17.4498 
4 *33:16 *33:33 43.6956 
5 *33:33 *33:37 7.95736 
6 *33:37 *991:A 9.24915 
7 *33:37 *33:48 14.6758 
8 *33:48 *981:A 27.6104 
9 *33:48 *33:73 13.7766 
10 *33:73 *996:A 17.2456 
11 *33:73 *33:84 3.07775 
12 *33:84 *953:A 13.7491 
13 *33:84 *954:A 43.4961 
14 *33:10 *956:A 19.5852 
*END

*D_NET *34 0.00204452
*CONN
*I *556:A I *D sky130_fd_sc_hd__xor3_2
*I *942:A I *D sky130_fd_sc_hd__buf_4
*I *686:Q O *D sky130_fd_sc_hd__edfxtp_1
*CAP
1 *556:A 0.000120054
2 *942:A 0.000272814
3 *686:Q 3.83492e-05
4 *34:8 0.000431217
5 *556:A *561:B 7.12632e-06
6 *556:A *422:27 0
7 *556:A *422:42 0
8 *556:A *445:50 2.1818e-05
9 *556:A *445:59 0.000163084
10 *942:A *601:A0 6.08467e-05
11 *942:A *644:A0 0.000179992
12 *942:A *309:19 4.0752e-05
13 *942:A *406:27 0.00016553
14 *942:A *422:27 0
15 *942:A *430:62 1.41629e-05
16 *942:A *445:50 5.65463e-05
17 *34:8 *131:22 7.16794e-05
18 *34:8 *449:20 0.000131803
19 *926:A *942:A 0.000247231
20 *32:22 *942:A 2.15184e-05
*RES
1 *686:Q *34:8 15.3044 
2 *34:8 *942:A 23.0907 
3 *34:8 *556:A 17.2421 
*END

*D_NET *35 0.00550649
*CONN
*I *643:A0 I *D sky130_fd_sc_hd__mux2_4
*I *554:A I *D sky130_fd_sc_hd__clkinv_1
*I *679:Q O *D sky130_fd_sc_hd__edfxtp_1
*CAP
1 *643:A0 6.83579e-05
2 *554:A 0.000247307
3 *679:Q 0.0012398
4 *35:16 0.00155546
5 *554:A *600:A1 5.67722e-05
6 *554:A *932:A 9.59051e-06
7 *554:A *45:14 0.000612793
8 *554:A *199:22 9.09065e-05
9 *554:A *380:22 0.000368568
10 *554:A *412:14 0.000122158
11 *643:A0 *199:22 0.000152897
12 *643:A0 *412:14 0.000160039
13 *35:16 *679:DE 9.54515e-06
14 *35:16 *864:A 7.92757e-06
15 *35:16 *45:14 0.00017373
16 *35:16 *205:24 0.000255976
17 *35:16 *430:137 0.000219883
18 *17:10 *35:16 0.000154777
*RES
1 *679:Q *35:16 38.8389 
2 *35:16 *554:A 24.6396 
3 *35:16 *643:A0 16.8269 
*END

*D_NET *36 0.00287614
*CONN
*I *535:B I *D sky130_fd_sc_hd__xor2_2
*I *927:A I *D sky130_fd_sc_hd__buf_4
*I *701:Q O *D sky130_fd_sc_hd__edfxtp_1
*CAP
1 *535:B 8.97493e-05
2 *927:A 0.00020337
3 *701:Q 0.000706703
4 *36:8 0.000999823
5 *535:B *535:A 1.07248e-05
6 *535:B *595:A0 2.21765e-05
7 *535:B *701:D 0.000169093
8 *535:B *386:60 0.000106958
9 *927:A *595:A0 3.659e-05
10 *927:A *753:B 5.81425e-05
11 *927:A *210:12 0.000119154
12 *927:A *386:60 6.28558e-05
13 *927:A *395:20 0.000159032
14 *927:A *407:22 0.000107496
15 *36:8 *701:D 1.43983e-05
16 *36:8 *701:DE 9.87052e-06
*RES
1 *701:Q *36:8 23.6235 
2 *36:8 *927:A 21.0173 
3 *36:8 *535:B 8.82351 
*END

*D_NET *37 0.00481693
*CONN
*I *668:A1 I *D sky130_fd_sc_hd__o22ai_1
*I *658:A I *D sky130_fd_sc_hd__nor2_4
*I *592:Y O *D sky130_fd_sc_hd__clkinv_1
*CAP
1 *668:A1 0.00015979
2 *658:A 0.00133735
3 *592:Y 3.18528e-05
4 *37:8 0.001529
5 *658:A *610:A0 2.57847e-05
6 *658:A *610:S 4.31539e-05
7 *658:A *649:A1 2.41483e-05
8 *658:A *658:B 2.16355e-05
9 *658:A *707:D 0.000531564
10 *658:A *964:A 0.000116263
11 *658:A *965:A 1.80176e-05
12 *658:A *42:12 0
13 *658:A *173:10 5.69501e-06
14 *658:A *374:20 0
15 *658:A *387:20 0.000314802
16 *668:A1 *668:A2 1.88422e-05
17 *668:A1 *668:B1 6.08467e-05
18 *668:A1 *111:12 6.27782e-05
19 *668:A1 *113:10 3.31745e-05
20 *668:A1 *230:23 6.84074e-06
21 *668:A1 *374:20 0
22 *668:A1 *387:20 0.000105589
23 *37:8 *473:30 3.87649e-05
24 *596:A *37:8 0.000216458
25 *996:A *37:8 0.000114584
*RES
1 *592:Y *37:8 16.1364 
2 *37:8 *658:A 37.3899 
3 *37:8 *668:A1 18.2442 
*END

*D_NET *38 0.00608152
*CONN
*I *907:A I *D sky130_fd_sc_hd__buf_4
*I *594:A1 I *D sky130_fd_sc_hd__o21bai_4
*I *593:Y O *D sky130_fd_sc_hd__clkinv_1
*CAP
1 *907:A 0.000533784
2 *594:A1 0.000301904
3 *593:Y 0.000265775
4 *38:8 0.00110146
5 *594:A1 *616:A0 0.000250405
6 *594:A1 *858:A 0.000195403
7 *594:A1 *948:A 0.000259703
8 *594:A1 *404:68 9.4385e-05
9 *594:A1 *464:34 0.000250405
10 *907:A *593:A 0.000111722
11 *907:A *659:C1 0.000784101
12 *907:A *660:A 9.92453e-05
13 *907:A *660:B_N 6.36477e-05
14 *907:A *671:B1 7.96573e-05
15 *907:A *965:A 1.21652e-05
16 *907:A *166:33 0.000200794
17 *907:A *387:20 3.31745e-05
18 *38:8 *458:12 0.000118526
19 *936:A *907:A 0.00106731
20 *981:A *907:A 0.000245966
21 *981:A *38:8 1.19856e-05
*RES
1 *593:Y *38:8 17.8002 
2 *38:8 *594:A1 23.9945 
3 *38:8 *907:A 27.7418 
*END

*D_NET *39 0.00555217
*CONN
*I *950:A I *D sky130_fd_sc_hd__buf_12
*I *951:A I *D sky130_fd_sc_hd__buf_6
*I *594:Y O *D sky130_fd_sc_hd__o21bai_4
*CAP
1 *950:A 0.00101597
2 *951:A 0.000413527
3 *594:Y 6.77094e-05
4 *39:8 0.00149721
5 *950:A *594:A2 4.24629e-05
6 *950:A *858:A 2.52414e-05
7 *950:A *155:10 3.79145e-06
8 *951:A *579:B 5.03545e-06
9 *951:A *613:A0 0.000119367
10 *951:A *616:A0 7.2306e-05
11 *951:A *664:C 0.000209774
12 *951:A *93:24 1.02145e-05
13 *951:A *387:20 9.13913e-05
14 *951:A *401:8 0.0004676
15 *951:A *403:37 1.46012e-05
16 *951:A *474:47 0.000105522
17 *39:8 *616:A0 0.000138334
18 *39:8 *387:20 0.000148614
19 *922:A *951:A 0.000178876
20 *33:37 *950:A 7.69292e-05
21 *33:48 *950:A 0.000835468
22 *33:73 *39:8 1.22289e-05
*RES
1 *594:Y *39:8 16.8269 
2 *39:8 *951:A 28.0387 
3 *39:8 *950:A 30.4355 
*END

*D_NET *40 0.00208784
*CONN
*I *701:D I *D sky130_fd_sc_hd__edfxtp_1
*I *595:X O *D sky130_fd_sc_hd__mux2_4
*CAP
1 *701:D 0.00047765
2 *595:X 0.00047765
3 *701:D *535:A 0.000124865
4 *701:D *595:A0 7.92757e-06
5 *701:D *701:DE 0.000596188
6 *701:D *127:16 0.000150754
7 *535:B *701:D 0.000169093
8 *24:16 *701:D 6.93171e-05
9 *36:8 *701:D 1.43983e-05
*RES
1 *595:X *701:D 43.5204 
*END

*D_NET *41 0.0150353
*CONN
*I *906:A I *D sky130_fd_sc_hd__buf_12
*I *658:B I *D sky130_fd_sc_hd__nor2_4
*I *958:A I *D sky130_fd_sc_hd__clkbuf_16
*I *596:X O *D sky130_fd_sc_hd__or2_4
*CAP
1 *906:A 2.76178e-05
2 *658:B 0.00194672
3 *958:A 0.00250087
4 *596:X 0.000340465
5 *41:20 0.0056622
6 *41:12 0.00158269
7 *658:B *707:DE 0.000250908
8 *658:B *874:A 0.000703551
9 *658:B *169:18 0.000127524
10 *658:B *173:10 1.43832e-05
11 *658:B *404:68 0
12 *658:B *430:14 0
13 *658:B *464:14 0.000270577
14 *658:B *473:30 2.01653e-05
15 *906:A *854:A 1.48638e-05
16 *958:A *490:C1 0.000291074
17 *958:A *499:B 1.92319e-05
18 *958:A *571:B 4.77858e-05
19 *958:A *574:A2 1.14839e-05
20 *958:A *736:B 0.000151371
21 *958:A *438:136 0
22 *958:A *464:45 0.000444141
23 *41:12 *708:D 0.000135708
24 *41:12 *708:DE 8.54933e-05
25 *41:12 *854:A 7.33423e-05
26 *41:12 *980:A 0
27 *41:12 *447:88 6.27718e-05
28 *41:12 *447:99 0.000117627
29 *41:20 *708:DE 1.84122e-06
30 *41:20 *438:136 0
31 *658:A *658:B 2.16355e-05
32 *936:A *658:B 0
33 *3:14 *658:B 2.87136e-06
34 *13:26 *658:B 0.000106365
*RES
1 *596:X *41:12 24.044 
2 *41:12 *41:20 5.59854 
3 *41:20 *958:A 26.8391 
4 *41:20 *658:B 22.8152 
5 *41:12 *906:A 14.543 
*END

*D_NET *42 0.00648032
*CONN
*I *964:A I *D sky130_fd_sc_hd__buf_4
*I *965:A I *D sky130_fd_sc_hd__buf_4
*I *597:Y O *D sky130_fd_sc_hd__nand2b_1
*CAP
1 *964:A 0.000159647
2 *965:A 0.000793527
3 *597:Y 0.000533087
4 *42:12 0.00148626
5 *964:A *610:A0 6.36477e-05
6 *964:A *610:A1 6.3657e-05
7 *964:A *55:22 8.17451e-05
8 *964:A *357:26 2.20457e-05
9 *965:A *610:S 0.000109421
10 *965:A *612:B1 0.000372235
11 *965:A *648:A1 0.000368748
12 *965:A *660:A 0.000286682
13 *965:A *670:A 1.94224e-05
14 *965:A *671:B1 7.38102e-05
15 *965:A *55:22 0.000748158
16 *965:A *166:33 0
17 *965:A *464:34 0.0001195
18 *965:A *476:30 6.99356e-05
19 *42:12 *610:A0 1.12533e-05
20 *42:12 *610:S 2.6524e-05
21 *42:12 *669:A 0.00025821
22 *42:12 *670:A 6.69404e-05
23 *42:12 *374:20 0.000185918
24 *42:12 *476:20 0.000235499
25 *42:12 *476:30 0.000121459
26 *658:A *964:A 0.000116263
27 *658:A *965:A 1.80176e-05
28 *658:A *42:12 0
29 *907:A *965:A 1.21652e-05
30 *13:26 *42:12 5.65463e-05
*RES
1 *597:Y *42:12 34.2348 
2 *42:12 *965:A 45.1124 
3 *42:12 *964:A 15.1569 
*END

*D_NET *43 0.000736084
*CONN
*I *600:A1 I *D sky130_fd_sc_hd__o21ai_1
*I *598:Y O *D sky130_fd_sc_hd__mux2i_1
*CAP
1 *600:A1 9.14827e-05
2 *598:Y 9.14827e-05
3 *600:A1 *600:A2 6.92705e-05
4 *600:A1 *643:A1 0.000228593
5 *600:A1 *45:14 1.71154e-05
6 *600:A1 *199:22 0.000171273
7 *600:A1 *393:20 1.00937e-05
8 *554:A *600:A1 5.67722e-05
*RES
1 *598:Y *600:A1 23.6826 
*END

*D_NET *44 0.00170367
*CONN
*I *600:B1 I *D sky130_fd_sc_hd__o21ai_1
*I *599:Y O *D sky130_fd_sc_hd__nand2_1
*CAP
1 *600:B1 0.00038624
2 *599:Y 0.00038624
3 *600:B1 *600:A2 0.00017954
4 *600:B1 *663:A 0.000103557
5 *600:B1 *847:A 0
6 *600:B1 *196:14 7.55603e-05
7 *600:B1 *393:20 0.000293446
8 *600:B1 *445:90 0.000238301
9 *600:B1 *445:92 4.07907e-05
*RES
1 *599:Y *600:B1 38.7768 
*END

*D_NET *45 0.00398549
*CONN
*I *679:D I *D sky130_fd_sc_hd__edfxtp_1
*I *600:Y O *D sky130_fd_sc_hd__o21ai_1
*CAP
1 *679:D 0
2 *600:Y 0.00115188
3 *45:14 0.00115188
4 *45:14 *600:A2 2.41274e-06
5 *45:14 *632:A 0.000162739
6 *45:14 *679:DE 0.000288438
7 *45:14 *845:A 1.37761e-05
8 *45:14 *864:A 1.92336e-05
9 *45:14 *380:22 0.00035922
10 *45:14 *446:12 2.7961e-05
11 *45:14 *446:21 4.3116e-06
12 *554:A *45:14 0.000612793
13 *600:A1 *45:14 1.71154e-05
14 *35:16 *45:14 0.00017373
*RES
1 *600:Y *45:14 41.4199 
2 *45:14 *679:D 9.24915 
*END

*D_NET *46 0.00279651
*CONN
*I *603:A2 I *D sky130_fd_sc_hd__o21ai_1
*I *601:Y O *D sky130_fd_sc_hd__mux2i_1
*CAP
1 *603:A2 0.000366778
2 *601:Y 0.000366778
3 *603:A2 *601:A0 3.14978e-05
4 *603:A2 *601:A1 0.000477967
5 *603:A2 *602:B 4.7294e-05
6 *603:A2 *603:A1 0.000164815
7 *603:A2 *644:A0 5.22164e-05
8 *603:A2 *687:D 0.000175689
9 *603:A2 *702:D 0.000628442
10 *603:A2 *702:CLK 0.000100477
11 *603:A2 *868:A 0.00036437
12 *603:A2 *129:14 2.01874e-05
*RES
1 *601:Y *603:A2 46.0217 
*END

*D_NET *47 0.000903138
*CONN
*I *603:B1 I *D sky130_fd_sc_hd__o21ai_1
*I *602:Y O *D sky130_fd_sc_hd__nand2_1
*CAP
1 *603:B1 0.000226267
2 *602:Y 0.000226267
3 *603:B1 *602:B 0.000295725
4 *603:B1 *687:CLK 6.12656e-05
5 *603:B1 *868:A 4.81015e-05
6 *603:B1 *445:22 4.55115e-05
*RES
1 *602:Y *603:B1 34.7608 
*END

*D_NET *48 0.000731745
*CONN
*I *686:D I *D sky130_fd_sc_hd__edfxtp_1
*I *603:Y O *D sky130_fd_sc_hd__o21ai_1
*CAP
1 *686:D 0.000282911
2 *603:Y 0.000282911
3 *686:D *702:CLK 0.00011818
4 *686:D *836:A 0
5 *686:D *427:44 4.77434e-05
*RES
1 *603:Y *686:D 25.5514 
*END

*D_NET *49 0.00180674
*CONN
*I *606:A2 I *D sky130_fd_sc_hd__o21ai_1
*I *604:Y O *D sky130_fd_sc_hd__mux2i_1
*CAP
1 *606:A2 0.000341284
2 *604:Y 0.000341284
3 *606:A2 *604:A1 0.00046764
4 *606:A2 *606:A1 0.000105175
5 *606:A2 *606:B1 0.000137282
6 *606:A2 *51:14 9.56095e-05
7 *606:A2 *202:14 6.51917e-05
8 *606:A2 *405:22 0.000211207
9 *32:22 *606:A2 4.20662e-05
*RES
1 *604:Y *606:A2 40.5799 
*END

*D_NET *50 0.00273037
*CONN
*I *606:B1 I *D sky130_fd_sc_hd__o21ai_1
*I *605:Y O *D sky130_fd_sc_hd__nand2_1
*CAP
1 *606:B1 0.000534382
2 *605:Y 0.000534382
3 *606:B1 *504:A 6.78248e-05
4 *606:B1 *562:B 8.74551e-05
5 *606:B1 *604:A1 0.000314935
6 *606:B1 *605:A 1.88014e-05
7 *606:B1 *605:B 0.000114594
8 *606:B1 *606:A1 1.67286e-05
9 *606:B1 *663:B 0.000559547
10 *606:B1 *834:A 3.82228e-05
11 *606:B1 *869:A 0.000162422
12 *606:B1 *51:14 9.56095e-05
13 *606:B1 *204:12 9.22013e-06
14 *606:B1 *309:19 2.82429e-05
15 *606:B1 *393:20 1.07248e-05
16 *606:A2 *606:B1 0.000137282
17 *32:22 *606:B1 0
*RES
1 *605:Y *606:B1 47.2268 
*END

*D_NET *51 0.00428322
*CONN
*I *687:D I *D sky130_fd_sc_hd__edfxtp_1
*I *606:Y O *D sky130_fd_sc_hd__o21ai_1
*CAP
1 *687:D 0.000332858
2 *606:Y 0.000940416
3 *51:14 0.00127327
4 *687:D *602:B 9.2346e-06
5 *687:D *644:A1 0
6 *687:D *687:DE 0.00041546
7 *687:D *131:22 0.000103428
8 *687:D *438:74 0.000200464
9 *51:14 *510:B 4.66889e-05
10 *51:14 *556:B 0.000510995
11 *51:14 *644:A1 2.07212e-05
12 *51:14 *194:10 6.27718e-05
13 *603:A2 *687:D 0.000175689
14 *606:A2 *51:14 9.56095e-05
15 *606:B1 *51:14 9.56095e-05
*RES
1 *606:Y *51:14 44.1611 
2 *51:14 *687:D 25.8567 
*END

*D_NET *52 0.00348426
*CONN
*I *609:A2 I *D sky130_fd_sc_hd__o21ai_1
*I *607:Y O *D sky130_fd_sc_hd__mux2i_1
*CAP
1 *609:A2 0
2 *607:Y 0.000939725
3 *52:18 0.000939725
4 *52:18 *511:A 0
5 *52:18 *555:A1 0.0001958
6 *52:18 *557:A 1.9101e-05
7 *52:18 *557:B 0
8 *52:18 *568:A 6.08467e-05
9 *52:18 *569:A 0.000331453
10 *52:18 *569:B 1.00396e-05
11 *52:18 *609:A1 2.58757e-05
12 *52:18 *611:A 0.000140207
13 *52:18 *647:S 3.74527e-05
14 *52:18 *976:A 0.000115934
15 *52:18 *131:22 2.22788e-05
16 *52:18 *165:20 0.000200794
17 *52:18 *213:8 0.000291146
18 *52:18 *220:8 4.89251e-05
19 *52:18 *427:104 3.1218e-05
20 *52:18 *445:20 0
21 *568:C *52:18 4.89251e-05
22 *923:A *52:18 2.4815e-05
*RES
1 *607:Y *52:18 46.2375 
2 *52:18 *609:A2 9.24915 
*END

*D_NET *53 0.00160332
*CONN
*I *609:B1 I *D sky130_fd_sc_hd__o21ai_1
*I *608:Y O *D sky130_fd_sc_hd__nand2_1
*CAP
1 *609:B1 0.000359578
2 *608:Y 0.000359578
3 *609:B1 *688:D 0.000109487
4 *609:B1 *131:22 0.000129014
5 *609:B1 *430:62 0.000486699
6 *609:B1 *449:20 8.51445e-05
7 *923:A *609:B1 3.27437e-05
8 *31:37 *609:B1 4.10791e-05
*RES
1 *608:Y *609:B1 38.6374 
*END

*D_NET *54 0.000703468
*CONN
*I *688:D I *D sky130_fd_sc_hd__edfxtp_1
*I *609:Y O *D sky130_fd_sc_hd__o21ai_1
*CAP
1 *688:D 0.000161466
2 *609:Y 0.000161466
3 *688:D *609:A1 6.08467e-05
4 *688:D *438:34 6.87009e-05
5 *688:D *438:40 6.55363e-05
6 *688:D *449:20 4.41899e-05
7 *568:C *688:D 2.93639e-05
8 *609:B1 *688:D 0.000109487
9 *31:6 *688:D 2.41274e-06
*RES
1 *609:Y *688:D 32.0242 
*END

*D_NET *55 0.00321848
*CONN
*I *612:A2 I *D sky130_fd_sc_hd__o21ai_1
*I *610:Y O *D sky130_fd_sc_hd__mux2i_2
*CAP
1 *612:A2 0
2 *610:Y 0.000806572
3 *55:22 0.000806572
4 *55:22 *610:A1 2.16355e-05
5 *55:22 *610:S 1.29948e-05
6 *55:22 *612:B1 6.27718e-05
7 *55:22 *613:S 8.7625e-05
8 *55:22 *57:14 3.00829e-05
9 *55:22 *166:33 0
10 *55:22 *474:14 0.000445663
11 *55:22 *476:30 0.000114659
12 *964:A *55:22 8.17451e-05
13 *965:A *55:22 0.000748158
*RES
1 *610:Y *55:22 41.8909 
2 *55:22 *612:A2 9.24915 
*END

*D_NET *56 0.00111659
*CONN
*I *612:B1 I *D sky130_fd_sc_hd__o21ai_1
*I *611:Y O *D sky130_fd_sc_hd__nand2_1
*CAP
1 *612:B1 0.000166994
2 *611:Y 0.000166994
3 *612:B1 *612:A1 9.50664e-05
4 *612:B1 *648:A1 1.44764e-05
5 *612:B1 *57:14 0.000238055
6 *965:A *612:B1 0.000372235
7 *55:22 *612:B1 6.27718e-05
*RES
1 *611:Y *612:B1 26.4798 
*END

*D_NET *57 0.00337662
*CONN
*I *689:D I *D sky130_fd_sc_hd__edfxtp_1
*I *612:Y O *D sky130_fd_sc_hd__o21ai_1
*CAP
1 *689:D 0
2 *612:Y 0.00096428
3 *57:14 0.00096428
4 *57:14 *611:A 0.000101756
5 *57:14 *611:B 0.000280818
6 *57:14 *612:A1 0.000211546
7 *57:14 *648:A1 3.67622e-06
8 *57:14 *689:DE 6.18295e-05
9 *57:14 *689:CLK 5.93747e-05
10 *57:14 *706:DE 2.05821e-05
11 *57:14 *851:A 2.89299e-05
12 *57:14 *60:12 0.000379835
13 *57:14 *165:20 3.15754e-05
14 *612:B1 *57:14 0.000238055
15 *55:22 *57:14 3.00829e-05
*RES
1 *612:Y *57:14 42.0301 
2 *57:14 *689:D 9.24915 
*END

*D_NET *58 0.00101949
*CONN
*I *615:A2 I *D sky130_fd_sc_hd__o21ai_1
*I *613:Y O *D sky130_fd_sc_hd__mux2i_1
*CAP
1 *615:A2 0.000297346
2 *613:Y 0.000297346
3 *615:A2 *613:S 1.03594e-05
4 *615:A2 *615:A1 0.00031169
5 *615:A2 *242:19 9.75148e-06
6 *586:B *615:A2 9.29919e-05
*RES
1 *613:Y *615:A2 33.3813 
*END

*D_NET *59 0.00395269
*CONN
*I *615:B1 I *D sky130_fd_sc_hd__o21ai_1
*I *614:Y O *D sky130_fd_sc_hd__nand2_1
*CAP
1 *615:B1 0.00110844
2 *614:Y 0.00110844
3 *615:B1 *579:B 0.000139561
4 *615:B1 *580:A 0.000888883
5 *615:B1 *614:A 1.61631e-05
6 *615:B1 *614:B 9.82896e-06
7 *615:B1 *872:A 0.00068136
8 *615:B1 *167:22 0
*RES
1 *614:Y *615:B1 48.0769 
*END

*D_NET *60 0.00493179
*CONN
*I *690:D I *D sky130_fd_sc_hd__edfxtp_1
*I *615:Y O *D sky130_fd_sc_hd__o21ai_1
*CAP
1 *690:D 8.18123e-05
2 *615:Y 0.00144941
3 *60:12 0.00153122
4 *690:D *672:A 3.02384e-05
5 *690:D *690:DE 6.46815e-05
6 *60:12 *586:A 8.85947e-05
7 *60:12 *611:B 2.44579e-05
8 *60:12 *615:A1 5.04423e-06
9 *60:12 *649:A0 0.000263472
10 *60:12 *667:A2 0.000147735
11 *60:12 *672:A 0
12 *60:12 *706:DE 0.000124882
13 *60:12 *706:CLK 0
14 *60:12 *852:A 0
15 *60:12 *166:33 0
16 *60:12 *242:19 0.000448528
17 *60:12 *425:18 8.19494e-05
18 *60:12 *445:12 2.17621e-05
19 *60:12 *445:18 1.34372e-05
20 *586:B *60:12 0.000158497
21 *3:14 *60:12 1.62321e-05
22 *57:14 *60:12 0.000379835
*RES
1 *615:Y *60:12 47.0973 
2 *60:12 *690:D 15.8591 
*END

*D_NET *61 0.00302203
*CONN
*I *618:A2 I *D sky130_fd_sc_hd__o21ai_0
*I *616:Y O *D sky130_fd_sc_hd__mux2i_1
*CAP
1 *618:A2 0
2 *616:Y 0.000634919
3 *61:26 0.000634919
4 *61:26 *495:B 0.000368567
5 *61:26 *575:A 0
6 *61:26 *618:A1 3.75603e-05
7 *61:26 *591:A 0.000378249
8 *61:26 *736:C 1.41307e-05
9 *61:26 *903:A 2.99747e-05
10 *61:26 *63:22 0.000234793
11 *61:26 *251:79 0.000100857
12 *61:26 *430:14 1.66771e-05
13 *61:26 *431:22 0.000137198
14 *61:26 *431:36 5.81611e-05
15 *584:A *61:26 0.000174439
16 *28:22 *61:26 5.03168e-05
17 *33:33 *61:26 4.37753e-05
18 *33:37 *61:26 0.000107496
*RES
1 *616:Y *61:26 49.7726 
2 *61:26 *618:A2 9.24915 
*END

*D_NET *62 0.00354072
*CONN
*I *618:B1 I *D sky130_fd_sc_hd__o21ai_0
*I *617:Y O *D sky130_fd_sc_hd__nand2_1
*CAP
1 *618:B1 0
2 *617:Y 0.00085802
3 *62:22 0.00085802
4 *62:22 *495:B 5.1493e-06
5 *62:22 *572:A 2.52777e-05
6 *62:22 *594:A2 0.000459996
7 *62:22 *618:A1 0.000110458
8 *62:22 *659:B1 2.99293e-05
9 *62:22 *858:A 6.96533e-05
10 *62:22 *63:22 0
11 *62:22 *113:10 0.00017561
12 *62:22 *168:30 7.73661e-05
13 *62:22 *219:14 0.000476663
14 *62:22 *242:25 0.000320795
15 *62:22 *447:18 7.37827e-05
*RES
1 *617:Y *62:22 45.8047 
2 *62:22 *618:B1 13.7491 
*END

*D_NET *63 0.00411196
*CONN
*I *691:D I *D sky130_fd_sc_hd__edfxtp_1
*I *618:Y O *D sky130_fd_sc_hd__o21ai_0
*CAP
1 *691:D 0.000221476
2 *618:Y 0.00116498
3 *63:22 0.00138645
4 *691:D *650:A1 6.33039e-05
5 *691:D *95:26 1.03403e-05
6 *691:D *265:16 5.21884e-05
7 *63:22 resp_msg[6] 2.94331e-05
8 *63:22 *495:B 0
9 *63:22 *659:B1 0
10 *63:22 *736:B 1.03594e-05
11 *63:22 *736:D 2.02035e-05
12 *63:22 *884:A 0
13 *63:22 *903:A 0.00025233
14 *63:22 *980:A 1.57953e-05
15 *63:22 *95:26 8.96673e-05
16 *63:22 *168:30 0
17 *63:22 *242:25 0
18 *63:22 *251:79 3.0923e-05
19 *63:22 *363:26 0
20 *63:22 *429:83 8.43017e-07
21 *63:22 *431:22 3.26582e-06
22 *63:22 *464:14 4.75721e-06
23 *584:A *63:22 0.000174439
24 *28:22 *63:22 0.000346414
25 *61:26 *63:22 0.000234793
26 *62:22 *63:22 0
*RES
1 *618:Y *63:22 45.3589 
2 *63:22 *691:D 14.12 
*END

*D_NET *64 0.00225389
*CONN
*I *621:A2 I *D sky130_fd_sc_hd__o21ai_1
*I *619:Y O *D sky130_fd_sc_hd__mux2i_1
*CAP
1 *621:A2 0.000572377
2 *619:Y 0.000572377
3 *621:A2 resp_msg[6] 8.82928e-05
4 *621:A2 *619:A1 5.98123e-05
5 *621:A2 *691:DE 0.000219905
6 *621:A2 *708:DE 1.8764e-05
7 *621:A2 *854:A 7.19925e-05
8 *621:A2 *946:A 0.000121739
9 *621:A2 *980:A 4.51619e-05
10 *621:A2 *169:18 0
11 *621:A2 *431:36 2.81461e-05
12 *621:A2 *433:32 0.000165731
13 *12:16 *621:A2 0.00028959
*RES
1 *619:Y *621:A2 44.3009 
*END

*D_NET *65 0.00388741
*CONN
*I *621:B1 I *D sky130_fd_sc_hd__o21ai_1
*I *620:Y O *D sky130_fd_sc_hd__nand2_1
*CAP
1 *621:B1 0
2 *620:Y 0.000699853
3 *65:20 0.000699853
4 *65:20 *619:S 6.78364e-06
5 *65:20 *620:B 0.000165455
6 *65:20 *621:A1 5.68225e-06
7 *65:20 *623:A 8.62625e-06
8 *65:20 *841:A 6.08467e-05
9 *65:20 *946:A 7.12632e-06
10 *65:20 *980:A 1.21054e-05
11 *65:20 *66:14 0.00120335
12 *65:20 *136:24 5.04829e-06
13 *65:20 *426:42 5.65573e-05
14 *65:20 *431:44 0.000316843
15 *65:20 *433:32 0.000298303
16 *65:20 *444:80 0.000340977
17 *744:A *65:20 0
*RES
1 *620:Y *65:20 46.7497 
2 *65:20 *621:B1 13.7491 
*END

*D_NET *66 0.005156
*CONN
*I *692:D I *D sky130_fd_sc_hd__edfxtp_1
*I *621:Y O *D sky130_fd_sc_hd__o21ai_1
*CAP
1 *692:D 0
2 *621:Y 0.0014358
3 *66:14 0.0014358
4 *66:14 *546:B 6.27782e-05
5 *66:14 *623:A 0.000267404
6 *66:14 *692:CLK 5.57875e-05
7 *66:14 *998:A 0.000151575
8 *66:14 *69:16 0.000203756
9 *66:14 *426:42 1.50728e-05
10 *66:14 *433:32 1.88152e-05
11 *66:14 *444:103 2.99585e-05
12 *66:14 *475:18 9.40857e-05
13 *744:A *66:14 1.92336e-05
14 *27:24 *66:14 0.000162583
15 *65:20 *66:14 0.00120335
*RES
1 *621:Y *66:14 46.1957 
2 *66:14 *692:D 9.24915 
*END

*D_NET *67 0.00159993
*CONN
*I *624:A1 I *D sky130_fd_sc_hd__o21ai_1
*I *622:Y O *D sky130_fd_sc_hd__mux2i_1
*CAP
1 *624:A1 0.000382928
2 *622:Y 0.000382928
3 *624:A1 *623:A 9.89388e-06
4 *624:A1 *651:A1 0.000114271
5 *624:A1 *170:51 0.000709914
*RES
1 *622:Y *624:A1 38.5093 
*END

*D_NET *68 0.000465793
*CONN
*I *624:B1 I *D sky130_fd_sc_hd__o21ai_1
*I *623:Y O *D sky130_fd_sc_hd__nand2_1
*CAP
1 *624:B1 6.36944e-05
2 *623:Y 6.36944e-05
3 *624:B1 *624:A2 6.95572e-05
4 *624:B1 *692:CLK 0.000265046
5 *624:B1 *69:16 3.80087e-06
*RES
1 *623:Y *624:B1 21.4401 
*END

*D_NET *69 0.00683551
*CONN
*I *693:D I *D sky130_fd_sc_hd__edfxtp_1
*I *624:Y O *D sky130_fd_sc_hd__o21ai_1
*CAP
1 *693:D 0.000804271
2 *624:Y 0.000855114
3 *69:16 0.00165938
4 *693:D *516:A1 0.000123971
5 *693:D *516:A2 0.000317217
6 *693:D *693:CLK 9.12416e-06
7 *693:D *713:A 2.01986e-05
8 *693:D *715:A1 0.000167615
9 *693:D *717:B 6.31047e-05
10 *693:D *718:B 1.5714e-05
11 *693:D *721:A 0.000182438
12 *693:D *747:B 0
13 *693:D *747:D 1.82679e-05
14 *693:D *886:A 2.3301e-05
15 *693:D *893:A 0.000139416
16 *693:D *238:10 1.28642e-05
17 *693:D *238:12 5.78827e-05
18 *693:D *266:14 0.000113885
19 *693:D *284:43 2.92975e-06
20 *693:D *322:10 7.13778e-05
21 *693:D *345:24 5.97413e-05
22 *693:D *350:24 0.000155942
23 *693:D *414:39 3.03575e-05
24 *69:16 *692:CLK 1.60259e-05
25 *69:16 *721:A 1.93666e-05
26 *69:16 *722:A2 3.26102e-05
27 *69:16 *998:A 7.70513e-05
28 *69:16 *180:26 0.000376226
29 *69:16 *182:30 0.000588619
30 *546:A *69:16 0.000229756
31 *624:B1 *69:16 3.80087e-06
32 *1:59 *693:D 0.00038418
33 *66:14 *69:16 0.000203756
*RES
1 *624:Y *69:16 36.3672 
2 *69:16 *693:D 40.8068 
*END

*D_NET *70 0.000359241
*CONN
*I *627:A2 I *D sky130_fd_sc_hd__o21ai_1
*I *625:Y O *D sky130_fd_sc_hd__mux2i_1
*CAP
1 *627:A2 6.80014e-05
2 *625:Y 6.80014e-05
3 *627:A2 *625:A0 4.21881e-05
4 *627:A2 *694:D 0.000159016
5 *627:A2 *710:D 2.20336e-05
*RES
1 *625:Y *627:A2 20.8855 
*END

*D_NET *71 0.0031804
*CONN
*I *627:B1 I *D sky130_fd_sc_hd__o21ai_1
*I *626:Y O *D sky130_fd_sc_hd__nand2_1
*CAP
1 *627:B1 0.000779606
2 *626:Y 0.000779606
3 *627:B1 *518:B1 5.04829e-06
4 *627:B1 *543:A 1.5714e-05
5 *627:B1 *543:B 0.000218589
6 *627:B1 *588:A2 0
7 *627:B1 *625:A0 0.000318089
8 *627:B1 *626:A 2.74306e-06
9 *627:B1 *680:CLK 2.41274e-06
10 *627:B1 *730:A1 1.91246e-05
11 *627:B1 *730:B1 9.89411e-06
12 *627:B1 *731:A2 1.74008e-05
13 *627:B1 *174:10 0.000158802
14 *627:B1 *259:208 1.5714e-05
15 *627:B1 *386:41 0.000558339
16 *627:B1 *399:80 3.95587e-05
17 *627:B1 *448:27 5.28189e-05
18 *627:B1 *448:35 7.07762e-05
19 *547:A *627:B1 0.0001045
20 *1:28 *627:B1 1.16627e-05
*RES
1 *626:Y *627:B1 49.7099 
*END

*D_NET *72 0.000992467
*CONN
*I *694:D I *D sky130_fd_sc_hd__edfxtp_1
*I *627:Y O *D sky130_fd_sc_hd__o21ai_1
*CAP
1 *694:D 0.00032961
2 *627:Y 0.00032961
3 *694:D *625:A1 6.27782e-05
4 *694:D *694:DE 3.34188e-05
5 *694:D *710:D 1.00603e-05
6 *694:D *856:A 2.41274e-06
7 *694:D *399:80 6.00698e-05
8 *694:D *444:118 5.49029e-06
9 *627:A2 *694:D 0.000159016
*RES
1 *627:Y *694:D 34.031 
*END

*D_NET *73 0.00415375
*CONN
*I *630:A2 I *D sky130_fd_sc_hd__o21ai_1
*I *628:Y O *D sky130_fd_sc_hd__mux2i_2
*CAP
1 *630:A2 0.000185872
2 *628:Y 0.00097799
3 *73:12 0.00116386
4 *630:A2 *75:14 6.5568e-05
5 *630:A2 *413:6 1.76067e-05
6 *630:A2 *413:26 6.1454e-05
7 *73:12 *595:A0 0
8 *73:12 *628:A1 8.24301e-05
9 *73:12 *653:S 0
10 *73:12 *696:D 0
11 *73:12 *826:A 3.95077e-05
12 *73:12 *843:A 0
13 *73:12 *75:14 0
14 *73:12 *127:16 0.000742632
15 *73:12 *210:12 9.98615e-06
16 *73:12 *269:12 0.000290629
17 *73:12 *398:12 5.82969e-05
18 *541:B *73:12 0.000194016
19 *918:A *73:12 0.000169629
20 *933:A *630:A2 2.58757e-05
21 *933:A *73:12 6.83999e-05
*RES
1 *628:Y *73:12 48.9051 
2 *73:12 *630:A2 13.8548 
*END

*D_NET *74 0.00245534
*CONN
*I *630:B1 I *D sky130_fd_sc_hd__o21ai_1
*I *629:Y O *D sky130_fd_sc_hd__nand2_1
*CAP
1 *630:B1 0
2 *629:Y 0.000864323
3 *74:18 0.000864323
4 *74:18 *542:B 0.000113109
5 *74:18 *629:A 8.22145e-05
6 *74:18 *630:A1 3.00174e-06
7 *74:18 *710:D 0.000100107
8 *74:18 *75:14 1.32043e-05
9 *74:18 *395:20 0.000304983
10 *74:18 *431:84 0
11 *74:18 *444:120 0.00011008
*RES
1 *629:Y *74:18 45.9029 
2 *74:18 *630:B1 9.24915 
*END

*D_NET *75 0.0032942
*CONN
*I *680:D I *D sky130_fd_sc_hd__edfxtp_1
*I *630:Y O *D sky130_fd_sc_hd__o21ai_1
*CAP
1 *680:D 0
2 *630:Y 0.00113835
3 *75:14 0.00113835
4 *75:14 *542:B 0.000233988
5 *75:14 *595:A0 0.000199432
6 *75:14 *595:S 1.10793e-05
7 *75:14 *630:A1 5.04829e-06
8 *75:14 *653:S 0.000147165
9 *75:14 *680:DE 3.6783e-05
10 *75:14 *701:DE 7.16357e-05
11 *75:14 *710:D 0
12 *75:14 *826:A 0
13 *75:14 *174:10 1.83827e-06
14 *75:14 *431:84 0.000156127
15 *541:B *75:14 0
16 *630:A2 *75:14 6.5568e-05
17 *24:16 *75:14 7.56233e-05
18 *73:12 *75:14 0
19 *74:18 *75:14 1.32043e-05
*RES
1 *630:Y *75:14 47.1496 
2 *75:14 *680:D 9.24915 
*END

*D_NET *76 0.0017143
*CONN
*I *633:A1 I *D sky130_fd_sc_hd__o21ai_1
*I *631:Y O *D sky130_fd_sc_hd__mux2i_4
*CAP
1 *633:A1 0.000532559
2 *631:Y 0.000532559
3 *633:A1 *634:A1 0.000140602
4 *633:A1 *634:S 0.000160942
5 *633:A1 *681:D 0.000114584
6 *633:A1 *900:A 3.53886e-05
7 *633:A1 *77:22 9.39837e-05
8 *633:A1 *159:18 7.46548e-05
9 *633:A1 *380:22 1.82679e-05
10 *633:A1 *446:40 1.0758e-05
*RES
1 *631:Y *633:A1 31.3024 
*END

*D_NET *77 0.00344808
*CONN
*I *633:B1 I *D sky130_fd_sc_hd__o21ai_1
*I *632:Y O *D sky130_fd_sc_hd__nand2_1
*CAP
1 *633:B1 0
2 *632:Y 0.000960235
3 *77:22 0.000960235
4 *77:22 *500:B 0.000430659
5 *77:22 *681:D 6.78364e-06
6 *77:22 *900:A 0.000275411
7 *77:22 *211:6 0.000133859
8 *77:22 *259:259 1.91114e-05
9 *77:22 *393:20 2.99643e-05
10 *77:22 *405:22 0.000205666
11 *77:22 *445:90 0.000313357
12 *77:22 *445:92 7.09666e-06
13 *77:22 *446:56 1.1718e-05
14 *633:A1 *77:22 9.39837e-05
*RES
1 *632:Y *77:22 41.3083 
2 *77:22 *633:B1 9.24915 
*END

*D_NET *78 0.00277072
*CONN
*I *681:D I *D sky130_fd_sc_hd__edfxtp_1
*I *633:Y O *D sky130_fd_sc_hd__o21ai_1
*CAP
1 *681:D 0.000830247
2 *633:Y 0.000830247
3 *681:D *512:A 0.000111743
4 *681:D *567:B 3.31847e-05
5 *681:D *681:DE 3.42041e-05
6 *681:D *880:A 5.41799e-05
7 *681:D *123:18 0.000160829
8 *681:D *191:10 1.04194e-05
9 *681:D *446:56 0.000300324
10 *633:A1 *681:D 0.000114584
11 *1001:A *681:D 0.000283978
12 *77:22 *681:D 6.78364e-06
*RES
1 *633:Y *681:D 46.9929 
*END

*D_NET *79 0.00197037
*CONN
*I *636:A1 I *D sky130_fd_sc_hd__o21ai_1
*I *634:Y O *D sky130_fd_sc_hd__mux2i_1
*CAP
1 *636:A1 0.000321084
2 *634:Y 0.000321084
3 *636:A1 *549:A 6.27332e-05
4 *636:A1 *634:A0 0.00014561
5 *636:A1 *636:A2 0.000482859
6 *636:A1 *679:DE 0
7 *636:A1 *697:D 0.00013614
8 *636:A1 *697:DE 1.32198e-05
9 *636:A1 *1000:A 0.00031162
10 *636:A1 *123:18 0.000159016
11 *636:A1 *198:18 1.70006e-05
*RES
1 *634:Y *636:A1 40.331 
*END

*D_NET *80 0.00429605
*CONN
*I *636:B1 I *D sky130_fd_sc_hd__o21ai_1
*I *635:Y O *D sky130_fd_sc_hd__nand2_1
*CAP
1 *636:B1 0.00017727
2 *635:Y 0.000970302
3 *80:18 0.00114757
4 *636:B1 *636:A2 1.63255e-05
5 *636:B1 *697:D 0
6 *636:B1 *198:18 2.20471e-05
7 *636:B1 *255:18 6.3657e-05
8 *636:B1 *256:36 2.07503e-05
9 *636:B1 *257:22 0.000158451
10 *80:18 *634:A0 7.86825e-06
11 *80:18 *639:A1 0.000324151
12 *80:18 *639:B1 2.41483e-05
13 *80:18 *655:A1 4.80016e-05
14 *80:18 *655:S 0
15 *80:18 *662:A 0.000122048
16 *80:18 *662:B 4.56208e-06
17 *80:18 *257:22 6.96979e-05
18 *80:18 *283:10 0.00024913
19 *80:18 *408:16 0.000799148
20 *80:18 *410:8 5.89592e-05
21 *550:A *80:18 6.0227e-06
22 *930:A *80:18 5.94052e-06
23 *22:12 *80:18 0
*RES
1 *635:Y *80:18 47.9398 
2 *80:18 *636:B1 18.8129 
*END

*D_NET *81 0.00156106
*CONN
*I *682:D I *D sky130_fd_sc_hd__edfxtp_1
*I *636:Y O *D sky130_fd_sc_hd__o21ai_1
*CAP
1 *682:D 0.000407583
2 *636:Y 0.000407583
3 *682:D *682:DE 3.44641e-05
4 *682:D *106:20 0.000188358
5 *682:D *198:18 0.000111708
6 *682:D *199:40 0.000150603
7 *682:D *459:22 0.000147005
8 *23:33 *682:D 0.000113756
*RES
1 *636:Y *682:D 40.2039 
*END

*D_NET *82 0.00235889
*CONN
*I *639:A1 I *D sky130_fd_sc_hd__o21ai_1
*I *637:Y O *D sky130_fd_sc_hd__mux2i_1
*CAP
1 *639:A1 0.000426064
2 *637:Y 0.000426064
3 *639:A1 *639:A2 6.92705e-05
4 *639:A1 *639:B1 0.000534349
5 *639:A1 *655:A1 0
6 *639:A1 *655:S 0.000147943
7 *639:A1 *698:D 4.40272e-05
8 *639:A1 *699:DE 5.35634e-05
9 *639:A1 *928:A 2.40884e-05
10 *639:A1 *84:22 0.000268619
11 *639:A1 *445:247 4.0752e-05
12 *80:18 *639:A1 0.000324151
*RES
1 *637:Y *639:A1 44.7569 
*END

*D_NET *83 0.00142286
*CONN
*I *639:B1 I *D sky130_fd_sc_hd__o21ai_1
*I *638:Y O *D sky130_fd_sc_hd__nand2_1
*CAP
1 *639:B1 0.000154551
2 *638:Y 0.000154551
3 *639:B1 *529:B 6.92705e-05
4 *639:B1 *635:A 6.37152e-05
5 *639:B1 *638:B 9.65932e-05
6 *639:B1 *828:A 0.000111708
7 *639:B1 *445:247 0.000213976
8 *639:A1 *639:B1 0.000534349
9 *80:18 *639:B1 2.41483e-05
*RES
1 *638:Y *639:B1 27.5407 
*END

*D_NET *84 0.00362743
*CONN
*I *683:D I *D sky130_fd_sc_hd__edfxtp_1
*I *639:Y O *D sky130_fd_sc_hd__o21ai_1
*CAP
1 *683:D 0.000160133
2 *639:Y 0.000651608
3 *84:22 0.000811741
4 *683:D *637:A1 1.82679e-05
5 *683:D *683:DE 0.00013556
6 *683:D *471:28 4.96177e-05
7 *84:22 *529:B 0.000226672
8 *84:22 *635:A 1.5714e-05
9 *84:22 *637:A0 0
10 *84:22 *655:A0 0.000158371
11 *84:22 *655:A1 0
12 *84:22 *655:S 0
13 *84:22 *698:D 8.02245e-05
14 *84:22 *699:DE 0.000123597
15 *84:22 *700:CLK 0.000186163
16 *84:22 *846:A 0
17 *84:22 *408:16 9.24241e-05
18 *84:22 *430:137 6.80985e-05
19 *84:22 *471:28 0.00058062
20 *639:A1 *84:22 0.000268619
*RES
1 *639:Y *84:22 46.9067 
2 *84:22 *683:D 18.0051 
*END

*D_NET *85 0.000855047
*CONN
*I *642:A2 I *D sky130_fd_sc_hd__o21ai_0
*I *640:Y O *D sky130_fd_sc_hd__mux2i_1
*CAP
1 *642:A2 0.0001332
2 *640:Y 0.0001332
3 *642:A2 *640:A0 5.04829e-06
4 *642:A2 *642:B1 0.000210918
5 *642:A2 *256:36 0.000183115
6 *642:A2 *379:20 0.000126787
7 *642:A2 *436:62 6.27782e-05
*RES
1 *640:Y *642:A2 33.3785 
*END

*D_NET *86 0.00221814
*CONN
*I *642:B1 I *D sky130_fd_sc_hd__o21ai_0
*I *641:Y O *D sky130_fd_sc_hd__nand2_1
*CAP
1 *642:B1 0.000607878
2 *641:Y 0.000607878
3 *642:B1 *548:B 2.19131e-05
4 *642:B1 *641:A 2.16355e-05
5 *642:B1 *674:A 6.50727e-05
6 *642:B1 *684:CLK 0.000195482
7 *642:B1 *899:A 5.20308e-05
8 *642:B1 *256:36 5.51483e-06
9 *642:B1 *379:20 0.000309067
10 *642:B1 *436:62 0.000120749
11 *642:A2 *642:B1 0.000210918
*RES
1 *641:Y *642:B1 40.4784 
*END

*D_NET *87 0.000434795
*CONN
*I *684:D I *D sky130_fd_sc_hd__edfxtp_1
*I *642:Y O *D sky130_fd_sc_hd__o21ai_0
*CAP
1 *684:D 0.000100503
2 *642:Y 0.000100503
3 *684:D *674:A 0.000233789
*RES
1 *642:Y *684:D 21.1507 
*END

*D_NET *88 0.00331954
*CONN
*I *695:D I *D sky130_fd_sc_hd__edfxtp_1
*I *643:X O *D sky130_fd_sc_hd__mux2_4
*CAP
1 *695:D 0.00097753
2 *643:X 0.00097753
3 *695:D resp_msg[0] 1.24886e-05
4 *695:D *632:A 1.33805e-05
5 *695:D *654:S 3.28634e-05
6 *695:D *663:C 7.26347e-06
7 *695:D *703:CLK 5.76258e-05
8 *695:D *861:A 6.3657e-05
9 *695:D *259:267 0.000434496
10 *695:D *259:298 0.000111802
11 *695:D *333:29 0.000485883
12 *695:D *380:22 0
13 *695:D *430:79 6.08467e-05
14 *695:D *430:94 8.41713e-05
*RES
1 *643:X *695:D 42.0971 
*END

*D_NET *89 0.00148912
*CONN
*I *702:D I *D sky130_fd_sc_hd__edfxtp_1
*I *644:X O *D sky130_fd_sc_hd__mux2_4
*CAP
1 *702:D 0.000247186
2 *644:X 0.000247186
3 *702:D *602:B 0
4 *702:D *644:A0 0.000192991
5 *702:D *644:A1 0.000159185
6 *702:D *129:14 1.41291e-05
7 *603:A2 *702:D 0.000628442
*RES
1 *644:X *702:D 39.432 
*END

*D_NET *90 0.00456164
*CONN
*I *703:D I *D sky130_fd_sc_hd__edfxtp_1
*I *645:X O *D sky130_fd_sc_hd__mux2_4
*CAP
1 *703:D 0.000594307
2 *645:X 0.000303358
3 *90:16 0.000897665
4 *703:D *500:B 0
5 *703:D *512:A 2.89019e-05
6 *703:D *512:B 0.000327294
7 *703:D *643:A1 6.8842e-05
8 *703:D *703:CLK 1.45944e-05
9 *703:D *970:A 0.000200664
10 *703:D *123:18 0.000239799
11 *703:D *304:20 0.000117838
12 *703:D *430:94 3.14375e-05
13 *703:D *445:84 4.38232e-05
14 *703:D *456:28 0.000146736
15 *703:D *474:90 0.000132662
16 *90:16 *508:A 5.99529e-06
17 *90:16 *566:A 0.000358855
18 *90:16 *566:B 1.37189e-05
19 *90:16 *209:14 0.000108765
20 *90:16 *213:30 5.49913e-05
21 *90:16 *300:10 3.02534e-05
22 *90:16 *435:14 0.000841137
*RES
1 *645:X *90:16 34.6257 
2 *90:16 *703:D 33.3955 
*END

*D_NET *91 0.00225334
*CONN
*I *704:D I *D sky130_fd_sc_hd__edfxtp_1
*I *646:X O *D sky130_fd_sc_hd__mux2_4
*CAP
1 *704:D 0.000707396
2 *646:X 0.000707396
3 *704:D *506:A 9.98615e-06
4 *704:D *552:A1 0.000132503
5 *704:D *552:A2 1.66626e-05
6 *704:D *555:A1 7.45743e-05
7 *704:D *704:DE 5.044e-05
8 *704:D *705:D 0.000106867
9 *704:D *890:A 1.43507e-05
10 *704:D *902:A 0.000179866
11 *704:D *924:A 0
12 *704:D *973:A 6.64392e-05
13 *704:D *404:14 9.54357e-06
14 *704:D *422:42 1.66771e-05
15 *704:D *481:32 4.87439e-05
16 *16:6 *704:D 0.000111893
17 *31:37 *704:D 0
*RES
1 *646:X *704:D 45.8111 
*END

*D_NET *92 0.00324064
*CONN
*I *705:D I *D sky130_fd_sc_hd__edfxtp_1
*I *647:X O *D sky130_fd_sc_hd__mux2_4
*CAP
1 *705:D 0.000748359
2 *647:X 0.000748359
3 *705:D *506:A 0
4 *705:D *552:A1 0.000300236
5 *705:D *569:B 2.77625e-06
6 *705:D *570:A 0.000154145
7 *705:D *570:B 4.47179e-05
8 *705:D *705:DE 0.000136279
9 *705:D *924:A 0
10 *705:D *973:A 4.69495e-06
11 *705:D *190:10 0.000602981
12 *705:D *259:72 4.47179e-05
13 *705:D *365:16 4.34293e-05
14 *705:D *404:14 5.47628e-05
15 *705:D *451:22 0.000245986
16 *705:D *481:32 2.33103e-06
17 *704:D *705:D 0.000106867
*RES
1 *647:X *705:D 49.7483 
*END

*D_NET *93 0.00289807
*CONN
*I *706:D I *D sky130_fd_sc_hd__edfxtp_1
*I *648:X O *D sky130_fd_sc_hd__mux2_4
*CAP
1 *706:D 0
2 *648:X 0.000964391
3 *93:24 0.000964391
4 *93:24 *613:A0 0.000117626
5 *93:24 *613:S 9.76996e-05
6 *93:24 *664:C 0.000183504
7 *93:24 *706:DE 8.37933e-05
8 *93:24 *402:6 0.000164697
9 *93:24 *474:47 0.000108639
10 *586:B *93:24 9.43419e-05
11 *921:A *93:24 1.88152e-05
12 *922:A *93:24 7.1326e-05
13 *951:A *93:24 1.02145e-05
14 *14:6 *93:24 1.86318e-05
*RES
1 *648:X *93:24 49.7413 
2 *93:24 *706:D 9.24915 
*END

*D_NET *94 0.00190511
*CONN
*I *707:D I *D sky130_fd_sc_hd__edfxtp_1
*I *649:X O *D sky130_fd_sc_hd__mux2_4
*CAP
1 *707:D 0.000352882
2 *649:X 0.000352882
3 *707:D *649:A1 0.000343828
4 *707:D *707:DE 3.44641e-05
5 *707:D *173:10 6.7671e-06
6 *707:D *447:32 5.93747e-05
7 *707:D *464:34 8.79845e-05
8 *658:A *707:D 0.000531564
9 *3:14 *707:D 0.00013536
*RES
1 *649:X *707:D 39.6493 
*END

*D_NET *95 0.00361091
*CONN
*I *708:D I *D sky130_fd_sc_hd__edfxtp_1
*I *650:X O *D sky130_fd_sc_hd__mux2_4
*CAP
1 *708:D 5.41573e-05
2 *650:X 0.000698952
3 *95:26 0.00075311
4 *95:26 resp_msg[6] 2.70203e-05
5 *95:26 resp_msg[7] 0.000351508
6 *95:26 *619:A0 1.5562e-05
7 *95:26 *619:A1 5.04829e-06
8 *95:26 *650:A0 0.00025527
9 *95:26 *650:A1 0
10 *95:26 *650:S 0
11 *95:26 *854:A 1.66626e-05
12 *95:26 *873:A 7.48633e-05
13 *95:26 *881:A 7.49865e-05
14 *95:26 *980:A 1.33438e-05
15 *95:26 *265:16 0.000553169
16 *95:26 *391:31 0.000306404
17 *95:26 *431:36 3.73178e-05
18 *691:D *95:26 1.03403e-05
19 *28:22 *95:26 0.000137821
20 *41:12 *708:D 0.000135708
21 *63:22 *95:26 8.96673e-05
*RES
1 *650:X *95:26 46.548 
2 *95:26 *708:D 15.2924 
*END

*D_NET *96 0.0015631
*CONN
*I *709:D I *D sky130_fd_sc_hd__edfxtp_1
*I *651:X O *D sky130_fd_sc_hd__mux2_4
*CAP
1 *709:D 0.000490703
2 *651:X 0.000490703
3 *709:D *651:S 0.000160617
4 *709:D *692:DE 1.91391e-05
5 *709:D *709:DE 3.39728e-05
6 *709:D *171:16 8.36181e-05
7 *709:D *265:16 8.22272e-05
8 *709:D *431:73 0.000160617
9 *709:D *448:112 4.15008e-05
10 *546:A *709:D 0
*RES
1 *651:X *709:D 40.658 
*END

*D_NET *97 0.00261899
*CONN
*I *710:D I *D sky130_fd_sc_hd__edfxtp_1
*I *652:X O *D sky130_fd_sc_hd__mux2_4
*CAP
1 *710:D 0.00053878
2 *652:X 0.00053878
3 *710:D *625:A0 0.000115428
4 *710:D *625:A1 1.03403e-05
5 *710:D *630:A1 6.49694e-05
6 *710:D *856:A 0.000261135
7 *710:D *174:10 0.000746318
8 *710:D *386:16 6.08467e-05
9 *710:D *399:80 2.41274e-06
10 *710:D *431:73 0.000147777
11 *627:A2 *710:D 2.20336e-05
12 *694:D *710:D 1.00603e-05
13 *74:18 *710:D 0.000100107
14 *75:14 *710:D 0
*RES
1 *652:X *710:D 46.0082 
*END

*D_NET *98 0.00178847
*CONN
*I *696:D I *D sky130_fd_sc_hd__edfxtp_1
*I *653:X O *D sky130_fd_sc_hd__mux2_4
*CAP
1 *696:D 0.000690256
2 *653:X 0.000690256
3 *696:D *696:DE 3.44641e-05
4 *696:D *843:A 0.000343479
5 *696:D *127:16 0
6 *9:14 *696:D 3.0019e-05
7 *73:12 *696:D 0
*RES
1 *653:X *696:D 44.8816 
*END

*D_NET *99 0.00152158
*CONN
*I *697:D I *D sky130_fd_sc_hd__edfxtp_1
*I *654:X O *D sky130_fd_sc_hd__mux2_4
*CAP
1 *697:D 0.000428882
2 *654:X 0.000428882
3 *697:D *549:A 8.62625e-06
4 *697:D *654:S 6.73169e-05
5 *697:D *697:DE 3.39728e-05
6 *697:D *159:18 0.000185682
7 *697:D *198:18 0.000108774
8 *697:D *392:12 0.000123304
9 *636:A1 *697:D 0.00013614
10 *636:B1 *697:D 0
*RES
1 *654:X *697:D 40.3352 
*END

*D_NET *100 0.00250312
*CONN
*I *698:D I *D sky130_fd_sc_hd__edfxtp_1
*I *655:X O *D sky130_fd_sc_hd__mux2_4
*CAP
1 *698:D 0.000946367
2 *655:X 0.000946367
3 *698:D *635:A 0.000149086
4 *698:D *655:S 0
5 *698:D *698:DE 4.14045e-05
6 *698:D *700:DE 6.50586e-05
7 *698:D *864:A 4.3116e-06
8 *698:D *280:10 5.46198e-06
9 *698:D *430:137 1.92336e-05
10 *698:D *471:28 1.65872e-05
11 *698:D *477:14 0.000155411
12 *526:A *698:D 2.95757e-05
13 *639:A1 *698:D 4.40272e-05
14 *84:22 *698:D 8.02245e-05
*RES
1 *655:X *698:D 41.8754 
*END

*D_NET *101 0.0026655
*CONN
*I *699:D I *D sky130_fd_sc_hd__edfxtp_1
*I *656:X O *D sky130_fd_sc_hd__mux2_4
*CAP
1 *699:D 0.000631777
2 *656:X 0.000631777
3 *699:D *638:A 0.000138284
4 *699:D *699:DE 3.44641e-05
5 *699:D *846:A 0.000420317
6 *699:D *276:18 0.000314916
7 *699:D *446:125 6.63586e-05
8 *529:A *699:D 2.75449e-05
9 *656:A0 *699:D 2.07365e-05
10 *990:A *699:D 0.000216441
11 *6:8 *699:D 8.9116e-05
12 *21:12 *699:D 7.37686e-05
*RES
1 *656:X *699:D 48.8907 
*END

*D_NET *102 0.00293256
*CONN
*I *700:D I *D sky130_fd_sc_hd__edfxtp_1
*I *657:X O *D sky130_fd_sc_hd__mux2_4
*CAP
1 *700:D 0
2 *657:X 0.000667833
3 *102:14 0.000667833
4 *102:14 *638:A 0.000243648
5 *102:14 *656:A1 0.000141044
6 *102:14 *657:A1 0.000655857
7 *102:14 *683:DE 5.58872e-05
8 *102:14 *684:CLK 1.06443e-05
9 *102:14 *700:DE 6.7319e-05
10 *102:14 *746:B 3.02592e-05
11 *102:14 *257:22 8.96342e-05
12 *102:14 *272:12 0.00013156
13 *102:14 *446:144 2.31171e-05
14 *657:A0 *102:14 0.00014792
*RES
1 *657:X *102:14 41.4698 
2 *102:14 *700:D 9.24915 
*END

*D_NET *103 0.00345491
*CONN
*I *676:D I *D sky130_fd_sc_hd__dfxtp_4
*I *659:X O *D sky130_fd_sc_hd__a221o_1
*CAP
1 *676:D 0
2 *659:X 0.000660351
3 *103:12 0.000660351
4 *103:12 *495:A 0.000246668
5 *103:12 *572:B 2.17914e-05
6 *103:12 *618:A1 0.000456818
7 *103:12 *874:A 5.46889e-05
8 *103:12 *911:A 0.00010609
9 *103:12 *989:A 2.19131e-05
10 *103:12 *113:10 8.82716e-05
11 *103:12 *315:16 0.000385234
12 *103:12 *385:16 0.000599849
13 *103:12 *447:18 0
14 *103:12 *447:24 0.000152885
*RES
1 *659:X *103:12 42.6848 
2 *103:12 *676:D 9.24915 
*END

*D_NET *104 0.00490136
*CONN
*I *668:A2 I *D sky130_fd_sc_hd__o22ai_1
*I *660:Y O *D sky130_fd_sc_hd__nor2b_1
*CAP
1 *668:A2 0.000421129
2 *660:Y 0.000441387
3 *104:10 0.000862516
4 *668:A2 *670:B_N 0.000218375
5 *668:A2 *111:12 0.00104511
6 *104:10 *649:A1 8.48322e-05
7 *104:10 *666:B 0.000299881
8 *104:10 *111:12 0.000705185
9 *104:10 *172:14 6.91091e-06
10 *667:B1 *104:10 1.22289e-05
11 *668:A1 *668:A2 1.88422e-05
12 *3:14 *104:10 0.00078497
*RES
1 *660:Y *104:10 37.937 
2 *104:10 *668:A2 22.1738 
*END

*D_NET *105 0.00920282
*CONN
*I *963:A I *D sky130_fd_sc_hd__buf_4
*I *661:Y O *D sky130_fd_sc_hd__nor4_1
*CAP
1 *963:A 0
2 *661:Y 0.00284071
3 *105:34 0.00284071
4 *105:34 *517:A2 0.000287797
5 *105:34 *619:S 5.78282e-05
6 *105:34 *661:A 2.18679e-05
7 *105:34 *661:B 0.000725473
8 *105:34 *693:CLK 0.000200322
9 *105:34 *722:B1_N 0.00022157
10 *105:34 *729:B 0.000160898
11 *105:34 *734:A1 3.70027e-06
12 *105:34 *745:A1 0.000371406
13 *105:34 *880:A 1.46849e-05
14 *105:34 *888:A 5.42693e-06
15 *105:34 *118:12 1.91246e-05
16 *105:34 *180:26 0.000181846
17 *105:34 *182:30 1.04282e-05
18 *105:34 *292:22 1.73562e-05
19 *105:34 *319:36 0.000546915
20 *105:34 *414:39 4.79809e-06
21 *105:34 *415:71 2.23586e-05
22 *105:34 *448:23 0.000162119
23 *105:34 *475:18 4.56195e-05
24 *744:A *105:34 0.000369551
25 *26:26 *105:34 7.03096e-05
*RES
1 *661:Y *105:34 41.0473 
2 *105:34 *963:A 9.24915 
*END

*D_NET *106 0.00390378
*CONN
*I *904:A I *D sky130_fd_sc_hd__buf_4
*I *662:Y O *D sky130_fd_sc_hd__nor4_1
*CAP
1 *904:A 0
2 *662:Y 0.0012846
3 *106:20 0.0012846
4 *106:20 *549:A 0
5 *106:20 *662:B 1.69394e-06
6 *106:20 *662:D 2.16355e-05
7 *106:20 *738:B 0.000365397
8 *106:20 *739:A2 5.7209e-05
9 *106:20 *739:B1 1.41181e-05
10 *106:20 *251:24 5.37526e-05
11 *106:20 *293:12 0.000330809
12 *106:20 *384:18 0.000107496
13 *106:20 *386:101 3.99658e-05
14 *106:20 *485:26 0.000154145
15 *682:D *106:20 0.000188358
16 *23:33 *106:20 0
*RES
1 *662:Y *106:20 45.1903 
2 *106:20 *904:A 9.24915 
*END

*D_NET *107 0.00884535
*CONN
*I *665:C I *D sky130_fd_sc_hd__and4_1
*I *663:Y O *D sky130_fd_sc_hd__nor4_1
*CAP
1 *665:C 0
2 *663:Y 0.00288074
3 *107:26 0.00288074
4 *107:26 *490:B2 2.85505e-05
5 *107:26 *496:A2 0
6 *107:26 *507:C1 2.19322e-05
7 *107:26 *552:B1 0.000473742
8 *107:26 *571:A 6.51637e-05
9 *107:26 *598:S 1.75765e-05
10 *107:26 *663:C 1.58706e-05
11 *107:26 *736:A 0.000363166
12 *107:26 *847:A 4.47123e-05
13 *107:26 *190:14 0.000730971
14 *107:26 *259:267 1.57481e-05
15 *107:26 *384:18 5.1493e-06
16 *107:26 *429:29 0.000180831
17 *107:26 *474:65 0.000309347
18 *984:A *107:26 7.21271e-05
19 *33:33 *107:26 0.000738987
*RES
1 *663:Y *107:26 46.1384 
2 *107:26 *665:C 9.24915 
*END

*D_NET *108 0.0063346
*CONN
*I *665:D I *D sky130_fd_sc_hd__and4_1
*I *664:Y O *D sky130_fd_sc_hd__nor4_1
*CAP
1 *665:D 0.00106038
2 *664:Y 0.000818769
3 *108:18 0.00187915
4 *665:D *491:A 0.000109427
5 *665:D *503:B1 2.58757e-05
6 *665:D *577:A1 3.54295e-05
7 *665:D *577:A2 5.62568e-05
8 *665:D *665:B 6.08467e-05
9 *665:D *714:A2 0.000100955
10 *665:D *892:A 3.96696e-05
11 *665:D *898:A 4.00404e-05
12 *665:D *227:10 0.000238275
13 *665:D *242:19 2.47629e-05
14 *665:D *305:16 6.08467e-05
15 *108:18 *503:A2 1.5714e-05
16 *108:18 *593:A 0.000113107
17 *108:18 *659:C1 7.77309e-06
18 *108:18 *664:C 6.22259e-05
19 *108:18 *948:A 0.000144546
20 *108:18 *305:16 1.03594e-05
21 *108:18 *387:20 8.9803e-05
22 *108:18 *403:37 3.8539e-05
23 *108:18 *404:68 0.000732496
24 *108:18 *458:12 7.82353e-05
25 *582:B *108:18 6.19292e-05
26 *981:A *108:18 0.000182759
27 *29:40 *108:18 0.000145871
28 *29:48 *108:18 0.000100557
*RES
1 *664:Y *108:18 46.1488 
2 *108:18 *665:D 31.8582 
*END

*D_NET *109 0.00860686
*CONN
*I *666:A I *D sky130_fd_sc_hd__nand2_4
*I *667:A2 I *D sky130_fd_sc_hd__a21oi_2
*I *665:X O *D sky130_fd_sc_hd__and4_1
*CAP
1 *666:A 4.1139e-06
2 *667:A2 0.000516429
3 *665:X 0.00204752
4 *109:28 0.000548201
5 *109:20 0.00207517
6 *666:A *648:A1 3.44282e-05
7 *667:A2 req_rdy 1.2495e-05
8 *667:A2 *649:A0 3.60437e-05
9 *667:A2 *671:B1 6.50727e-05
10 *667:A2 *672:A 5.86908e-05
11 *667:A2 *860:A 6.27782e-05
12 *667:A2 *115:14 0.000339163
13 *667:A2 *473:30 2.58757e-05
14 *109:20 *492:B1 1.91391e-05
15 *109:20 *572:A 1.5714e-05
16 *109:20 *575:A 0.000408281
17 *109:20 *618:A1 1.87091e-06
18 *109:20 *659:A2 2.50694e-05
19 *109:20 *659:B2 0.000132655
20 *109:20 *659:C1 1.67453e-05
21 *109:20 *663:D 1.12135e-05
22 *109:20 *671:A1 0.000636716
23 *109:20 *591:A 3.18806e-05
24 *109:20 *714:A1 1.16246e-05
25 *109:20 *718:C 1.94472e-05
26 *109:20 *120:32 0.000389755
27 *109:20 *170:12 2.41274e-06
28 *109:20 *238:59 6.22114e-05
29 *109:20 *239:8 0.000255878
30 *109:20 *239:14 1.85244e-05
31 *109:20 *429:29 1.08251e-05
32 *109:20 *429:83 1.99363e-05
33 *109:20 *430:14 0
34 *109:20 *443:18 4.2273e-06
35 *109:20 *447:18 8.79845e-05
36 *109:28 *648:A1 8.16135e-05
37 *109:28 *166:33 2.32676e-05
38 *936:A *667:A2 0.000134688
39 *936:A *109:20 0
40 *981:A *109:20 0
41 *3:14 *667:A2 0.000211464
42 *60:12 *667:A2 0.000147735
*RES
1 *665:X *109:20 49.5015 
2 *109:20 *109:28 9.24137 
3 *109:28 *667:A2 35.7059 
4 *109:28 *666:A 9.82786 
*END

*D_NET *110 0.00318948
*CONN
*I *671:B1 I *D sky130_fd_sc_hd__a22oi_2
*I *666:Y O *D sky130_fd_sc_hd__nand2_4
*CAP
1 *671:B1 0.000541514
2 *666:Y 0.000541514
3 *671:B1 *597:B 1.07248e-05
4 *671:B1 *660:A 1.2851e-05
5 *671:B1 *670:A 0.000804711
6 *671:B1 *115:14 2.91577e-05
7 *671:B1 *166:33 7.75133e-06
8 *671:B1 *425:18 7.84444e-05
9 *671:B1 *425:33 0.000944273
10 *667:A2 *671:B1 6.50727e-05
11 *907:A *671:B1 7.96573e-05
12 *965:A *671:B1 7.38102e-05
*RES
1 *666:Y *671:B1 49.6194 
*END

*D_NET *111 0.00397815
*CONN
*I *668:B2 I *D sky130_fd_sc_hd__o22ai_1
*I *667:Y O *D sky130_fd_sc_hd__a21oi_2
*CAP
1 *668:B2 0
2 *667:Y 0.000499387
3 *111:12 0.000499387
4 *111:12 *668:B1 2.07365e-05
5 *111:12 *894:A 0.000351515
6 *111:12 *113:10 8.3792e-05
7 *111:12 *172:14 3.16908e-05
8 *111:12 *374:20 2.57986e-05
9 *667:B1 *111:12 0.000544234
10 *668:A1 *111:12 6.27782e-05
11 *668:A2 *111:12 0.00104511
12 *4:10 *111:12 0.000108542
13 *104:10 *111:12 0.000705185
*RES
1 *667:Y *111:12 43.1084 
2 *111:12 *668:B2 9.24915 
*END

*D_NET *112 0.000670943
*CONN
*I *670:B_N I *D sky130_fd_sc_hd__nor2b_2
*I *668:Y O *D sky130_fd_sc_hd__o22ai_1
*CAP
1 *670:B_N 0.000226284
2 *668:Y 0.000226284
3 *668:A2 *670:B_N 0.000218375
*RES
1 *668:Y *670:B_N 31.7175 
*END

*D_NET *113 0.00547622
*CONN
*I *659:A1 I *D sky130_fd_sc_hd__a221o_1
*I *669:Y O *D sky130_fd_sc_hd__clkinv_1
*CAP
1 *659:A1 6.02107e-05
2 *669:Y 0.001541
3 *113:10 0.00160121
4 *659:A1 *659:A2 1.41976e-05
5 *659:A1 *659:B2 0
6 *113:10 *492:A2 0.000117864
7 *113:10 *492:C1 2.67121e-05
8 *113:10 *495:A 0.000119171
9 *113:10 *596:B 9.25588e-05
10 *113:10 *617:A 0.000471814
11 *113:10 *618:A1 0.000569768
12 *113:10 *659:B1 1.3813e-05
13 *113:10 *668:B1 0.000110042
14 *113:10 *858:A 3.25544e-05
15 *113:10 *894:A 7.20028e-05
16 *113:10 *989:A 0
17 *113:10 *374:20 6.36617e-05
18 *113:10 *433:32 0.000110458
19 *113:10 *447:88 7.92757e-06
20 *596:A *113:10 7.04109e-05
21 *668:A1 *113:10 3.31745e-05
22 *62:22 *113:10 0.00017561
23 *103:12 *113:10 8.82716e-05
24 *111:12 *113:10 8.3792e-05
*RES
1 *669:Y *113:10 49.1319 
2 *113:10 *659:A1 15.0513 
*END

*D_NET *114 0.00239995
*CONN
*I *677:D I *D sky130_fd_sc_hd__dfxtp_1
*I *670:Y O *D sky130_fd_sc_hd__nor2b_2
*CAP
1 *677:D 0.000984727
2 *670:Y 0.000984727
3 *677:D *597:A_N 0.000411806
4 *677:D *649:A1 3.43721e-06
5 *677:D *677:CLK 1.18084e-05
6 *677:D *853:A 0
7 *677:D *172:14 3.44254e-06
*RES
1 *670:Y *677:D 44.6908 
*END

*D_NET *115 0.00429166
*CONN
*I *672:B I *D sky130_fd_sc_hd__nor2_1
*I *671:Y O *D sky130_fd_sc_hd__a22oi_2
*CAP
1 *672:B 0
2 *671:Y 0.00102347
3 *115:14 0.00102347
4 *115:14 *659:C1 3.61875e-05
5 *115:14 *672:A 4.58003e-05
6 *115:14 *877:A 0.000305977
7 *115:14 *894:A 0.000362021
8 *115:14 *166:33 0.000130516
9 *115:14 *172:14 2.65439e-05
10 *115:14 *425:18 8.11083e-05
11 *115:14 *425:33 0.000864089
12 *667:A2 *115:14 0.000339163
13 *671:B1 *115:14 2.91577e-05
14 *3:14 *115:14 2.41483e-05
*RES
1 *671:Y *115:14 46.3071 
2 *115:14 *672:B 9.24915 
*END

*D_NET *116 0.0027494
*CONN
*I *678:D I *D sky130_fd_sc_hd__dfxtp_1
*I *672:Y O *D sky130_fd_sc_hd__nor2_1
*CAP
1 *678:D 0.00044676
2 *672:Y 0.00044676
3 *678:D req_rdy 0.000615351
4 *678:D *672:A 7.9684e-05
5 *678:D *677:CLK 3.67708e-05
6 *678:D *706:CLK 0.000339008
7 *678:D *447:36 0.000607289
8 *678:D *447:54 0.000177772
*RES
1 *672:Y *678:D 48.3436 
*END

*D_NET *117 0.000362968
*CONN
*I *675:A2 I *D sky130_fd_sc_hd__o21ai_1
*I *673:Y O *D sky130_fd_sc_hd__mux2i_1
*CAP
1 *675:A2 7.2281e-05
2 *673:Y 7.2281e-05
3 *675:A2 *343:46 9.76996e-05
4 *675:A2 *407:22 2.16355e-05
5 *675:A2 *455:24 9.90707e-05
*RES
1 *673:Y *675:A2 30.0537 
*END

*D_NET *118 0.00357814
*CONN
*I *675:B1 I *D sky130_fd_sc_hd__o21ai_1
*I *674:Y O *D sky130_fd_sc_hd__nand2_1
*CAP
1 *675:B1 0
2 *674:Y 0.000932684
3 *118:12 0.000932684
4 *118:12 *642:A1 1.43848e-05
5 *118:12 *661:A 0.000148332
6 *118:12 *661:B 1.85244e-05
7 *118:12 *661:C 1.91246e-05
8 *118:12 *661:D 4.35492e-05
9 *118:12 *734:A1 0.00010562
10 *118:12 *158:22 6.35526e-05
11 *118:12 *184:42 0.000148982
12 *118:12 *198:18 0.000159489
13 *118:12 *254:20 0.000128648
14 *118:12 *283:23 1.32845e-05
15 *118:12 *343:12 1.40978e-05
16 *118:12 *343:25 7.59658e-05
17 *118:12 *343:46 0.000373874
18 *118:12 *362:16 0.000366224
19 *105:34 *118:12 1.91246e-05
*RES
1 *674:Y *118:12 45.5831 
2 *118:12 *675:B1 9.24915 
*END

*D_NET *119 0.00048615
*CONN
*I *685:D I *D sky130_fd_sc_hd__edfxtp_1
*I *675:Y O *D sky130_fd_sc_hd__o21ai_1
*CAP
1 *685:D 7.0663e-05
2 *675:Y 7.0663e-05
3 *685:D *588:B1 0.000110306
4 *685:D *754:C1 0.000234518
*RES
1 *675:Y *685:D 21.1507 
*END

*D_NET *255 0.00406358
*CONN
*I *589:B1 I *D sky130_fd_sc_hd__a21oi_1
*I *590:Y O *D sky130_fd_sc_hd__o21ai_0
*CAP
1 *589:B1 0
2 *590:Y 0.00109429
3 *255:18 0.00109429
4 *255:18 *641:B 1.79542e-05
5 *255:18 *662:D 0
6 *255:18 *743:A1 0.000610374
7 *255:18 *749:B1 0.000114621
8 *255:18 *888:A 1.91246e-05
9 *255:18 *257:22 1.64983e-05
10 *255:18 *258:12 8.99973e-05
11 *255:18 *290:14 0
12 *255:18 *346:20 0.000398951
13 *517:A1 *255:18 6.88784e-05
14 *536:A *255:18 7.50962e-05
15 *589:A1 *255:18 1.58551e-05
16 *589:A2 *255:18 1.19084e-06
17 *636:B1 *255:18 6.3657e-05
18 *739:A1 *255:18 0.000179101
19 *22:12 *255:18 0.000181757
20 *252:20 *255:18 1.41976e-05
21 *254:20 *255:18 7.75133e-06
*RES
1 *590:Y *255:18 46.3854 
2 *255:18 *589:B1 9.24915 
*END

*D_NET *252 0.00391044
*CONN
*I *588:C1 I *D sky130_fd_sc_hd__o311ai_4
*I *589:Y O *D sky130_fd_sc_hd__a21oi_1
*CAP
1 *588:C1 0
2 *589:Y 0.000819715
3 *252:20 0.000819715
4 *252:20 *519:A1 3.97785e-05
5 *252:20 *589:A1 2.77625e-06
6 *252:20 *589:A2 0.000405844
7 *252:20 *735:B 6.46124e-05
8 *252:20 *753:B 0.000191887
9 *252:20 *959:A 8.74583e-05
10 *252:20 *253:27 0.000153119
11 *252:20 *255:18 1.41976e-05
12 *252:20 *256:36 8.95297e-05
13 *252:20 *284:33 1.14055e-05
14 *252:20 *337:22 0.00100562
15 *252:20 *395:20 8.92568e-06
16 *252:20 *448:43 1.74447e-05
17 *587:B *252:20 0.000103329
18 *157:18 *252:20 7.50872e-05
*RES
1 *589:Y *252:20 49.3063 
2 *252:20 *588:C1 9.24915 
*END

*D_NET *247 0.00234641
*CONN
*I *587:B I *D sky130_fd_sc_hd__xnor2_2
*I *588:Y O *D sky130_fd_sc_hd__o311ai_4
*CAP
1 *587:B 0.000438632
2 *588:Y 0.000438632
3 *587:B *587:A 9.40857e-05
4 *587:B *589:A2 0.000202272
5 *587:B *753:B 0.000195545
6 *587:B *252:20 0.000103329
7 *587:B *253:27 0.000160135
8 *587:B *278:31 1.64943e-05
9 *587:B *386:60 1.31832e-05
10 *587:B *395:20 0.000346303
11 *587:B *407:22 0.000205476
12 *157:18 *587:B 0.000132321
*RES
1 *588:Y *587:B 44.1723 
*END

*D_NET *242 0.00705182
*CONN
*I *917:A I *D sky130_fd_sc_hd__buf_4
*I *584:B I *D sky130_fd_sc_hd__xnor2_4
*I *492:A2 I *D sky130_fd_sc_hd__o211ai_1
*I *586:X O *D sky130_fd_sc_hd__xor2_4
*CAP
1 *917:A 0
2 *584:B 0.000121617
3 *492:A2 0.000427509
4 *586:X 0.00057779
5 *242:25 0.00100414
6 *242:19 0.00103281
7 *492:A2 *492:C1 4.0996e-05
8 *492:A2 *495:B 0.000100397
9 *492:A2 *659:B1 9.42344e-05
10 *584:B *495:B 6.08467e-05
11 *242:19 *579:A 0.000160617
12 *242:19 *582:A 5.04829e-06
13 *242:19 *615:A1 6.29513e-05
14 *242:19 *305:16 4.01502e-05
15 *242:19 *474:53 6.02348e-05
16 *242:19 *481:8 1.57428e-05
17 *242:25 *495:B 0.000273785
18 *242:25 *431:22 0.000141071
19 *242:25 *462:32 5.18492e-05
20 *496:C1 *242:25 0.000161249
21 *503:A1 *242:19 0.000363202
22 *503:A2 *242:19 6.08467e-05
23 *503:B1 *242:19 6.08467e-05
24 *572:B *242:19 0.000190903
25 *577:A1 *242:19 0.000107496
26 *577:A2 *242:19 6.08467e-05
27 *586:B *242:19 5.71353e-05
28 *615:A2 *242:19 9.75148e-06
29 *665:D *242:19 2.47629e-05
30 *903:A *242:25 0
31 *936:A *492:A2 1.91391e-05
32 *960:A *242:25 0.000313018
33 *981:A *492:A2 0
34 *60:12 *242:19 0.000448528
35 *62:22 *242:25 0.000320795
36 *63:22 *242:25 0
37 *113:10 *492:A2 0.000117864
38 *167:22 *242:19 0.000367999
39 *168:30 *584:B 1.23003e-05
40 *219:14 *242:25 8.33424e-05
*RES
1 *586:X *242:19 30.1506 
2 *242:19 *242:25 24.9506 
3 *242:25 *492:A2 27.7545 
4 *242:25 *584:B 12.2151 
5 *242:19 *917:A 9.24915 
*END

*D_NET *240 0.00408431
*CONN
*I *491:A I *D sky130_fd_sc_hd__nand2_1
*I *714:A1 I *D sky130_fd_sc_hd__a211oi_1
*I *585:Y O *D sky130_fd_sc_hd__nand2_1
*CAP
1 *491:A 0.00028019
2 *714:A1 0.000918964
3 *585:Y 0.000638774
4 *491:A *574:A2 0.000292738
5 *491:A *714:A2 0.000117836
6 *491:A *736:A 3.29488e-05
7 *491:A *340:40 0.00033781
8 *491:A *347:20 1.37385e-05
9 *491:A *437:33 3.66916e-05
10 *714:A1 *585:B 4.16798e-05
11 *714:A1 *663:D 0.000160493
12 *714:A1 *489:B 0.000104976
13 *714:A1 *718:C 7.86825e-06
14 *714:A1 *745:A1 0.000284999
15 *714:A1 *320:22 4.02474e-05
16 *714:A1 *347:20 0.000127065
17 *714:A1 *443:18 4.05936e-05
18 *714:A1 *472:18 0
19 *575:A *491:A 8.37599e-05
20 *665:D *491:A 0.000109427
21 *724:B *714:A1 0.000282548
22 *109:20 *714:A1 1.16246e-05
23 *120:32 *714:A1 1.9472e-06
24 *238:59 *491:A 5.18899e-06
25 *239:8 *714:A1 0.000107508
26 *239:14 *714:A1 4.69495e-06
*RES
1 *585:Y *714:A1 45.2815 
2 *714:A1 *491:A 39.6424 
*END

*D_NET *239 0.0129879
*CONN
*I *583:B I *D sky130_fd_sc_hd__nor2_4
*I *903:A I *D sky130_fd_sc_hd__buf_4
*I *718:B I *D sky130_fd_sc_hd__nor4_4
*I *493:A I *D sky130_fd_sc_hd__nor3_4
*I *494:A I *D sky130_fd_sc_hd__nor2_1
*I *584:Y O *D sky130_fd_sc_hd__xnor2_4
*CAP
1 *583:B 1.96723e-05
2 *903:A 0.000656919
3 *718:B 0.000675619
4 *493:A 0
5 *494:A 0.000517365
6 *584:Y 0.000232145
7 *239:67 0.000838574
8 *239:26 0.0011718
9 *239:14 0.00142324
10 *239:8 0.000487313
11 *494:A *490:A2 5.51483e-06
12 *494:A *493:B 5.22654e-06
13 *494:A *494:B 0
14 *494:A *507:A2 5.04829e-06
15 *494:A *746:B 2.91812e-05
16 *494:A *979:A 1.00901e-05
17 *494:A *259:8 6.08467e-05
18 *494:A *286:14 5.54528e-05
19 *494:A *384:18 6.47496e-05
20 *494:A *438:16 0.000159016
21 *718:B *576:B1 2.26886e-06
22 *718:B *718:C 0.00125974
23 *718:B *726:A2 0.000244663
24 *718:B *727:B 4.01064e-05
25 *718:B *736:D 3.04367e-05
26 *718:B *265:39 6.08467e-05
27 *718:B *319:36 7.94125e-06
28 *718:B *320:22 0.000440723
29 *903:A *495:A 8.62814e-05
30 *903:A *618:A1 2.71757e-05
31 *903:A *242:25 0
32 *903:A *251:79 0.000304837
33 *903:A *363:26 0.000485473
34 *903:A *396:8 3.82228e-05
35 *903:A *474:47 1.79982e-05
36 *239:8 *489:B 0.000104976
37 *239:8 *714:A1 0.000107508
38 *239:14 *489:B 6.21462e-05
39 *239:14 *714:A1 4.69495e-06
40 *239:14 *718:C 0.00016008
41 *239:14 *736:D 1.21843e-05
42 *239:26 *493:B 2.29568e-05
43 *239:26 *521:A 3.55859e-05
44 *239:26 *489:B 0.000715871
45 *239:26 *259:146 0.000733923
46 *239:26 *286:14 7.46648e-06
47 *239:26 *305:43 8.22964e-06
48 *239:26 *340:40 0.000125681
49 *239:67 *898:A 0.000154145
50 *239:67 *363:26 6.27782e-05
51 *575:A *239:8 3.02249e-05
52 *583:A *583:B 4.76161e-06
53 *693:D *718:B 1.5714e-05
54 *724:B *239:8 0.000193322
55 *960:A *903:A 7.73219e-05
56 *61:26 *903:A 2.99747e-05
57 *63:22 *903:A 0.00025233
58 *109:20 *239:8 0.000255878
59 *109:20 *239:14 1.85244e-05
60 *170:12 *239:8 0.000211955
61 *237:22 *239:67 9.17832e-05
62 *238:10 *718:B 3.57291e-06
63 *238:12 *718:B 9.12416e-06
64 *238:59 *903:A 7.98171e-06
65 *238:59 *239:67 2.77625e-06
*RES
1 *584:Y *239:8 23.8862 
2 *239:8 *239:14 3.98851 
3 *239:14 *239:26 7.64323 
4 *239:26 *494:A 24.2484 
5 *239:26 *493:A 13.7491 
6 *239:14 *718:B 20.2203 
7 *239:8 *239:67 8.55102 
8 *239:67 *903:A 36.9416 
9 *239:67 *583:B 9.82786 
*END

*D_NET *237 0.00729512
*CONN
*I *893:A I *D sky130_fd_sc_hd__buf_4
*I *574:A1 I *D sky130_fd_sc_hd__a21oi_4
*I *889:A I *D sky130_fd_sc_hd__buf_4
*I *583:Y O *D sky130_fd_sc_hd__nor2_4
*CAP
1 *893:A 0.000701518
2 *574:A1 0.000140838
3 *889:A 0
4 *583:Y 0.000795211
5 *237:35 0.0013441
6 *237:22 0.00129695
7 *574:A1 *574:A2 0.000156946
8 *574:A1 *745:A2 0.000119015
9 *574:A1 *238:43 6.76107e-05
10 *574:A1 *442:26 0.000119015
11 *893:A *536:B 0.000206249
12 *893:A *693:CLK 2.27135e-05
13 *893:A *713:A 0.000488422
14 *893:A *737:A1 1.38894e-05
15 *893:A *251:36 8.64937e-05
16 *893:A *324:20 4.23622e-05
17 *893:A *340:40 8.034e-05
18 *893:A *373:22 0.000355722
19 *237:22 *521:A 1.07248e-05
20 *237:22 *591:B 0.000106413
21 *237:22 *745:A2 2.35078e-05
22 *237:22 *745:C1 2.21251e-05
23 *237:22 *898:A 6.08467e-05
24 *237:22 *238:43 4.68411e-05
25 *237:22 *238:59 6.27376e-05
26 *237:22 *239:67 9.17832e-05
27 *237:22 *347:20 1.47729e-05
28 *237:22 *429:15 7.64e-05
29 *237:22 *472:18 7.78808e-05
30 *237:35 *574:A2 1.11878e-05
31 *237:35 *714:B1 5.73145e-06
32 *237:35 *725:A 0.000358205
33 *237:35 *750:A1 7.41979e-05
34 *237:35 *340:40 1.76701e-05
35 *237:35 *397:22 8.20799e-06
36 *516:A1 *893:A 4.1946e-06
37 *693:D *893:A 0.000139416
38 *747:B *893:A 1.5714e-05
39 *178:27 *893:A 1.07529e-05
40 *199:40 *893:A 9.12416e-06
41 *221:18 *237:22 9.28648e-06
*RES
1 *583:Y *237:22 31.0274 
2 *237:22 *889:A 13.7491 
3 *237:22 *237:35 4.33655 
4 *237:35 *574:A1 21.9841 
5 *237:35 *893:A 35.213 
*END

*D_NET *235 0.00275698
*CONN
*I *916:A I *D sky130_fd_sc_hd__buf_4
*I *578:A I *D sky130_fd_sc_hd__xnor2_2
*I *582:X O *D sky130_fd_sc_hd__xor2_2
*CAP
1 *916:A 0.000306877
2 *578:A 0.000372724
3 *582:X 0
4 *235:6 0.000679601
5 *578:A *579:A 4.76347e-05
6 *578:A *582:A 7.09644e-05
7 *578:A *365:16 6.14756e-06
8 *916:A *579:A 0.000169568
9 *916:A *315:16 7.45722e-06
10 *916:A *418:14 5.08447e-05
11 *916:A *474:47 6.1585e-05
12 *498:C *578:A 1.50924e-05
13 *578:B *578:A 4.29314e-06
14 *578:B *916:A 4.92017e-06
15 *207:21 *578:A 0.000162925
16 *220:12 *578:A 0.00015945
17 *220:55 *578:A 0.000429182
18 *220:55 *916:A 0.000170209
19 *229:10 *916:A 3.75063e-05
*RES
1 *582:X *235:6 13.7491 
2 *235:6 *578:A 26.5493 
3 *235:6 *916:A 23.0557 
*END

*D_NET *233 0.000515311
*CONN
*I *577:B1 I *D sky130_fd_sc_hd__o21ai_2
*I *581:Y O *D sky130_fd_sc_hd__nand2_1
*CAP
1 *577:B1 0.000114143
2 *581:Y 0.000114143
3 *577:B1 *581:A 2.77625e-06
4 *577:B1 *581:B 2.41274e-06
5 *577:B1 *474:53 0.000138334
6 *985:A *577:B1 5.04829e-06
7 *228:21 *577:B1 5.71849e-05
8 *228:45 *577:B1 8.12683e-05
*RES
1 *581:Y *577:B1 30.8842 
*END

*D_NET *231 0.00289391
*CONN
*I *579:B I *D sky130_fd_sc_hd__nand2_1
*I *580:X O *D sky130_fd_sc_hd__xor2_1
*CAP
1 *579:B 0.000465188
2 *580:X 0.000465188
3 *579:B *506:A 0
4 *579:B *580:A 0.000568071
5 *579:B *403:24 2.43314e-05
6 *579:B *403:37 0.000338765
7 *579:B *431:22 4.24629e-05
8 *579:B *451:22 0.000267394
9 *582:B *579:B 1.58551e-05
10 *615:B1 *579:B 0.000139561
11 *872:A *579:B 0.000118166
12 *922:A *579:B 2.06836e-05
13 *938:A *579:B 1.50924e-05
14 *951:A *579:B 5.03545e-06
15 *29:48 *579:B 0.000207032
16 *165:20 *579:B 0.000201084
17 *167:22 *579:B 0
*RES
1 *580:X *579:B 46.4905 
*END

*D_NET *229 0.000682401
*CONN
*I *577:A1 I *D sky130_fd_sc_hd__o21ai_2
*I *503:B1 I *D sky130_fd_sc_hd__o21ai_2
*I *579:Y O *D sky130_fd_sc_hd__nand2_1
*CAP
1 *577:A1 3.00539e-05
2 *503:B1 1.58074e-05
3 *579:Y 6.80951e-05
4 *229:10 0.000113956
5 *503:B1 *242:19 6.08467e-05
6 *577:A1 *242:19 0.000107496
7 *229:10 *916:A 3.75063e-05
8 *578:B *229:10 0.000138334
9 *665:D *503:B1 2.58757e-05
10 *665:D *577:A1 3.54295e-05
11 *220:55 *229:10 4.9e-05
*RES
1 *579:Y *229:10 20.9116 
2 *229:10 *503:B1 9.97254 
3 *229:10 *577:A1 10.5271 
*END

*D_NET *228 0.00752004
*CONN
*I *498:A I *D sky130_fd_sc_hd__nor4_2
*I *572:A I *D sky130_fd_sc_hd__nor2_1
*I *985:A I *D sky130_fd_sc_hd__buf_4
*I *1011:A I *D sky130_fd_sc_hd__buf_4
*I *577:A2 I *D sky130_fd_sc_hd__o21ai_2
*I *901:A I *D sky130_fd_sc_hd__buf_4
*I *578:Y O *D sky130_fd_sc_hd__xnor2_2
*CAP
1 *498:A 4.92104e-05
2 *572:A 0.000395186
3 *985:A 8.75397e-05
4 *1011:A 2.14939e-05
5 *577:A2 9.71754e-05
6 *901:A 0.000254778
7 *578:Y 0.000129036
8 *228:45 0.00054893
9 *228:23 0.000118669
10 *228:21 0.000529911
11 *228:8 0.000798309
12 *572:A *492:B1 5.68205e-05
13 *572:A *581:B 6.72196e-05
14 *572:A *447:18 0.000379756
15 *577:A2 *242:19 6.08467e-05
16 *577:A2 *315:16 0.00011516
17 *901:A *299:8 2.58106e-05
18 *901:A *381:20 0.000495893
19 *901:A *382:14 0.000413132
20 *901:A *461:14 0.000200625
21 *901:A *474:53 7.77309e-06
22 *985:A *577:B1 5.04829e-06
23 *985:A *581:A 2.63971e-05
24 *985:A *960:A 6.08467e-05
25 *985:A *431:22 2.20471e-05
26 *1011:A *898:A 1.0759e-05
27 *1011:A *315:16 8.61693e-07
28 *228:21 *496:B2 0
29 *228:21 *577:B1 5.71849e-05
30 *228:21 *489:B 4.25507e-05
31 *228:21 *960:A 5.48214e-05
32 *228:21 *381:20 0.000434608
33 *228:21 *474:53 0.000119084
34 *228:45 *577:B1 8.12683e-05
35 *228:45 *474:53 1.22289e-05
36 *498:D *228:21 0
37 *498:C *498:A 0.000107496
38 *498:C *228:8 0.000107496
39 *508:B *901:A 1.88014e-05
40 *572:B *572:A 3.587e-06
41 *572:B *577:A2 2.08274e-05
42 *572:B *228:45 5.1674e-06
43 *665:D *577:A2 5.62568e-05
44 *28:35 *572:A 2.16355e-05
45 *33:48 *572:A 6.08467e-05
46 *62:22 *572:A 2.52777e-05
47 *109:20 *572:A 1.5714e-05
48 *213:30 *901:A 3.84239e-05
49 *213:30 *228:21 1.24189e-05
50 *219:14 *572:A 0.00066928
51 *219:14 *228:21 0.000383382
52 *219:14 *228:45 0.000134976
53 *227:10 *577:A2 3.34457e-05
54 *227:10 *1011:A 2.40297e-05
*RES
1 *578:Y *228:8 15.0271 
2 *228:8 *901:A 24.3393 
3 *228:8 *228:21 15.1201 
4 *228:21 *228:23 4.5 
5 *228:23 *577:A2 13.3484 
6 *228:23 *1011:A 10.4669 
7 *228:21 *228:45 2.6625 
8 *228:45 *985:A 16.1605 
9 *228:45 *572:A 28.3469 
10 *578:Y *498:A 19.7763 
*END

*D_NET *227 0.00156428
*CONN
*I *892:A I *D sky130_fd_sc_hd__buf_4
*I *496:C1 I *D sky130_fd_sc_hd__a221oi_1
*I *577:Y O *D sky130_fd_sc_hd__o21ai_2
*CAP
1 *892:A 2.87758e-05
2 *496:C1 0.000186805
3 *577:Y 0.000126622
4 *227:10 0.000342202
5 *496:C1 *496:B2 1.07248e-05
6 *496:C1 *960:A 8.09682e-05
7 *496:C1 *242:25 0.000161249
8 *496:C1 *462:32 0.000210897
9 *892:A *898:A 4.47179e-05
10 *227:10 *577:A2 3.34457e-05
11 *227:10 *898:A 2.16355e-05
12 *227:10 *1011:A 2.40297e-05
13 *227:10 *315:16 1.42609e-05
14 *665:D *892:A 3.96696e-05
15 *665:D *227:10 0.000238275
*RES
1 *577:Y *227:10 13.4931 
2 *227:10 *496:C1 25.0642 
3 *227:10 *892:A 10.5271 
*END

*D_NET *224 0.00655911
*CONN
*I *722:A2 I *D sky130_fd_sc_hd__a21boi_0
*I *575:B I *D sky130_fd_sc_hd__nand2_1
*I *576:Y O *D sky130_fd_sc_hd__o211ai_1
*CAP
1 *722:A2 0.000427164
2 *575:B 0.00137191
3 *576:Y 0
4 *224:6 0.00179907
5 *575:B *521:B 0.000947708
6 *575:B *576:C1 9.12416e-06
7 *575:B *713:B 0.000136515
8 *575:B *718:C 2.02035e-05
9 *575:B *726:A2 1.28732e-05
10 *575:B *238:10 0.000106313
11 *575:B *238:12 4.6894e-05
12 *575:B *265:39 0.000180671
13 *575:B *319:36 0.000145232
14 *575:B *397:22 3.00587e-05
15 *722:A2 *576:C1 0.000218161
16 *722:A2 *744:B 0.000191176
17 *722:A2 *225:6 0.00014012
18 *722:A2 *238:10 0.000523485
19 *722:A2 *264:27 2.38092e-05
20 *722:A2 *328:10 0.000112361
21 *722:A2 *358:20 1.99054e-05
22 *551:B1 *575:B 7.74853e-06
23 *575:A *575:B 2.16355e-05
24 *1:59 *722:A2 2.25511e-05
25 *69:16 *722:A2 3.26102e-05
26 *182:30 *722:A2 8.36586e-06
27 *189:8 *575:B 3.44712e-06
*RES
1 *576:Y *224:6 13.7491 
2 *224:6 *575:B 39.6055 
3 *224:6 *722:A2 28.9015 
*END

*D_NET *222 0.00369815
*CONN
*I *574:B1 I *D sky130_fd_sc_hd__a21oi_4
*I *575:Y O *D sky130_fd_sc_hd__nand2_1
*CAP
1 *574:B1 0
2 *575:Y 0.000787155
3 *222:24 0.000787155
4 *222:24 *745:A2 0.000118529
5 *222:24 *745:C1 3.85273e-06
6 *222:24 *750:A1 1.84334e-05
7 *222:24 *371:10 2.38044e-05
8 *222:24 *373:26 0.000952234
9 *222:24 *397:22 0.000107496
10 *222:24 *472:18 4.79321e-06
11 *513:A1 *222:24 5.81162e-05
12 *551:A1 *222:24 0.000151491
13 *891:A *222:24 0.000217926
14 *992:A *222:24 0.000267394
15 *995:A *222:24 1.94176e-05
16 *33:33 *222:24 0.000155074
17 *221:18 *222:24 2.52743e-05
*RES
1 *575:Y *222:24 47.2398 
2 *222:24 *574:B1 13.7491 
*END

*D_NET *221 0.00283299
*CONN
*I *551:B1 I *D sky130_fd_sc_hd__o21ai_2
*I *992:A I *D sky130_fd_sc_hd__buf_4
*I *574:Y O *D sky130_fd_sc_hd__a21oi_4
*CAP
1 *551:B1 0.000124827
2 *992:A 0.000220108
3 *574:Y 0.000446235
4 *221:18 0.00079117
5 *551:B1 *521:B 6.42034e-05
6 *551:B1 *575:B 7.74853e-06
7 *551:B1 *725:A 6.36477e-05
8 *992:A *493:B 8.34464e-05
9 *992:A *747:A 5.04829e-06
10 *992:A *750:A1 5.49686e-06
11 *992:A *222:24 0.000267394
12 *992:A *373:26 1.88014e-05
13 *992:A *472:18 7.69482e-05
14 *221:18 *521:A 0
15 *221:18 *714:B1 2.86353e-06
16 *221:18 *725:A 6.23715e-06
17 *221:18 *745:A2 6.71002e-06
18 *221:18 *745:C1 6.46815e-05
19 *221:18 *750:A1 1.69657e-06
20 *221:18 *222:24 2.52743e-05
21 *221:18 *237:22 9.28648e-06
22 *221:18 *238:43 0.000135462
23 *221:18 *429:6 4.71076e-05
24 *189:8 *551:B1 0.000358595
*RES
1 *574:Y *221:18 31.8787 
2 *221:18 *992:A 20.3233 
3 *221:18 *551:B1 18.7888 
*END

*D_NET *220 0.0155471
*CONN
*I *572:B I *D sky130_fd_sc_hd__nor2_1
*I *503:A1 I *D sky130_fd_sc_hd__o21ai_2
*I *498:C I *D sky130_fd_sc_hd__nor4_2
*I *972:A I *D sky130_fd_sc_hd__buf_4
*I *504:A I *D sky130_fd_sc_hd__or2_4
*I *573:X O *D sky130_fd_sc_hd__xnor3_2
*CAP
1 *572:B 0.000478452
2 *503:A1 0.000215346
3 *498:C 0.00033973
4 *972:A 0.000329154
5 *504:A 0.000352639
6 *573:X 0.000837879
7 *220:55 0.00096027
8 *220:14 0.00121014
9 *220:12 0.00100595
10 *220:8 0.00124223
11 *498:C *496:B2 6.27718e-05
12 *498:C *498:A 0.000107496
13 *498:C *578:A 1.50924e-05
14 *498:C *228:8 0.000107496
15 *503:A1 *242:19 0.000363202
16 *504:A *562:B 0.000241287
17 *504:A *393:20 2.85139e-05
18 *504:A *405:22 0.000212491
19 *572:B *492:B1 0.000515267
20 *572:B *572:A 3.587e-06
21 *572:B *577:A2 2.08274e-05
22 *572:B *579:A 8.72115e-06
23 *572:B *581:B 0.000178062
24 *572:B *228:45 5.1674e-06
25 *572:B *242:19 0.000190903
26 *572:B *315:16 0.00085164
27 *572:B *447:18 8.25154e-06
28 *572:B *474:53 0.00011815
29 *972:A *510:A 3.58208e-05
30 *972:A *561:A 0.00014873
31 *972:A *986:A 0.000281173
32 *972:A *449:20 4.87301e-05
33 *220:8 *259:58 0.000239018
34 *220:8 *259:66 0.000144864
35 *220:8 *404:68 6.88645e-05
36 *220:12 *578:A 0.00015945
37 *220:12 *481:32 0.000123659
38 *220:14 *552:A2 0.000543867
39 *220:14 *403:24 0
40 *220:14 *405:22 9.98296e-05
41 *220:55 *578:A 0.000429182
42 *220:55 *916:A 0.000170209
43 *220:55 *229:10 4.9e-05
44 *220:55 *481:32 0.000324467
45 *496:B1 *220:12 1.82615e-05
46 *496:B1 *220:14 0
47 *498:D *498:C 3.01233e-05
48 *498:B *498:C 6.27782e-05
49 *504:B *504:A 0.000118166
50 *507:A1 *498:C 1.41976e-05
51 *509:B *220:14 0
52 *555:A2 *220:14 2.57465e-06
53 *563:B *220:8 0.000441867
54 *578:B *220:55 9.4056e-05
55 *604:A1 *504:A 0.000155272
56 *604:A1 *220:14 0.000159663
57 *606:B1 *504:A 6.78248e-05
58 *869:A *220:14 0.000193213
59 *1004:A *220:8 1.45322e-05
60 *52:18 *220:8 4.89251e-05
61 *103:12 *572:B 2.17914e-05
62 *129:14 *504:A 0.000113837
63 *186:16 *504:A 2.04012e-05
64 *186:16 *220:14 1.79338e-05
65 *202:14 *972:A 3.14681e-05
66 *207:21 *220:12 1.2657e-05
67 *207:21 *220:14 0.00102999
*RES
1 *573:X *220:8 32.7745 
2 *220:8 *220:12 4.64105 
3 *220:12 *220:14 21.7641 
4 *220:14 *504:A 26.1582 
5 *220:14 *972:A 22.2611 
6 *220:12 *498:C 21.7306 
7 *220:8 *220:55 15.8828 
8 *220:55 *503:A1 14.4335 
9 *220:55 *572:B 37.5568 
*END

*D_NET *219 0.00663205
*CONN
*I *891:A I *D sky130_fd_sc_hd__buf_4
*I *496:A1 I *D sky130_fd_sc_hd__a221oi_1
*I *572:Y O *D sky130_fd_sc_hd__nor2_1
*CAP
1 *891:A 0.000343702
2 *496:A1 1.97909e-05
3 *572:Y 0.000745193
4 *219:14 0.00110869
5 *891:A *222:24 0.000217926
6 *891:A *371:10 0.00102222
7 *891:A *373:26 2.59533e-05
8 *891:A *381:20 8.01922e-05
9 *219:14 *572:A 0.00066928
10 *219:14 *960:A 0.000499439
11 *219:14 *228:21 0.000383382
12 *219:14 *228:45 0.000134976
13 *219:14 *242:25 8.33424e-05
14 *219:14 *381:20 0.000360784
15 *496:B1 *496:A1 0
16 *496:B1 *219:14 0.000167296
17 *496:A2 *496:A1 1.05106e-05
18 *496:A2 *891:A 8.19236e-05
19 *28:35 *219:14 0.000200794
20 *62:22 *219:14 0.000476663
*RES
1 *572:Y *219:14 46.8667 
2 *219:14 *496:A1 9.82786 
3 *219:14 *891:A 22.7525 
*END

*D_NET *218 0.00271329
*CONN
*I *551:A1 I *D sky130_fd_sc_hd__o21ai_2
*I *571:Y O *D sky130_fd_sc_hd__nand2_1
*CAP
1 *551:A1 0.000705474
2 *571:Y 0.000705474
3 *551:A1 *490:A2 0.000113309
4 *551:A1 *501:A2 0.000354215
5 *551:A1 *507:A2 0.000153707
6 *551:A1 *571:A 7.01935e-06
7 *551:A1 *222:24 0.000151491
8 *551:A1 *259:16 0.000131614
9 *551:A1 *259:40 9.58043e-06
10 *551:A1 *340:40 0.00019032
11 *551:A1 *382:14 9.02099e-06
12 *551:A2 *551:A1 6.18404e-05
13 *33:33 *551:A1 0.000120226
*RES
1 *571:Y *551:A1 44.8718 
*END

*D_NET *216 0.0012533
*CONN
*I *569:B I *D sky130_fd_sc_hd__nand2_1
*I *570:X O *D sky130_fd_sc_hd__xor2_1
*CAP
1 *569:B 0.000432757
2 *570:X 0.000432757
3 *569:B *570:A 1.00766e-05
4 *569:B *570:B 4.47179e-05
5 *569:B *647:S 0.000105196
6 *569:B *259:72 2.08274e-05
7 *569:B *435:71 0.000150423
8 *555:A1 *569:B 4.37337e-05
9 *705:D *569:B 2.77625e-06
10 *52:18 *569:B 1.00396e-05
*RES
1 *570:X *569:B 35.8756 
*END

*D_NET *214 0.0102912
*CONN
*I *503:A2 I *D sky130_fd_sc_hd__o21ai_2
*I *553:B1 I *D sky130_fd_sc_hd__o21ai_2
*I *569:Y O *D sky130_fd_sc_hd__nand2_1
*CAP
1 *503:A2 0.0013345
2 *553:B1 0.000689882
3 *569:Y 0.000997109
4 *214:8 0.00302149
5 *503:A2 *552:A2 5.60804e-05
6 *503:A2 *663:D 0.000196508
7 *503:A2 *242:19 6.08467e-05
8 *503:A2 *305:16 1.55025e-05
9 *503:A2 *403:24 0.000171678
10 *503:A2 *430:20 0.000218272
11 *553:B1 *508:A 3.84291e-05
12 *553:B1 *304:20 0.000498923
13 *553:B1 *403:24 0.000284304
14 *553:B1 *438:34 0.000969687
15 *214:8 *382:14 0.000294093
16 *214:8 *435:71 0.00117142
17 *507:A1 *553:B1 4.20184e-06
18 *509:A *503:A2 5.05252e-05
19 *509:A *553:B1 8.62625e-06
20 *555:A2 *503:A2 4.94568e-05
21 *555:A2 *553:B1 0.000107717
22 *566:B *553:B1 7.86825e-06
23 *582:B *503:A2 1.94472e-05
24 *108:18 *503:A2 1.5714e-05
25 *167:22 *503:A2 8.9119e-06
*RES
1 *569:Y *214:8 30.556 
2 *214:8 *553:B1 27.943 
3 *214:8 *503:A2 28.3309 
*END

*D_NET *213 0.0138843
*CONN
*I *973:A I *D sky130_fd_sc_hd__buf_4
*I *498:B I *D sky130_fd_sc_hd__nor4_2
*I *553:A1 I *D sky130_fd_sc_hd__o21ai_2
*I *504:B I *D sky130_fd_sc_hd__or2_4
*I *568:X O *D sky130_fd_sc_hd__xnor3_2
*CAP
1 *973:A 0.000497526
2 *498:B 2.3147e-05
3 *553:A1 0
4 *504:B 0.000790179
5 *568:X 0.00177862
6 *213:30 0.000934684
7 *213:10 0.000832409
8 *213:8 0.00223486
9 *498:B *498:C 6.27782e-05
10 *504:B *504:A 0.000118166
11 *504:B *663:D 1.62832e-05
12 *504:B *681:CLK 0.00030869
13 *504:B *825:A 2.77564e-05
14 *504:B *847:A 0.000587737
15 *504:B *304:20 0.00013068
16 *504:B *393:20 5.20192e-05
17 *504:B *421:18 0.00014554
18 *504:B *474:65 0.000269394
19 *973:A *506:A 1.1718e-05
20 *973:A *924:A 6.10781e-06
21 *973:A *259:46 0.000348408
22 *973:A *404:14 5.04829e-06
23 *973:A *451:22 7.16793e-05
24 *973:A *481:32 0.000675851
25 *213:8 *976:A 0.000765492
26 *213:10 *681:CLK 3.12828e-05
27 *213:10 *474:65 6.06593e-05
28 *213:30 *496:B2 1.35539e-05
29 *213:30 *901:A 3.84239e-05
30 *213:30 *228:21 1.24189e-05
31 *213:30 *382:14 7.48916e-05
32 *213:30 *461:14 0.000200625
33 *213:30 *474:53 0.000112978
34 *213:30 *474:65 0.000128201
35 *507:A1 *213:30 5.4654e-05
36 *552:B1 *973:A 6.89757e-05
37 *553:A2 *213:10 6.14756e-06
38 *568:C *213:8 7.22927e-05
39 *645:A1 *504:B 2.27768e-05
40 *704:D *973:A 6.64392e-05
41 *705:D *973:A 4.69495e-06
42 *902:A *213:8 0.000915587
43 *1002:A *213:8 9.81288e-06
44 *52:18 *213:8 0.000291146
45 *90:16 *213:30 5.49913e-05
46 *129:14 *504:B 0.000118166
47 *190:14 *973:A 0.000756547
48 *196:14 *504:B 2.60979e-05
49 *209:14 *213:10 7.02358e-06
50 *209:14 *213:30 4.11836e-05
*RES
1 *568:X *213:8 42.7573 
2 *213:8 *213:10 1.41674 
3 *213:10 *504:B 39.4277 
4 *213:10 *553:A1 13.7491 
5 *213:8 *213:30 12.2133 
6 *213:30 *498:B 14.4725 
7 *213:30 *973:A 23.3979 
*END

*D_NET *211 0.00511734
*CONN
*I *566:B I *D sky130_fd_sc_hd__nand2_1
*I *564:B I *D sky130_fd_sc_hd__xnor2_2
*I *567:X O *D sky130_fd_sc_hd__xor2_2
*CAP
1 *566:B 0.000520333
2 *564:B 0.000150958
3 *567:X 0.000290053
4 *211:6 0.000961344
5 *564:B *681:CLK 0.000359859
6 *564:B *827:A 6.36477e-05
7 *564:B *925:A 0.000114594
8 *564:B *405:22 2.12958e-05
9 *564:B *421:18 0.000107496
10 *566:B *508:A 6.83519e-05
11 *566:B *553:B1 7.86825e-06
12 *566:B *566:A 6.91876e-05
13 *566:B *429:37 2.86353e-06
14 *566:B *454:16 1.24189e-05
15 *211:6 *681:CLK 0.000542082
16 *211:6 *925:A 0.000290233
17 *211:6 *259:259 5.37479e-05
18 *211:6 *405:22 6.04782e-05
19 *211:6 *446:56 0.000572938
20 *507:A1 *566:B 0
21 *565:A *566:B 0.000547194
22 *77:22 *211:6 0.000133859
23 *90:16 *566:B 1.37189e-05
24 *196:14 *566:B 0
25 *207:8 *564:B 7.92048e-05
26 *209:14 *566:B 7.36162e-05
*RES
1 *567:X *211:6 22.1738 
2 *211:6 *564:B 15.5186 
3 *211:6 *566:B 31.9456 
*END

*D_NET *209 0.00415316
*CONN
*I *902:A I *D sky130_fd_sc_hd__buf_4
*I *553:A2 I *D sky130_fd_sc_hd__o21ai_2
*I *566:Y O *D sky130_fd_sc_hd__nand2_1
*CAP
1 *902:A 0.000562929
2 *553:A2 3.58943e-05
3 *566:Y 0.000236699
4 *209:14 0.000835522
5 *553:A2 *681:CLK 2.77419e-05
6 *553:A2 *213:10 6.14756e-06
7 *902:A *681:CLK 6.08467e-05
8 *902:A *213:8 0.000915587
9 *902:A *422:42 5.76824e-05
10 *902:A *435:16 0.000166334
11 *902:A *435:71 0.000262507
12 *209:14 *566:A 5.51483e-06
13 *209:14 *566:B 7.36162e-05
14 *209:14 *213:10 7.02358e-06
15 *209:14 *213:30 4.11836e-05
16 *507:A1 *553:A2 4.49767e-05
17 *507:A1 *209:14 0.0001724
18 *704:D *902:A 0.000179866
19 *890:A *902:A 4.59959e-05
20 *1002:A *902:A 0.000105944
21 *90:16 *209:14 0.000108765
22 *196:22 *902:A 0.000105623
23 *196:24 *902:A 9.43616e-05
*RES
1 *566:Y *209:14 19.8223 
2 *209:14 *553:A2 14.7506 
3 *209:14 *902:A 43.3757 
*END

*D_NET *208 0.00308862
*CONN
*I *508:B I *D sky130_fd_sc_hd__nand3_2
*I *509:A I *D sky130_fd_sc_hd__nand2_2
*I *565:X O *D sky130_fd_sc_hd__xor3_1
*CAP
1 *508:B 0.000281828
2 *509:A 0.000324079
3 *565:X 0.000605907
4 *508:B *901:A 1.88014e-05
5 *508:B *977:A 7.89747e-05
6 *508:B *299:8 0.000699502
7 *508:B *381:20 6.08467e-05
8 *508:B *382:14 9.82896e-06
9 *508:B *461:14 2.16355e-05
10 *509:A *503:A2 5.05252e-05
11 *509:A *553:B1 8.62625e-06
12 *509:A *299:8 1.03403e-05
13 *509:A *382:14 0.00046546
14 *507:A1 *508:B 0
15 *555:A2 *509:A 5.05252e-05
16 *565:A *508:B 0.000188184
17 *191:10 *508:B 0.000213559
*RES
1 *565:X *509:A 33.8288 
2 *565:X *508:B 39.3398 
*END

*D_NET *207 0.00700219
*CONN
*I *498:D I *D sky130_fd_sc_hd__nor4_2
*I *563:B I *D sky130_fd_sc_hd__nor2_1
*I *510:B I *D sky130_fd_sc_hd__xnor2_2
*I *564:Y O *D sky130_fd_sc_hd__xnor2_2
*CAP
1 *498:D 0.00045032
2 *563:B 0.000226376
3 *510:B 0.000166265
4 *564:Y 0.000154885
5 *207:21 0.00129078
6 *207:8 0.000935235
7 *498:D *496:B2 0.00013937
8 *498:D *498:C 3.01233e-05
9 *498:D *960:A 0.000102927
10 *498:D *974:A 2.57986e-05
11 *498:D *228:21 0
12 *563:B *220:8 0.000441867
13 *563:B *404:68 5.19931e-05
14 *207:8 *564:B 7.92048e-05
15 *207:8 *405:22 0.000537554
16 *207:8 *421:18 0.000139947
17 *207:8 *421:28 0.000109421
18 *207:21 *502:C 0
19 *207:21 *578:A 0.000162925
20 *207:21 *220:12 1.2657e-05
21 *207:21 *220:14 0.00102999
22 *207:21 *365:16 0.000380238
23 *207:21 *421:28 0.000174216
24 *207:21 *474:53 0
25 *507:A1 *498:D 2.25556e-05
26 *885:A *563:B 6.08467e-05
27 *1004:A *498:D 1.30259e-05
28 *1004:A *563:B 7.48749e-05
29 *51:14 *510:B 4.66889e-05
30 *186:16 *207:21 0.000142105
*RES
1 *564:Y *207:8 16.0973 
2 *207:8 *510:B 12.7456 
3 *207:8 *207:21 32.0099 
4 *207:21 *563:B 16.676 
5 *207:21 *498:D 29.0378 
*END

*D_NET *206 0.00133657
*CONN
*I *552:A1 I *D sky130_fd_sc_hd__a21oi_4
*I *563:Y O *D sky130_fd_sc_hd__nor2_1
*CAP
1 *552:A1 0.000294487
2 *563:Y 0.000294487
3 *552:A1 *552:A2 0.000114584
4 *552:A1 *563:A 2.25867e-05
5 *552:A1 *365:16 4.49233e-05
6 *552:A1 *403:24 0
7 *552:A1 *450:10 1.58588e-05
8 *552:A1 *451:22 5.88253e-05
9 *555:A1 *552:A1 2.16355e-05
10 *704:D *552:A1 0.000132503
11 *705:D *552:A1 0.000300236
12 *190:10 *552:A1 3.53886e-05
13 *202:14 *552:A1 1.05272e-06
*RES
1 *563:Y *552:A1 37.1186 
*END

*D_NET *204 0.00607503
*CONN
*I *913:A I *D sky130_fd_sc_hd__buf_4
*I *561:B I *D sky130_fd_sc_hd__nand2_1
*I *557:B I *D sky130_fd_sc_hd__nor2_1
*I *562:X O *D sky130_fd_sc_hd__xor2_2
*CAP
1 *913:A 0
2 *561:B 2.16038e-05
3 *557:B 0.000880341
4 *562:X 0.000188003
5 *204:22 0.00150892
6 *204:12 0.00079498
7 *557:B *511:A 6.24655e-05
8 *557:B *557:A 6.08467e-05
9 *557:B *568:A 0.000211369
10 *557:B *976:A 0.000171273
11 *557:B *427:104 7.5147e-05
12 *557:B *445:50 0.000190881
13 *557:B *445:63 2.43726e-05
14 *557:B *449:20 0.000134037
15 *204:12 *562:B 1.48684e-05
16 *204:12 *663:B 3.63956e-05
17 *204:12 *834:A 0.000113968
18 *204:12 *393:20 0.000125695
19 *204:12 *435:18 0
20 *204:22 *556:B 0.000312521
21 *204:22 *834:A 0.000246913
22 *204:22 *309:19 1.65872e-05
23 *204:22 *422:27 0.000316976
24 *204:22 *435:18 9.90599e-06
25 *204:22 *445:63 1.40862e-05
26 *509:B *557:B 0
27 *556:A *561:B 7.12632e-06
28 *568:B *557:B 0.000116971
29 *568:C *557:B 6.54541e-06
30 *606:B1 *204:12 9.22013e-06
31 *923:A *557:B 0.000118166
32 *31:37 *557:B 0
33 *32:22 *204:12 2.36813e-05
34 *32:22 *204:22 0.000108054
35 *52:18 *557:B 0
36 *163:10 *557:B 0.000153108
*RES
1 *562:X *204:12 23.8507 
2 *204:12 *204:22 18.3421 
3 *204:22 *557:B 36.3056 
4 *204:22 *561:B 17.4965 
5 *204:12 *913:A 9.24915 
*END

*D_NET *202 0.00407362
*CONN
*I *555:B1 I *D sky130_fd_sc_hd__o21ai_4
*I *561:Y O *D sky130_fd_sc_hd__nand2_1
*CAP
1 *555:B1 0
2 *561:Y 0.000732152
3 *202:14 0.000732152
4 *202:14 *510:A 0.000262216
5 *202:14 *552:A1 1.05272e-06
6 *202:14 *606:A1 7.1515e-05
7 *202:14 *972:A 3.14681e-05
8 *202:14 *403:24 7.8129e-05
9 *202:14 *427:44 0.000460388
10 *202:14 *435:16 0.000141634
11 *202:14 *449:20 0.000216458
12 *509:B *202:14 0.000497796
13 *555:A2 *202:14 0.000205687
14 *606:A2 *202:14 6.51917e-05
15 *890:A *202:14 0.000524437
16 *32:22 *202:14 8.62625e-06
17 *190:10 *202:14 4.47179e-05
*RES
1 *561:Y *202:14 46.7302 
2 *202:14 *555:B1 9.24915 
*END

*D_NET *200 0.00222271
*CONN
*I *558:B I *D sky130_fd_sc_hd__maj3_2
*I *912:A I *D sky130_fd_sc_hd__buf_4
*I *560:Y O *D sky130_fd_sc_hd__xnor2_2
*CAP
1 *558:B 0.000222911
2 *912:A 0.000300953
3 *560:Y 8.38371e-05
4 *200:8 0.000607702
5 *558:B *679:DE 0.000163507
6 *558:B *380:22 0.00011463
7 *912:A *679:DE 4.34694e-05
8 *912:A *682:CLK 2.75449e-05
9 *912:A *392:12 1.9633e-05
10 *912:A *446:40 0.000143875
11 *912:A *446:56 0.000158451
12 *200:8 *380:22 9.56423e-05
13 *200:8 *446:40 6.87106e-05
14 *861:A *200:8 0
15 *156:10 *912:A 1.03403e-05
16 *199:22 *558:B 7.20856e-05
17 *199:40 *558:B 8.94134e-05
*RES
1 *560:Y *200:8 16.4116 
2 *200:8 *912:A 21.8478 
3 *200:8 *558:B 21.0392 
*END

*D_NET *198 0.00711214
*CONN
*I *512:A I *D sky130_fd_sc_hd__xnor2_1
*I *559:Y O *D sky130_fd_sc_hd__xnor2_2
*CAP
1 *512:A 0.00101677
2 *559:Y 0.000802203
3 *198:18 0.00181897
4 *512:A *500:B 9.08576e-05
5 *512:A *549:A 0.000171149
6 *512:A *304:20 3.88213e-05
7 *512:A *394:6 0.00033061
8 *198:18 *549:A 1.92172e-05
9 *198:18 *636:A2 6.24474e-06
10 *198:18 *641:B 0.000501118
11 *198:18 *662:A 5.94319e-06
12 *198:18 *256:36 0.000449661
13 *198:18 *257:22 3.54024e-05
14 *198:18 *283:10 0.000162884
15 *198:18 *283:23 0.000456846
16 *636:A1 *198:18 1.70006e-05
17 *636:B1 *198:18 2.20471e-05
18 *681:D *512:A 0.000111743
19 *682:D *198:18 0.000111708
20 *697:D *198:18 0.000108774
21 *703:D *512:A 2.89019e-05
22 *1001:A *512:A 4.14681e-05
23 *23:8 *512:A 0.000432172
24 *23:33 *512:A 1.65872e-05
25 *118:12 *198:18 0.000159489
26 *123:18 *512:A 0.000146931
27 *184:42 *198:18 8.62262e-06
*RES
1 *559:Y *198:18 43.7435 
2 *198:18 *512:A 42.3455 
*END

*D_NET *196 0.0113241
*CONN
*I *507:A1 I *D sky130_fd_sc_hd__o211ai_1
*I *1003:A I *D sky130_fd_sc_hd__buf_4
*I *555:A2 I *D sky130_fd_sc_hd__o21ai_4
*I *1002:A I *D sky130_fd_sc_hd__buf_4
*I *558:X O *D sky130_fd_sc_hd__maj3_2
*CAP
1 *507:A1 0.000730745
2 *1003:A 0
3 *555:A2 0.00039252
4 *1002:A 0.000187916
5 *558:X 0.00117835
6 *196:24 0.000655037
7 *196:22 0.000314844
8 *196:14 0.00214934
9 *507:A1 *496:B2 7.09666e-06
10 *507:A1 *498:D 2.25556e-05
11 *507:A1 *498:C 1.41976e-05
12 *507:A1 *507:B1 1.0759e-05
13 *507:A1 *508:B 0
14 *507:A1 *553:A2 4.49767e-05
15 *507:A1 *553:B1 4.20184e-06
16 *507:A1 *566:B 0
17 *507:A1 *681:CLK 4.0375e-06
18 *507:A1 *974:A 0.000112015
19 *507:A1 *977:A 0.000182087
20 *507:A1 *209:14 0.0001724
21 *507:A1 *213:30 5.4654e-05
22 *507:A1 *382:14 0.000182246
23 *555:A2 *503:A2 4.94568e-05
24 *555:A2 *509:A 5.05252e-05
25 *555:A2 *552:A2 0.000522932
26 *555:A2 *553:B1 0.000107717
27 *555:A2 *202:14 0.000205687
28 *555:A2 *220:14 2.57465e-06
29 *555:A2 *365:16 1.88422e-05
30 *555:A2 *403:24 1.3675e-05
31 *1002:A *902:A 0.000105944
32 *1002:A *976:A 4.66121e-05
33 *1002:A *213:8 9.81288e-06
34 *1002:A *403:24 0.000286958
35 *196:14 *504:B 2.60979e-05
36 *196:14 *566:B 0
37 *196:14 *663:C 3.11173e-05
38 *196:14 *663:D 7.74848e-05
39 *196:14 *681:CLK 0.000112748
40 *196:14 *932:A 0.000142478
41 *196:14 *1000:A 2.65667e-05
42 *196:14 *197:18 0.000609733
43 *196:14 *199:22 2.70092e-05
44 *196:14 *199:40 0.0001682
45 *196:14 *260:26 0.000558103
46 *196:14 *333:29 1.01116e-05
47 *196:14 *412:14 0.000107496
48 *196:14 *421:18 4.03362e-05
49 *196:14 *429:37 5.38612e-06
50 *196:14 *445:84 4.94594e-05
51 *196:14 *445:90 0.000107496
52 *196:14 *454:16 1.34979e-05
53 *196:22 *681:CLK 4.45999e-05
54 *196:22 *902:A 0.000105623
55 *196:22 *1007:A 4.66492e-05
56 *196:24 *902:A 9.43616e-05
57 *196:24 *1007:A 0.000205101
58 *496:B1 *555:A2 7.26959e-06
59 *555:A1 *555:A2 2.53145e-06
60 *565:A *196:14 5.09367e-05
61 *600:B1 *196:14 7.55603e-05
62 *890:A *555:A2 0.000203756
63 *890:A *1002:A 0.000109421
64 *32:22 *196:14 0.000263135
65 *128:16 *196:14 8.64186e-05
66 *190:10 *555:A2 1.1957e-05
67 *191:10 *507:A1 0
68 *193:6 *555:A2 6.27782e-05
*RES
1 *558:X *196:14 48.2352 
2 *196:14 *196:22 10.4077 
3 *196:22 *196:24 2.94181 
4 *196:24 *1002:A 17.0136 
5 *196:24 *555:A2 32.4613 
6 *196:22 *1003:A 9.24915 
7 *196:14 *507:A1 30.7234 
*END

*D_NET *195 0.00280889
*CONN
*I *555:A1 I *D sky130_fd_sc_hd__o21ai_4
*I *557:Y O *D sky130_fd_sc_hd__nor2_1
*CAP
1 *555:A1 0.00106637
2 *557:Y 0.00106637
3 *555:A1 *508:A 8.33339e-06
4 *555:A1 *552:A1 2.16355e-05
5 *555:A1 *552:A2 5.37496e-05
6 *555:A1 *555:A2 2.53145e-06
7 *555:A1 *557:A 8.02112e-05
8 *555:A1 *569:B 4.37337e-05
9 *555:A1 *365:16 6.08467e-05
10 *555:A1 *435:71 5.68225e-06
11 *555:A1 *445:20 0
12 *552:B1 *555:A1 0.000103895
13 *704:D *555:A1 7.45743e-05
14 *890:A *555:A1 2.51534e-05
15 *52:18 *555:A1 0.0001958
*RES
1 *557:Y *555:A1 42.7486 
*END

*D_NET *194 0.00415503
*CONN
*I *509:B I *D sky130_fd_sc_hd__nand2_2
*I *511:B I *D sky130_fd_sc_hd__xnor2_2
*I *556:X O *D sky130_fd_sc_hd__xor3_2
*CAP
1 *509:B 0.00118116
2 *511:B 0
3 *556:X 0.000141402
4 *194:10 0.00132256
5 *509:B *508:A 0
6 *509:B *557:A 0
7 *509:B *557:B 0
8 *509:B *202:14 0.000497796
9 *509:B *220:14 0
10 *509:B *403:24 0.000403341
11 *509:B *438:34 8.99338e-05
12 *509:B *445:50 0
13 *509:B *445:63 7.57674e-05
14 *568:C *509:B 4.75721e-06
15 *568:C *194:10 2.1812e-05
16 *644:A1 *194:10 1.83992e-05
17 *31:37 *509:B 0.000246281
18 *51:14 *194:10 6.27718e-05
19 *131:22 *509:B 6.11447e-06
20 *131:22 *194:10 8.29388e-05
*RES
1 *556:X *194:10 17.9655 
2 *194:10 *511:B 13.7491 
3 *194:10 *509:B 32.5711 
*END

*D_NET *193 0.00501805
*CONN
*I *496:B1 I *D sky130_fd_sc_hd__a221oi_1
*I *890:A I *D sky130_fd_sc_hd__buf_6
*I *555:Y O *D sky130_fd_sc_hd__o21ai_4
*CAP
1 *496:B1 0.00083087
2 *890:A 0.000312064
3 *555:Y 9.777e-06
4 *193:6 0.00115271
5 *496:B1 *496:A1 0
6 *496:B1 *555:A2 7.26959e-06
7 *496:B1 *957:A 6.50727e-05
8 *496:B1 *219:14 0.000167296
9 *496:B1 *220:12 1.82615e-05
10 *496:B1 *220:14 0
11 *496:B1 *305:16 6.80979e-05
12 *496:B1 *381:20 3.58208e-05
13 *496:B1 *403:24 6.09432e-05
14 *496:B1 *481:32 1.18955e-05
15 *890:A *555:A1 2.51534e-05
16 *890:A *555:A2 0.000203756
17 *890:A *902:A 4.59959e-05
18 *890:A *1002:A 0.000109421
19 *890:A *202:14 0.000524437
20 *890:A *365:16 0.000203756
21 *890:A *435:16 0.000209424
22 *890:A *435:71 0.000158917
23 *193:6 *555:A2 6.27782e-05
24 *193:6 *365:16 4.85806e-05
25 *496:A2 *496:B1 0
26 *578:B *496:B1 0.000278412
27 *704:D *890:A 1.43507e-05
28 *885:A *496:B1 0.000245699
29 *15:20 *496:B1 9.08727e-05
30 *190:10 *496:B1 5.64215e-05
*RES
1 *555:Y *193:6 9.97254 
2 *193:6 *890:A 31.6361 
3 *193:6 *496:B1 39.7006 
*END

*D_NET *199 0.0082574
*CONN
*I *558:A I *D sky130_fd_sc_hd__maj3_2
*I *559:B I *D sky130_fd_sc_hd__xnor2_2
*I *554:Y O *D sky130_fd_sc_hd__clkinv_1
*CAP
1 *558:A 0
2 *559:B 0
3 *554:Y 0.00114505
4 *199:40 0.00127073
5 *199:22 0.00241579
6 *199:22 resp_msg[0] 0
7 *199:22 *558:B 7.20856e-05
8 *199:22 *598:S 6.24258e-05
9 *199:22 *844:A 0
10 *199:22 *932:A 0.000160617
11 *199:22 *975:A 8.62625e-06
12 *199:22 *333:29 0.000191808
13 *199:22 *380:22 4.23874e-05
14 *199:22 *412:14 8.72285e-06
15 *199:22 *430:117 0.000200806
16 *199:22 *474:90 1.38359e-05
17 *199:40 *549:A 0
18 *199:40 *558:B 8.94134e-05
19 *199:40 *559:A 0.000156076
20 *199:40 *631:A0 0.000186954
21 *199:40 *654:S 0
22 *199:40 *749:B1 1.50924e-05
23 *199:40 *893:A 9.12416e-06
24 *199:40 *1000:A 0.000160617
25 *199:40 *260:26 6.7671e-06
26 *199:40 *282:20 0
27 *199:40 *285:10 4.29314e-06
28 *199:40 *324:20 5.03924e-05
29 *199:40 *373:22 7.86825e-06
30 *199:40 *375:26 3.29488e-05
31 *199:40 *392:12 3.61338e-05
32 *199:40 *459:22 0.000212343
33 *199:40 *477:14 1.65872e-05
34 *526:A *199:40 0.000224395
35 *554:A *199:22 9.09065e-05
36 *600:A1 *199:22 0.000171273
37 *643:A0 *199:22 0.000152897
38 *643:A1 *199:22 0
39 *682:D *199:40 0.000150603
40 *17:10 *199:22 0.000127698
41 *22:12 *199:40 0
42 *128:16 *199:22 8.62625e-06
43 *159:18 *199:40 0.000269088
44 *196:14 *199:22 2.70092e-05
45 *196:14 *199:40 0.0001682
46 *197:18 *199:22 0.00028921
*RES
1 *554:Y *199:22 47.0104 
2 *199:22 *199:40 44.9386 
3 *199:40 *559:B 9.24915 
4 *199:22 *558:A 9.24915 
*END

*D_NET *191 0.00814402
*CONN
*I *496:A2 I *D sky130_fd_sc_hd__a221oi_1
*I *552:B1 I *D sky130_fd_sc_hd__a21oi_4
*I *553:Y O *D sky130_fd_sc_hd__o21ai_2
*CAP
1 *496:A2 0.000431261
2 *552:B1 0.00110262
3 *553:Y 0.000523196
4 *191:10 0.00205708
5 *496:A2 *490:B2 5.13058e-05
6 *496:A2 *490:C1 0.000129105
7 *496:A2 *496:B1 0
8 *496:A2 *496:A1 1.05106e-05
9 *496:A2 *507:B1 7.3747e-05
10 *496:A2 *507:C1 1.84508e-05
11 *496:A2 *571:A 9.04999e-05
12 *496:A2 *891:A 8.19236e-05
13 *496:A2 *251:79 0.000129105
14 *496:A2 *300:10 2.02035e-05
15 *496:A2 *462:32 0.000104719
16 *552:B1 *508:A 0
17 *552:B1 *552:A2 0.000616076
18 *552:B1 *555:A1 0.000103895
19 *552:B1 *973:A 6.89757e-05
20 *552:B1 *427:112 2.18679e-05
21 *552:B1 *430:45 7.12632e-06
22 *191:10 *500:B 3.89332e-06
23 *191:10 *507:A1 0
24 *191:10 *508:B 0.000213559
25 *191:10 *508:C 5.11593e-05
26 *191:10 *571:A 5.39635e-06
27 *191:10 *681:DE 1.9101e-05
28 *191:10 *681:CLK 5.28741e-05
29 *191:10 *977:A 9.93974e-05
30 *191:10 *300:10 0.000348569
31 *565:A *191:10 1.05982e-05
32 *681:D *191:10 1.04194e-05
33 *984:A *552:B1 0.000935615
34 *107:26 *496:A2 0
35 *107:26 *552:B1 0.000473742
36 *190:14 *552:B1 0.000278025
*RES
1 *553:Y *191:10 26.7597 
2 *191:10 *552:B1 24.2043 
3 *191:10 *496:A2 25.814 
*END

*D_NET *190 0.00934897
*CONN
*I *885:A I *D sky130_fd_sc_hd__buf_6
*I *1008:A I *D sky130_fd_sc_hd__buf_6
*I *551:A2 I *D sky130_fd_sc_hd__o21ai_2
*I *552:Y O *D sky130_fd_sc_hd__a21oi_4
*CAP
1 *885:A 0.000142481
2 *1008:A 0.000273424
3 *551:A2 0.00035494
4 *552:Y 0.00069277
5 *190:14 0.00148546
6 *190:10 0.00169235
7 *551:A2 *490:A2 0.000109951
8 *551:A2 *551:A1 6.18404e-05
9 *551:A2 *719:A2 0.000252976
10 *551:A2 *259:16 8.32519e-05
11 *551:A2 *259:40 1.66771e-05
12 *551:A2 *305:43 1.00004e-05
13 *551:A2 *340:40 0.00021166
14 *551:A2 *347:20 0.000300097
15 *551:A2 *384:18 2.57465e-06
16 *885:A *496:B1 0.000245699
17 *885:A *563:B 6.08467e-05
18 *885:A *403:24 0.000233286
19 *1008:A *259:146 7.82322e-05
20 *1008:A *286:14 3.05478e-05
21 *1008:A *438:16 3.05478e-05
22 *190:10 *496:B1 5.64215e-05
23 *190:10 *552:A1 3.53886e-05
24 *190:10 *555:A2 1.1957e-05
25 *190:10 *202:14 4.47179e-05
26 *190:10 *365:16 4.84662e-06
27 *190:10 *403:24 6.00956e-05
28 *190:14 *552:B1 0.000278025
29 *190:14 *973:A 0.000756547
30 *190:14 *259:46 0.000315672
31 *190:14 *259:146 1.67307e-05
32 *705:D *190:10 0.000602981
33 *984:A *190:14 4.33708e-05
34 *1004:A *885:A 2.16355e-05
35 *33:16 *1008:A 0
36 *107:26 *190:14 0.000730971
*RES
1 *552:Y *190:10 25.6645 
2 *190:10 *190:14 6.09583 
3 *190:14 *551:A2 28.7084 
4 *190:14 *1008:A 18.9889 
5 *190:10 *885:A 19.4189 
*END

*D_NET *189 0.00481641
*CONN
*I *995:A I *D sky130_fd_sc_hd__buf_6
*I *513:A1 I *D sky130_fd_sc_hd__a21o_4
*I *551:Y O *D sky130_fd_sc_hd__o21ai_2
*CAP
1 *995:A 7.86616e-05
2 *513:A1 0.000553304
3 *551:Y 0.000519525
4 *189:8 0.00115149
5 *513:A1 *493:B 0
6 *513:A1 *493:C 0.000497264
7 *513:A1 *684:DE 9.82896e-06
8 *513:A1 *738:B 4.1457e-05
9 *513:A1 *222:24 5.81162e-05
10 *513:A1 *286:14 0.000136519
11 *513:A1 *325:8 0.000705263
12 *513:A1 *373:22 8.89147e-05
13 *513:A1 *386:101 3.99168e-05
14 *995:A *521:B 0.000161252
15 *995:A *745:A2 3.58525e-05
16 *995:A *750:A1 0.000161252
17 *995:A *222:24 1.94176e-05
18 *995:A *325:8 3.04443e-05
19 *189:8 *521:B 4.78069e-06
20 *189:8 *551:B1 0.000358595
21 *189:8 *575:B 3.44712e-06
22 *189:8 *725:A 4.36956e-05
23 *189:8 *750:A1 8.41516e-05
24 *956:A *513:A1 1.16986e-05
25 *33:10 *513:A1 5.39635e-06
26 *185:14 *513:A1 1.61631e-05
*RES
1 *551:Y *189:8 22.237 
2 *189:8 *513:A1 34.4688 
3 *189:8 *995:A 16.9985 
*END

*D_NET *187 0.00497754
*CONN
*I *549:B I *D sky130_fd_sc_hd__nand2_1
*I *548:B I *D sky130_fd_sc_hd__xnor2_2
*I *550:X O *D sky130_fd_sc_hd__xor2_2
*CAP
1 *549:B 0.00039312
2 *548:B 0.000795412
3 *550:X 0.000402292
4 *548:B *519:A1 9.48335e-05
5 *548:B *684:CLK 0.000271166
6 *548:B *256:36 0
7 *548:B *272:12 0.000496936
8 *549:B *536:B 0.000158254
9 *549:B *549:A 5.20313e-05
10 *549:B *713:A 7.09666e-06
11 *549:B *738:B 0.000182588
12 *549:B *739:A2 0.000253916
13 *549:B *251:24 2.16355e-05
14 *517:A1 *549:B 0.000125124
15 *517:B1 *549:B 0.000129013
16 *642:B1 *548:B 2.19131e-05
17 *23:33 *549:B 0.000401641
18 *184:8 *548:B 5.97576e-05
19 *184:12 *549:B 5.56461e-05
20 *185:14 *549:B 0.00105516
*RES
1 *550:X *548:B 40.3012 
2 *548:B *549:B 47.739 
*END

*D_NET *185 0.0031982
*CONN
*I *517:B1 I *D sky130_fd_sc_hd__o21ai_1
*I *739:A1 I *D sky130_fd_sc_hd__o21ai_0
*I *549:Y O *D sky130_fd_sc_hd__nand2_1
*CAP
1 *517:B1 4.60585e-05
2 *739:A1 0.000154207
3 *549:Y 0.000474273
4 *185:14 0.000674538
5 *517:B1 *549:B 0.000129013
6 *739:A1 *519:A1 0
7 *739:A1 *254:20 2.29823e-05
8 *739:A1 *255:18 0.000179101
9 *185:14 *513:A1 1.61631e-05
10 *185:14 *549:B 0.00105516
11 *185:14 *738:B 0.000137927
12 *517:A1 *517:B1 0.000161243
13 *517:A1 *185:14 0.000107496
14 *517:A2 *739:A1 3.57195e-05
15 *184:12 *517:B1 4.31603e-06
*RES
1 *549:Y *185:14 33.169 
2 *185:14 *739:A1 22.1574 
3 *185:14 *517:B1 11.6605 
*END

*D_NET *184 0.00643969
*CONN
*I *740:A I *D sky130_fd_sc_hd__nor2_1
*I *899:A I *D sky130_fd_sc_hd__buf_4
*I *544:B I *D sky130_fd_sc_hd__nor2_4
*I *517:A1 I *D sky130_fd_sc_hd__o21ai_1
*I *548:Y O *D sky130_fd_sc_hd__xnor2_2
*CAP
1 *740:A 0
2 *899:A 0.00021767
3 *544:B 0.000564788
4 *517:A1 0.000311129
5 *548:Y 0.000163811
6 *184:42 0.000330048
7 *184:12 0.00107285
8 *184:8 0.000473121
9 *517:A1 *517:B1 0.000161243
10 *517:A1 *549:B 0.000125124
11 *517:A1 *185:14 0.000107496
12 *517:A1 *255:18 6.88784e-05
13 *517:A1 *258:12 7.59522e-05
14 *544:B *734:A2 0.000176443
15 *544:B *741:A 0.000149498
16 *544:B *251:36 3.55968e-05
17 *544:B *283:23 0.000105998
18 *544:B *290:14 0.000464869
19 *544:B *346:20 0.000271403
20 *544:B *455:24 3.21484e-05
21 *899:A *640:A0 8.79065e-05
22 *899:A *641:B 3.13215e-05
23 *899:A *662:A 0.000103304
24 *899:A *256:36 0.000255255
25 *899:A *283:10 0
26 *899:A *343:12 2.07325e-05
27 *899:A *379:20 0.000138681
28 *899:A *444:199 9.12416e-06
29 *184:8 *519:A1 6.7671e-06
30 *184:8 *548:B 5.97576e-05
31 *184:12 *517:B1 4.31603e-06
32 *184:12 *519:A1 1.80887e-05
33 *184:12 *549:B 5.56461e-05
34 *184:42 *641:B 3.27606e-06
35 *184:42 *198:18 8.62262e-06
36 *184:42 *254:20 0.000140364
37 *184:42 *343:12 1.09168e-05
38 *184:42 *444:199 2.02035e-05
39 *642:B1 *899:A 5.20308e-05
40 *23:33 *517:A1 0.000111708
41 *23:33 *184:12 1.80122e-05
42 *26:26 *544:B 0.000226609
43 *118:12 *184:42 0.000148982
*RES
1 *548:Y *184:8 12.7697 
2 *184:8 *184:12 4.62973 
3 *184:12 *517:A1 24.9949 
4 *184:12 *544:B 37.1065 
5 *184:8 *184:42 8.40826 
6 *184:42 *899:A 21.332 
7 *184:42 *740:A 13.7491 
*END

*D_NET *182 0.00441368
*CONN
*I *545:B I *D sky130_fd_sc_hd__xnor2_2
*I *546:B I *D sky130_fd_sc_hd__nand2_1
*I *547:X O *D sky130_fd_sc_hd__xor2_2
*CAP
1 *545:B 2.08228e-05
2 *546:B 1.41765e-05
3 *547:X 0.00120668
4 *182:30 0.00120003
5 *546:B *692:CLK 2.58757e-05
6 *182:30 *709:DE 7.34021e-05
7 *182:30 *721:A 1.66771e-05
8 *182:30 *722:A2 8.36586e-06
9 *182:30 *730:A1 0
10 *182:30 *998:A 6.4002e-05
11 *182:30 *264:27 5.72382e-05
12 *182:30 *319:36 3.49082e-07
13 *182:30 *328:10 0.000160942
14 *182:30 *358:20 4.87087e-05
15 *182:30 *415:20 2.76586e-05
16 *182:30 *426:56 0.00039289
17 *182:30 *448:23 0.000118242
18 *182:30 *475:18 0
19 *546:A *545:B 3.11366e-05
20 *546:A *182:30 7.74044e-06
21 *547:A *545:B 6.27782e-05
22 *547:A *182:30 3.82228e-05
23 *626:A *182:30 1.66771e-05
24 *1:28 *545:B 4.89392e-05
25 *1:28 *182:30 0.000110297
26 *66:14 *546:B 6.27782e-05
27 *69:16 *182:30 0.000588619
28 *105:34 *182:30 1.04282e-05
29 *180:26 *182:30 0
*RES
1 *547:X *182:30 49.4829 
2 *182:30 *546:B 14.4725 
3 *547:X *545:B 19.7763 
*END

*D_NET *180 0.0118849
*CONN
*I *731:B1 I *D sky130_fd_sc_hd__o21ai_0
*I *517:A2 I *D sky130_fd_sc_hd__o21ai_1
*I *546:Y O *D sky130_fd_sc_hd__nand2_1
*CAP
1 *731:B1 6.71639e-05
2 *517:A2 0.00251095
3 *546:Y 0.00156676
4 *180:26 0.00414488
5 *517:A2 *588:A1 6.851e-05
6 *517:A2 *661:B 7.24279e-06
7 *517:A2 *723:B 0.000187325
8 *517:A2 *739:A1 3.57195e-05
9 *517:A2 *745:A1 0.000199224
10 *517:A2 *746:B 0.000281435
11 *517:A2 *754:A1 0.00020325
12 *517:A2 *754:B1 6.41856e-05
13 *517:A2 *887:A 6.13411e-05
14 *517:A2 *888:A 1.04744e-05
15 *517:A2 *290:14 6.75063e-06
16 *517:A2 *292:22 0.000221434
17 *517:A2 *329:20 0
18 *517:A2 *345:24 4.47118e-05
19 *517:A2 *346:20 0
20 *517:A2 *444:172 0
21 *731:B1 *732:B 9.76046e-05
22 *731:B1 *887:A 2.57465e-06
23 *731:B1 *336:10 1.41976e-05
24 *180:26 *692:DE 1.52882e-05
25 *180:26 *880:A 0.000170984
26 *180:26 *182:30 0
27 *180:26 *414:39 0.000501531
28 *180:26 *448:23 4.55646e-06
29 *544:A *517:A2 0
30 *546:A *180:26 0.000374878
31 *731:A2 *731:B1 9.35232e-05
32 *26:26 *517:A2 3.17436e-05
33 *69:16 *180:26 0.000376226
34 *105:34 *517:A2 0.000287797
35 *105:34 *180:26 0.000181846
36 *178:57 *517:A2 5.07774e-05
*RES
1 *546:Y *180:26 31.3355 
2 *180:26 *517:A2 46.9681 
3 *180:26 *731:B1 16.7079 
*END

*D_NET *179 0.00772916
*CONN
*I *731:A1 I *D sky130_fd_sc_hd__o21ai_0
*I *728:A I *D sky130_fd_sc_hd__nor2_1
*I *544:A I *D sky130_fd_sc_hd__nor2_4
*I *727:A I *D sky130_fd_sc_hd__xnor2_2
*I *730:B1 I *D sky130_fd_sc_hd__a211oi_1
*I *545:Y O *D sky130_fd_sc_hd__xnor2_2
*CAP
1 *731:A1 0.000242699
2 *728:A 0
3 *544:A 0.000234986
4 *727:A 0.000108258
5 *730:B1 0.000259431
6 *545:Y 0.000198026
7 *179:58 0.000798225
8 *179:35 0.000732069
9 *179:33 0.000521165
10 *179:8 0.000675351
11 *544:A *517:A2 0
12 *544:A *675:A1 1.03594e-05
13 *544:A *741:A 2.41598e-05
14 *544:A *745:C1 5.04829e-06
15 *544:A *748:C1 7.23118e-05
16 *544:A *329:20 4.71853e-05
17 *544:A *455:24 0.000158455
18 *727:A *727:B 0
19 *727:A *448:35 0.000200794
20 *727:A *448:43 1.55025e-05
21 *730:B1 *754:A1 6.08467e-05
22 *730:B1 *386:41 1.91391e-05
23 *731:A1 *588:A2 0.000102655
24 *731:A1 *732:B 1.67698e-05
25 *731:A1 *880:A 6.64392e-05
26 *731:A1 *336:10 7.97098e-06
27 *731:A1 *362:16 0.00082903
28 *179:33 *588:A2 7.81602e-05
29 *179:33 *588:B1 2.4562e-05
30 *179:33 *680:DE 7.44696e-05
31 *179:33 *732:B 0.000306753
32 *179:33 *337:22 4.58666e-05
33 *179:33 *386:41 8.28201e-05
34 *179:33 *444:149 3.89332e-06
35 *179:35 *588:B1 0.000118485
36 *179:35 *337:22 4.37999e-05
37 *179:58 *588:B1 1.87125e-05
38 *179:58 *626:B 0
39 *179:58 *675:A1 2.57073e-05
40 *179:58 *733:B 0.000114091
41 *179:58 *863:A 0.000289506
42 *179:58 *329:20 0.000209582
43 *179:58 *334:30 6.93171e-05
44 *179:58 *337:22 0.00016021
45 *179:58 *444:126 0
46 *179:58 *448:43 0.000113199
47 *179:58 *455:24 7.93318e-06
48 *546:A *730:B1 6.98978e-05
49 *546:A *179:33 3.13805e-06
50 *547:A *730:B1 5.8802e-05
51 *627:B1 *730:B1 9.89411e-06
52 *731:A2 *731:A1 0.000262559
53 *1:28 *730:B1 9.25026e-05
54 *24:16 *730:B1 7.98171e-06
55 *24:16 *179:8 3.04399e-05
*RES
1 *545:Y *179:8 13.3243 
2 *179:8 *730:B1 24.3545 
3 *179:8 *179:33 12.7242 
4 *179:33 *179:35 2.24725 
5 *179:35 *727:A 16.7151 
6 *179:35 *179:58 15.5334 
7 *179:58 *544:A 20.2081 
8 *179:58 *728:A 13.7491 
9 *179:33 *731:A1 24.4795 
*END

*D_NET *178 0.0108536
*CONN
*I *748:B1 I *D sky130_fd_sc_hd__o211ai_1
*I *736:C I *D sky130_fd_sc_hd__nand4_1
*I *516:A1 I *D sky130_fd_sc_hd__a21oi_2
*I *747:B I *D sky130_fd_sc_hd__nand4_1
*I *536:A I *D sky130_fd_sc_hd__nand2_1
*I *544:Y O *D sky130_fd_sc_hd__nor2_4
*CAP
1 *748:B1 1.30387e-05
2 *736:C 0.000969428
3 *516:A1 0.000191147
4 *747:B 0.000174832
5 *536:A 0.000205815
6 *544:Y 0.000168282
7 *178:57 0.00125271
8 *178:27 0.000780922
9 *178:10 0.00088436
10 *178:8 0.000702128
11 *516:A1 *516:A2 1.07248e-05
12 *516:A1 *521:B 2.65831e-05
13 *516:A1 *522:B 0.00013189
14 *516:A1 *693:CLK 4.31485e-06
15 *516:A1 *750:C1 6.50727e-05
16 *516:A1 *893:A 4.1946e-06
17 *516:A1 *324:20 4.66386e-05
18 *536:A *516:B1 9.13616e-06
19 *536:A *743:A1 3.90689e-06
20 *536:A *749:B1 0.000161568
21 *536:A *888:A 2.18679e-05
22 *536:A *255:18 7.50962e-05
23 *536:A *267:12 0.000314447
24 *536:A *284:43 2.1203e-06
25 *536:A *346:20 0
26 *536:A *392:12 1.60111e-05
27 *736:C *495:B 2.64398e-05
28 *736:C *576:B1 6.08467e-05
29 *736:C *576:C1 1.65872e-05
30 *736:C *717:A 5.9036e-05
31 *736:C *726:A2 1.96344e-05
32 *736:C *736:A 3.56528e-05
33 *736:C *742:A2 0.000451291
34 *736:C *748:A1 0.000107496
35 *736:C *748:C1 6.08467e-05
36 *736:C *884:A 6.36477e-05
37 *736:C *962:A 0.000212189
38 *736:C *266:14 2.5695e-05
39 *736:C *345:24 0.0011919
40 *736:C *363:26 0.000148785
41 *736:C *415:71 5.43663e-05
42 *736:C *442:8 5.8353e-05
43 *747:B *747:A 0.000107496
44 *747:B *747:D 1.4091e-06
45 *747:B *893:A 1.5714e-05
46 *748:B1 *742:A2 6.08467e-05
47 *748:B1 *748:C1 4.66492e-05
48 *178:8 *748:C1 2.15034e-05
49 *178:8 *292:22 1.03403e-05
50 *178:10 *516:B1 4.10191e-05
51 *178:10 *693:DE 2.01503e-05
52 *178:10 *743:A1 5.04768e-05
53 *178:10 *284:43 6.58132e-05
54 *178:10 *292:22 0.000153795
55 *178:10 *375:26 0.00014988
56 *178:27 *516:B1 0.000113968
57 *178:27 *521:A 1.88014e-05
58 *178:27 *522:B 1.28732e-05
59 *178:27 *536:B 7.09666e-06
60 *178:27 *737:C1 0.000254532
61 *178:27 *893:A 1.07529e-05
62 *178:27 *267:12 3.58208e-05
63 *178:57 *517:A2 5.07774e-05
64 *178:57 *743:A1 3.21677e-05
65 *178:57 *748:C1 0.000288901
66 *178:57 *754:A1 0.000170764
67 *178:57 *292:22 7.20738e-05
68 *178:57 *336:10 5.1493e-06
69 *693:D *516:A1 0.000123971
70 *693:D *747:B 0
71 *728:B *736:C 4.89395e-05
72 *61:26 *736:C 1.41307e-05
73 *169:18 *736:C 1.88152e-05
*RES
1 *544:Y *178:8 16.1364 
2 *178:8 *178:10 8.06078 
3 *178:10 *536:A 21.3947 
4 *178:10 *178:27 15.9239 
5 *178:27 *747:B 16.6932 
6 *178:27 *516:A1 20.1517 
7 *178:8 *178:57 12.5608 
8 *178:57 *736:C 40.5722 
9 *178:57 *748:B1 9.97254 
*END

*D_NET *176 0.00264813
*CONN
*I *542:B I *D sky130_fd_sc_hd__nand2_1
*I *543:X O *D sky130_fd_sc_hd__xor2_1
*CAP
1 *542:B 0.000894119
2 *543:X 0.000894119
3 *542:B *710:CLK 0.000381086
4 *542:B *431:73 6.47764e-05
5 *542:B *431:84 1.69178e-06
6 *541:C *542:B 7.27245e-06
7 *933:A *542:B 5.797e-05
8 *74:18 *542:B 0.000113109
9 *75:14 *542:B 0.000233988
*RES
1 *543:X *542:B 46.6289 
*END

*D_NET *174 0.00702283
*CONN
*I *518:B1 I *D sky130_fd_sc_hd__o21ai_0
*I *731:A2 I *D sky130_fd_sc_hd__o21ai_0
*I *542:Y O *D sky130_fd_sc_hd__nand2_1
*CAP
1 *518:B1 7.38957e-05
2 *731:A2 0.000228229
3 *542:Y 0.00160257
4 *174:10 0.0019047
5 *518:B1 *626:B 4.45999e-05
6 *731:A2 *731:A1 0.000262559
7 *731:A2 *731:B1 9.35232e-05
8 *731:A2 *732:B 0.000124975
9 *731:A2 *733:B 0.00016244
10 *731:A2 *880:A 6.3657e-05
11 *731:A2 *336:10 7.92757e-06
12 *731:A2 *448:35 2.5628e-05
13 *174:10 *543:A 2.26985e-05
14 *174:10 *543:B 0.000211492
15 *174:10 *625:A0 0.000342987
16 *174:10 *627:A1 0.000142165
17 *174:10 *630:A1 8.25006e-05
18 *174:10 *652:S 0
19 *174:10 *730:A1 1.91246e-05
20 *174:10 *733:B 0.000335341
21 *174:10 *259:208 1.5714e-05
22 *174:10 *386:16 7.21203e-05
23 *174:10 *413:26 0.000216467
24 *626:A *518:B1 7.92757e-06
25 *626:A *174:10 3.01846e-05
26 *627:B1 *518:B1 5.04829e-06
27 *627:B1 *731:A2 1.74008e-05
28 *627:B1 *174:10 0.000158802
29 *710:D *174:10 0.000746318
30 *934:A *174:10 0
31 *75:14 *174:10 1.83827e-06
*RES
1 *542:Y *174:10 49.6865 
2 *174:10 *731:A2 23.1084 
3 *174:10 *518:B1 15.5817 
*END

*D_NET *1 0.00782883
*CONN
*I *730:C1 I *D sky130_fd_sc_hd__a211oi_1
*I *910:A I *D sky130_fd_sc_hd__buf_4
*I *537:A I *D sky130_fd_sc_hd__nor2_2
*I *728:B I *D sky130_fd_sc_hd__nor2_1
*I *518:A1 I *D sky130_fd_sc_hd__o21ai_0
*I *541:X O *D sky130_fd_sc_hd__xnor3_2
*CAP
1 *730:C1 0
2 *910:A 0
3 *537:A 0
4 *728:B 0.000374013
5 *518:A1 0
6 *541:X 0.000114929
7 *1:59 0.00105102
8 *1:39 0.00105368
9 *1:28 0.00110213
10 *1:10 0.000840383
11 *728:B *588:B1 6.3657e-05
12 *728:B *736:C 4.89395e-05
13 *728:B *742:A1 2.20187e-05
14 *728:B *742:A2 1.92481e-05
15 *728:B *748:A1 0.000111802
16 *728:B *748:C1 0.000154145
17 *728:B *754:B1 6.9391e-05
18 *728:B *754:C1 6.64392e-05
19 *728:B *266:14 1.50924e-05
20 *728:B *329:20 4.89622e-05
21 *728:B *345:24 8.68041e-05
22 *728:B *350:24 0.000247443
23 *1:10 *732:B 1.5212e-05
24 *1:10 *915:A 3.14194e-05
25 *1:10 *259:216 0.000111802
26 *1:10 *386:41 7.8756e-07
27 *1:10 *399:24 8.56081e-05
28 *1:10 *444:120 0
29 *1:28 *518:A2 2.99287e-05
30 *1:28 *540:A 3.09374e-06
31 *1:28 *545:B 4.89392e-05
32 *1:28 *546:A 1.27122e-05
33 *1:28 *547:A 5.31422e-05
34 *1:28 *588:A2 0.000164398
35 *1:28 *626:A 1.99996e-05
36 *1:28 *626:B 2.77564e-05
37 *1:28 *627:B1 1.16627e-05
38 *1:28 *730:B1 9.25026e-05
39 *1:28 *732:B 7.82637e-06
40 *1:28 *733:B 3.06917e-06
41 *1:28 *887:A 1.24886e-05
42 *1:28 *182:30 0.000110297
43 *1:28 *259:180 0
44 *1:28 *386:41 2.15093e-05
45 *1:28 *399:24 6.67835e-06
46 *1:39 *518:A2 9.54357e-06
47 *1:39 *540:A 0.000203756
48 *1:39 *626:B 0
49 *1:39 *259:169 0.000134145
50 *1:59 *576:A2 0.000197492
51 *1:59 *693:D 0.00038418
52 *1:59 *715:A1 2.23124e-05
53 *1:59 *715:C1 2.10055e-05
54 *1:59 *720:B 4.56516e-05
55 *1:59 *722:A2 2.25511e-05
56 *1:59 *729:B 0.000100393
57 *1:59 *238:10 4.01722e-05
58 *1:59 *259:169 0.000157107
59 *1:59 *265:27 0.000117358
60 *1:59 *265:31 9.12416e-06
61 *1:59 *358:20 2.41274e-06
62 *1:59 *475:18 7.04549e-07
*RES
1 *541:X *1:10 17.6896 
2 *1:10 *1:28 27.828 
3 *1:28 *518:A1 9.24915 
4 *1:28 *1:39 8.53607 
5 *1:39 *1:59 34.9561 
6 *1:59 *728:B 29.5924 
7 *1:59 *537:A 9.24915 
8 *1:39 *910:A 9.24915 
9 *1:10 *730:C1 13.7491 
*END

*D_NET *262 0.0031733
*CONN
*I *539:B I *D sky130_fd_sc_hd__nand2_1
*I *715:A2 I *D sky130_fd_sc_hd__o211ai_1
*I *540:X O *D sky130_fd_sc_hd__xor2_1
*CAP
1 *539:B 0.00021529
2 *715:A2 7.45337e-05
3 *540:X 0.000383009
4 *262:10 0.000672832
5 *539:B *539:A 0.000254872
6 *539:B *448:19 0.000571636
7 *715:A2 *720:B 0.000167558
8 *715:A2 *322:10 6.14756e-06
9 *715:A2 *358:20 0.000189774
10 *262:10 *518:A2 0.00043685
11 *262:10 *322:10 3.029e-06
12 *262:10 *358:20 0.000108286
13 *262:10 *448:19 8.94855e-05
*RES
1 *540:X *262:10 21.1566 
2 *262:10 *715:A2 17.2421 
3 *262:10 *539:B 21.1519 
*END

*D_NET *264 0.00674083
*CONN
*I *730:A1 I *D sky130_fd_sc_hd__a211oi_1
*I *716:A I *D sky130_fd_sc_hd__nand2_1
*I *518:A2 I *D sky130_fd_sc_hd__o21ai_0
*I *539:Y O *D sky130_fd_sc_hd__nand2_1
*CAP
1 *730:A1 0.000663814
2 *716:A 1.17532e-05
3 *518:A2 0.000393187
4 *539:Y 4.93516e-05
5 *264:27 0.00103514
6 *264:8 0.000802116
7 *518:A2 *540:A 2.29454e-05
8 *518:A2 *887:A 6.48653e-05
9 *716:A *716:B 4.80635e-06
10 *730:A1 *716:B 8.60123e-05
11 *730:A1 *730:A2 1.88014e-05
12 *730:A1 *732:B 0
13 *730:A1 *754:A1 1.19705e-05
14 *730:A1 *319:36 5.11381e-05
15 *730:A1 *322:10 0.000207266
16 *264:8 *576:C1 9.04211e-05
17 *264:8 *475:18 9.04211e-05
18 *264:27 *576:C1 6.40849e-05
19 *264:27 *716:B 2.74767e-05
20 *264:27 *322:10 1.41976e-05
21 *264:27 *415:20 1.61631e-05
22 *264:27 *475:18 0.00039928
23 *538:C *730:A1 0.000386125
24 *627:B1 *730:A1 1.91246e-05
25 *722:A2 *264:27 2.38092e-05
26 *1:28 *518:A2 2.99287e-05
27 *1:39 *518:A2 9.54357e-06
28 *26:26 *730:A1 0.000206333
29 *171:16 *730:A1 3.60067e-05
30 *174:10 *730:A1 1.91246e-05
31 *182:30 *730:A1 0
32 *182:30 *264:27 5.72382e-05
33 *259:169 *518:A2 0.00081805
34 *259:180 *518:A2 9.71388e-05
35 *259:208 *730:A1 0.00047634
36 *262:10 *518:A2 0.00043685
*RES
1 *539:Y *264:8 15.5811 
2 *264:8 *518:A2 26.6979 
3 *264:8 *264:27 15.6661 
4 *264:27 *716:A 9.82786 
5 *264:27 *730:A1 33.8188 
*END

*D_NET *265 0.0176369
*CONN
*I *537:B I *D sky130_fd_sc_hd__nor2_2
*I *718:D I *D sky130_fd_sc_hd__nor4_4
*I *714:B1 I *D sky130_fd_sc_hd__a211oi_1
*I *713:B I *D sky130_fd_sc_hd__nor2_1
*I *905:A I *D sky130_fd_sc_hd__buf_4
*I *538:X O *D sky130_fd_sc_hd__xnor3_2
*CAP
1 *537:B 0
2 *718:D 3.59845e-05
3 *714:B1 0.00050144
4 *713:B 0.000393176
5 *905:A 0
6 *538:X 4.2377e-05
7 *265:39 0.00121734
8 *265:31 0.000477944
9 *265:27 0.000704493
10 *265:16 0.00303112
11 *265:12 0.00318558
12 *265:6 0.000782102
13 *713:B *536:B 0.000114679
14 *713:B *738:B 0.000136347
15 *713:B *750:A2 9.96342e-05
16 *713:B *293:12 0.000713695
17 *713:B *319:36 8.73224e-05
18 *714:B1 *574:A2 0.000400735
19 *714:B1 *718:C 2.15676e-05
20 *714:B1 *340:40 0.000310696
21 *714:B1 *429:6 7.85629e-05
22 *714:B1 *429:15 2.30551e-05
23 *718:D *742:A1 3.31745e-05
24 *718:D *324:20 4.45999e-05
25 *265:6 *716:B 6.27718e-05
26 *265:12 *322:10 0.000121543
27 *265:12 *448:112 7.52031e-05
28 *265:16 *691:DE 2.36965e-05
29 *265:16 *709:CLK 1.03403e-05
30 *265:16 *385:16 0.000444948
31 *265:16 *447:32 6.28371e-05
32 *265:27 *516:A2 9.12416e-06
33 *265:27 *716:B 0.000253345
34 *265:27 *720:B 1.98901e-05
35 *265:27 *748:A2 0.000156059
36 *265:27 *321:10 2.30281e-05
37 *265:27 *328:10 0.000433224
38 *265:27 *358:20 0.000516987
39 *265:27 *367:12 1.65668e-05
40 *265:27 *448:112 2.38092e-05
41 *265:31 *516:A2 0.000153537
42 *265:31 *717:A 5.40206e-05
43 *265:31 *720:B 2.27901e-06
44 *265:39 *718:C 5.66864e-05
45 *265:39 *742:A1 0.000380147
46 *265:39 *293:12 8.61737e-06
47 *265:39 *320:22 0.000156076
48 *265:39 *329:20 1.92707e-05
49 *265:39 *442:26 5.69278e-05
50 *546:A *265:12 0.000129251
51 *575:B *713:B 0.000136515
52 *575:B *265:39 0.000180671
53 *691:D *265:16 5.21884e-05
54 *709:D *265:16 8.22272e-05
55 *718:B *265:39 6.08467e-05
56 *873:A *265:16 1.00981e-05
57 *1:59 *265:27 0.000117358
58 *1:59 *265:31 9.12416e-06
59 *28:14 *265:16 1.66732e-05
60 *95:26 *265:16 0.000553169
61 *171:16 *265:27 0.000118002
62 *221:18 *714:B1 2.86353e-06
63 *237:35 *714:B1 5.73145e-06
64 *238:43 *714:B1 0.000519163
65 *238:59 *714:B1 6.64392e-05
*RES
1 *538:X *265:6 9.97254 
2 *265:6 *265:12 14.5693 
3 *265:12 *265:16 45.381 
4 *265:16 *905:A 9.24915 
5 *265:6 *265:27 23.3924 
6 *265:27 *265:31 7.57775 
7 *265:31 *265:39 15.0488 
8 *265:39 *713:B 27.8311 
9 *265:39 *714:B1 27.9495 
10 *265:31 *718:D 10.5271 
11 *265:27 *537:B 13.7491 
*END

*D_NET *266 0.00511829
*CONN
*I *722:B1_N I *D sky130_fd_sc_hd__a21boi_0
*I *962:A I *D sky130_fd_sc_hd__buf_4
*I *537:Y O *D sky130_fd_sc_hd__nor2_2
*CAP
1 *722:B1_N 0.000372167
2 *962:A 0.000287761
3 *537:Y 0.00055903
4 *266:14 0.00121896
5 *722:B1_N *576:A2 9.34919e-05
6 *722:B1_N *576:C1 2.66394e-05
7 *722:B1_N *358:20 2.16355e-05
8 *722:B1_N *415:71 7.93318e-06
9 *722:B1_N *475:18 0.000402584
10 *962:A *345:24 0.000268878
11 *962:A *415:71 5.88009e-05
12 *962:A *442:8 6.64392e-05
13 *266:14 *717:A 0.00015607
14 *266:14 *886:A 6.06764e-05
15 *266:14 *345:24 0.000394842
16 *693:D *266:14 0.000113885
17 *722:A1 *722:B1_N 1.29759e-05
18 *728:B *266:14 1.50924e-05
19 *736:C *962:A 0.000212189
20 *736:C *266:14 2.5695e-05
21 *105:34 *722:B1_N 0.00022157
22 *169:18 *962:A 7.4241e-05
23 *238:10 *266:14 1.94058e-05
24 *259:146 *722:B1_N 0.000127017
25 *259:169 *722:B1_N 0.000300314
*RES
1 *537:Y *266:14 28.5984 
2 *266:14 *962:A 24.9949 
3 *266:14 *722:B1_N 31.6011 
*END

*D_NET *267 0.00442303
*CONN
*I *737:A2 I *D sky130_fd_sc_hd__o221ai_4
*I *521:A I *D sky130_fd_sc_hd__nor2_1
*I *536:Y O *D sky130_fd_sc_hd__nand2_1
*CAP
1 *737:A2 0
2 *521:A 0.000864131
3 *536:Y 0.000211717
4 *267:12 0.00107585
5 *521:A *490:B1 0.000117108
6 *521:A *493:B 0.000191426
7 *521:A *737:C1 0.000258444
8 *521:A *750:C1 5.37492e-05
9 *521:A *286:14 0.000270306
10 *521:A *347:20 0.000205101
11 *521:A *472:18 1.15099e-05
12 *521:A *485:26 0.000426366
13 *267:12 *516:B1 6.50586e-05
14 *267:12 *743:A1 0.000121106
15 *267:12 *750:C1 1.3808e-05
16 *267:12 *285:10 2.07135e-05
17 *267:12 *324:20 0
18 *267:12 *373:22 3.57291e-06
19 *267:12 *392:12 9.76854e-05
20 *536:A *267:12 0.000314447
21 *178:27 *521:A 1.88014e-05
22 *178:27 *267:12 3.58208e-05
23 *221:18 *521:A 0
24 *237:22 *521:A 1.07248e-05
25 *239:26 *521:A 3.55859e-05
*RES
1 *536:Y *267:12 26.0663 
2 *267:12 *521:A 42.2516 
3 *267:12 *737:A2 9.24915 
*END

*D_NET *269 0.0030593
*CONN
*I *534:B I *D sky130_fd_sc_hd__xnor2_1
*I *909:A I *D sky130_fd_sc_hd__buf_4
*I *535:X O *D sky130_fd_sc_hd__xor2_2
*CAP
1 *534:B 2.53344e-05
2 *909:A 0.000125947
3 *535:X 0.000549556
4 *269:12 0.000700837
5 *534:B *751:A 4.17467e-05
6 *909:A *751:A 0.000184931
7 *269:12 *595:A0 0
8 *269:12 *751:A 5.56367e-05
9 *534:A *534:B 6.64392e-05
10 *534:A *269:12 0.000153007
11 *628:A1 *269:12 0.000288523
12 *849:A *269:12 0.000258809
13 *862:A *269:12 1.65872e-05
14 *961:A *269:12 4.64862e-05
15 *2:10 *269:12 2.46812e-05
16 *73:12 *269:12 0.000290629
17 *127:16 *269:12 1.85773e-05
18 *157:18 *269:12 3.47941e-05
19 *161:6 *534:B 0.000165521
20 *246:12 *269:12 1.12605e-05
*RES
1 *535:X *269:12 31.5564 
2 *269:12 *909:A 17.2421 
3 *269:12 *534:B 15.5817 
*END

*D_NET *246 0.00415059
*CONN
*I *961:A I *D sky130_fd_sc_hd__buf_4
*I *530:A I *D sky130_fd_sc_hd__nor2_1
*I *520:A I *D sky130_fd_sc_hd__nor2_1
*I *534:Y O *D sky130_fd_sc_hd__xnor2_1
*CAP
1 *961:A 0.000296098
2 *530:A 1.39378e-05
3 *520:A 0.000111255
4 *534:Y 0
5 *246:12 0.000360022
6 *246:6 0.000530927
7 *520:A *520:B 0
8 *520:A *256:14 0.000179873
9 *961:A *523:B 0.000287716
10 *961:A *673:S 2.68139e-05
11 *961:A *752:B 0.000122122
12 *961:A *867:A 0.000155565
13 *961:A *253:8 0.000952339
14 *961:A *269:12 4.64862e-05
15 *961:A *278:31 3.95925e-05
16 *246:12 *751:A 0.000374472
17 *246:12 *867:A 4.93395e-05
18 *246:12 *256:14 7.91804e-05
19 *246:12 *269:12 1.12605e-05
20 *879:A *246:12 0.000301415
21 *943:A *961:A 0.00021217
*RES
1 *534:Y *246:6 13.7491 
2 *246:6 *246:12 14.1175 
3 *246:12 *520:A 12.9385 
4 *246:12 *530:A 9.82786 
5 *246:6 *961:A 28.2512 
*END

*D_NET *272 0.00559858
*CONN
*I *532:B I *D sky130_fd_sc_hd__nand2_1
*I *531:A I *D sky130_fd_sc_hd__xnor2_1
*I *533:X O *D sky130_fd_sc_hd__xor2_2
*CAP
1 *532:B 0.000327926
2 *531:A 2.3034e-05
3 *533:X 0.000630229
4 *272:12 0.000981188
5 *532:B *278:16 1.41976e-05
6 *272:12 *515:A1 0.000213676
7 *272:12 *515:B1 7.05477e-05
8 *272:12 *519:A1 4.59322e-05
9 *272:12 *640:S 0.000507057
10 *272:12 *684:CLK 8.51933e-05
11 *272:12 *278:16 0.000547308
12 *272:12 *292:22 5.55617e-05
13 *272:12 *436:8 1.03403e-05
14 *272:12 *436:31 3.17509e-05
15 resp_msg[13] *532:B 7.28994e-06
16 *532:A *532:B 0.000201681
17 *548:B *272:12 0.000496936
18 *752:A *532:B 0.000381097
19 *102:14 *272:12 0.00013156
20 *145:12 *532:B 0.000522231
21 *257:22 *272:12 2.26054e-05
22 *258:12 *532:B 2.77625e-06
23 *258:12 *272:12 1.47668e-05
24 *258:28 *532:B 0.000273697
*RES
1 *533:X *272:12 42.2695 
2 *272:12 *531:A 9.82786 
3 *272:12 *532:B 32.1613 
*END

*D_NET *256 0.00676847
*CONN
*I *520:B I *D sky130_fd_sc_hd__nor2_1
*I *590:B1 I *D sky130_fd_sc_hd__o21ai_0
*I *532:Y O *D sky130_fd_sc_hd__nand2_1
*CAP
1 *520:B 1.94029e-05
2 *590:B1 0
3 *532:Y 0.000315771
4 *256:36 0.00102486
5 *256:14 0.00136003
6 *256:14 *751:A 5.37199e-06
7 *256:14 *752:A 0.000149183
8 *256:14 *274:10 0.000246127
9 *256:14 *359:26 0.000373715
10 *256:36 *515:C1 0.000138735
11 *256:36 *519:B1 6.3657e-05
12 *256:36 *519:A1 0.000117777
13 *256:36 *519:A2 6.08467e-05
14 *256:36 *640:A0 9.69426e-05
15 *256:36 *641:B 2.41483e-05
16 *256:36 *735:B 1.5734e-05
17 *256:36 *863:A 0.000210865
18 *256:36 *959:A 0.000163478
19 *256:36 *257:22 6.36477e-05
20 *256:36 *274:10 6.08467e-05
21 *256:36 *343:12 1.68872e-05
22 *256:36 *379:20 0.000607076
23 resp_msg[14] *256:14 0.000154145
24 *520:A *520:B 0
25 *520:A *256:14 0.000179873
26 *548:B *256:36 0
27 *589:A1 *256:36 1.03403e-05
28 *589:A2 *256:36 1.43832e-05
29 *636:B1 *256:36 2.07503e-05
30 *641:A *256:36 6.08467e-05
31 *642:A2 *256:36 0.000183115
32 *642:B1 *256:36 5.51483e-06
33 *879:A *256:14 0.000130777
34 *899:A *256:36 0.000255255
35 *198:18 *256:36 0.000449661
36 *246:12 *256:14 7.91804e-05
37 *252:20 *256:36 8.95297e-05
*RES
1 *532:Y *256:14 30.1229 
2 *256:14 *256:36 41.945 
3 *256:36 *590:B1 9.24915 
4 *256:14 *520:B 9.82786 
*END

*D_NET *258 0.00917152
*CONN
*I *752:A I *D sky130_fd_sc_hd__nor2_1
*I *530:B I *D sky130_fd_sc_hd__nor2_1
*I *897:A I *D sky130_fd_sc_hd__buf_4
*I *590:A1 I *D sky130_fd_sc_hd__o21ai_0
*I *531:Y O *D sky130_fd_sc_hd__xnor2_1
*CAP
1 *752:A 0.00033526
2 *530:B 0.000285591
3 *897:A 0
4 *590:A1 0
5 *531:Y 0.00178065
6 *258:32 0.000327245
7 *258:28 0.00054015
8 *258:12 0.00161742
9 *530:B *515:A2 0
10 *530:B *751:A 3.54435e-05
11 *530:B *359:26 2.85505e-05
12 *752:A *532:B 0.000381097
13 *752:A *867:A 0.000333557
14 *258:12 *515:A1 5.52874e-05
15 *258:12 *532:B 2.77625e-06
16 *258:12 *739:A2 0.000164915
17 *258:12 *272:12 1.47668e-05
18 *258:12 *282:20 0.000108106
19 *258:12 *392:12 7.99846e-05
20 *258:12 *436:8 0.00121777
21 *258:12 *436:31 0.000196656
22 *258:28 *532:B 0.000273697
23 *258:32 *751:A 0.000109421
24 resp_msg[13] *752:A 0.000136293
25 resp_msg[13] *258:28 0.000114659
26 resp_msg[15] *752:A 2.58757e-05
27 *517:A1 *258:12 7.59522e-05
28 *532:A *258:12 4.24629e-05
29 *865:A *530:B 3.63171e-05
30 *879:A *752:A 3.9193e-05
31 *22:12 *258:12 0.000115761
32 *145:12 *752:A 0.000168296
33 *158:22 *530:B 2.8835e-05
34 *255:18 *258:12 8.99973e-05
35 *256:14 *752:A 0.000149183
36 *257:8 *530:B 0.000260343
*RES
1 *531:Y *258:12 48.9388 
2 *258:12 *590:A1 9.24915 
3 *531:Y *258:28 17.829 
4 *258:28 *258:32 5.778 
5 *258:32 *897:A 9.24915 
6 *258:32 *530:B 26.3719 
7 *258:28 *752:A 27.9316 
*END

*D_NET *274 0.00437166
*CONN
*I *888:A I *D sky130_fd_sc_hd__buf_4
*I *515:B2 I *D sky130_fd_sc_hd__a221oi_2
*I *530:Y O *D sky130_fd_sc_hd__nor2_1
*CAP
1 *888:A 0.000990499
2 *515:B2 1.86853e-05
3 *530:Y 0.000221522
4 *274:10 0.00123071
5 *515:B2 *436:31 4.34034e-05
6 *888:A *661:B 1.98531e-06
7 *888:A *661:D 6.2753e-05
8 *888:A *734:A1 0
9 *888:A *746:B 9.3479e-05
10 *274:10 *515:C1 6.08467e-05
11 *274:10 *359:26 0.000162739
12 *274:10 *436:31 0.00029294
13 *517:A2 *888:A 1.04744e-05
14 *519:B1 *274:10 0.000118017
15 *536:A *888:A 2.18679e-05
16 *105:34 *888:A 5.42693e-06
17 *158:22 *888:A 0.000497969
18 *251:36 *888:A 0
19 *255:18 *888:A 1.91246e-05
20 *256:14 *274:10 0.000246127
21 *256:36 *274:10 6.08467e-05
22 *257:22 *515:B2 3.85446e-05
23 *257:22 *274:10 0.000173701
*RES
1 *530:Y *274:10 23.0225 
2 *274:10 *515:B2 14.543 
3 *274:10 *888:A 22.9804 
*END

*D_NET *276 0.00571125
*CONN
*I *528:B I *D sky130_fd_sc_hd__nand2_1
*I *527:A I *D sky130_fd_sc_hd__xnor2_2
*I *529:X O *D sky130_fd_sc_hd__xor2_2
*CAP
1 *528:B 0.000181345
2 *527:A 0.000184036
3 *529:X 0.000809321
4 *276:18 0.0011747
5 *528:B *751:A 3.55179e-05
6 *528:B *278:16 9.39114e-06
7 *527:A *896:A 3.82228e-05
8 *276:18 *829:A 0.000118166
9 *276:18 *896:A 0.00048883
10 *527:B *527:A 0.00040456
11 *528:A *528:B 0.000125884
12 *529:A *276:18 0.00011739
13 *656:A1 *276:18 6.90342e-06
14 *699:D *276:18 0.000314916
15 *865:A *528:B 0.000149696
16 *5:10 *276:18 0.000581194
17 *20:23 *528:B 0.000165989
18 *20:23 *276:18 3.01677e-05
19 *21:12 *276:18 4.81913e-05
20 *21:25 *528:B 1.09738e-05
21 *21:25 *276:18 0.00071585
*RES
1 *529:X *276:18 45.1063 
2 *276:18 *527:A 18.9094 
3 *276:18 *528:B 20.5642 
*END

*D_NET *257 0.00663677
*CONN
*I *519:B1 I *D sky130_fd_sc_hd__o21ai_2
*I *590:A2 I *D sky130_fd_sc_hd__o21ai_0
*I *528:Y O *D sky130_fd_sc_hd__nand2_1
*CAP
1 *519:B1 9.23872e-05
2 *590:A2 0
3 *528:Y 0.000306338
4 *257:22 0.00137833
5 *257:8 0.00177706
6 *519:B1 *515:B1 0.000111135
7 *519:B1 *993:A 5.64043e-05
8 *519:B1 *274:10 0.000118017
9 *519:B1 *436:31 1.63535e-05
10 *257:8 *530:B 0.000260343
11 *257:8 *379:20 2.41274e-06
12 *257:22 *515:B1 0.000192906
13 *257:22 *515:B2 3.85446e-05
14 *257:22 *640:S 0.000211263
15 *257:22 *641:B 8.03393e-06
16 *257:22 *662:A 1.2346e-05
17 *257:22 *746:B 0.000466455
18 *257:22 *272:12 2.26054e-05
19 *257:22 *274:10 0.000173701
20 *257:22 *409:10 1.55174e-05
21 *257:22 *436:31 8.72115e-06
22 *550:A *257:22 0.000542279
23 *636:B1 *257:22 0.000158451
24 *865:A *257:22 3.99235e-05
25 *22:12 *257:22 1.60687e-05
26 *80:18 *257:22 6.96979e-05
27 *102:14 *257:22 8.96342e-05
28 *144:18 *257:22 0.000234452
29 *158:22 *257:8 3.81855e-05
30 *198:18 *257:22 3.54024e-05
31 *255:18 *257:22 1.64983e-05
32 *256:36 *519:B1 6.3657e-05
33 *256:36 *257:22 6.36477e-05
*RES
1 *528:Y *257:8 20.5732 
2 *257:8 *257:22 46.8703 
3 *257:22 *590:A2 9.24915 
4 *257:8 *519:B1 17.5503 
*END

*D_NET *278 0.00766504
*CONN
*I *896:A I *D sky130_fd_sc_hd__buf_4
*I *752:B I *D sky130_fd_sc_hd__nor2_1
*I *523:A I *D sky130_fd_sc_hd__nor2_1
*I *519:A2 I *D sky130_fd_sc_hd__o21ai_2
*I *527:Y O *D sky130_fd_sc_hd__xnor2_2
*CAP
1 *896:A 0.000350707
2 *752:B 0.00034335
3 *523:A 1.97276e-05
4 *519:A2 2.6585e-05
5 *527:Y 0
6 *278:31 0.000657532
7 *278:16 0.00105974
8 *278:4 0.0010894
9 *519:A2 *735:B 5.04829e-06
10 *752:B *867:A 0.000160383
11 *896:A *656:S 0
12 *896:A *746:A 0.000117376
13 *896:A *409:10 4.59704e-05
14 *278:16 *515:A1 3.88213e-05
15 *278:16 *515:B1 0.000263797
16 *278:16 *735:B 0.000210781
17 *278:16 *993:A 4.24474e-05
18 *278:16 *292:22 1.77302e-05
19 *278:16 *359:26 0
20 *278:31 *523:B 6.27782e-05
21 *278:31 *587:A 3.64651e-05
22 *278:31 *735:B 4.70104e-05
23 *278:31 *993:A 0.000123582
24 *278:31 *284:6 0.000110458
25 *278:31 *292:22 0.000111938
26 *278:31 *436:31 8.13615e-05
27 resp_msg[15] *752:B 0.000110458
28 *528:B *278:16 9.39114e-06
29 *527:A *896:A 3.82228e-05
30 *532:B *278:16 1.41976e-05
31 *587:B *278:31 1.64943e-05
32 *589:A2 *278:31 0
33 *657:A0 *896:A 0.000229862
34 *865:A *278:16 3.38973e-05
35 *943:A *752:B 0.000169655
36 *961:A *752:B 0.000122122
37 *961:A *278:31 3.95925e-05
38 *1010:A *278:31 0.000197488
39 *20:23 *896:A 6.65668e-05
40 *20:23 *278:16 0.000219451
41 *144:18 *896:A 0.000216458
42 *158:22 *278:16 5.11321e-05
43 *253:8 *752:B 1.00766e-05
44 *256:36 *519:A2 6.08467e-05
45 *272:12 *278:16 0.000547308
46 *276:18 *896:A 0.00048883
*RES
1 *527:Y *278:4 9.24915 
2 *278:4 *278:16 31.3232 
3 *278:16 *519:A2 14.4725 
4 *278:16 *278:31 15.6391 
5 *278:31 *523:A 9.82786 
6 *278:31 *752:B 19.2561 
7 *278:4 *896:A 30.8056 
*END

*D_NET *280 0.00254707
*CONN
*I *525:B I *D sky130_fd_sc_hd__nand2_1
*I *524:B I *D sky130_fd_sc_hd__xnor2_1
*I *526:X O *D sky130_fd_sc_hd__xor2_1
*CAP
1 *525:B 4.61606e-05
2 *524:B 0.000264219
3 *526:X 0.000610571
4 *280:10 0.00092095
5 *524:B *525:A 0.000171899
6 *524:B *655:A0 0.000200955
7 *525:B *655:A0 0
8 *525:B *477:14 0
9 *280:10 *655:A0 0
10 *280:10 *698:DE 2.86204e-05
11 *280:10 *698:CLK 1.92172e-05
12 *280:10 *477:14 0
13 *524:A *524:B 3.31745e-05
14 *526:A *524:B 2.42273e-05
15 *698:D *280:10 5.46198e-06
16 *7:10 *525:B 0
17 *22:12 *525:B 3.67528e-06
18 *259:315 *280:10 0.000217937
*RES
1 *526:X *280:10 23.5144 
2 *280:10 *524:B 20.5973 
3 *280:10 *525:B 14.7506 
*END

*D_NET *282 0.00579128
*CONN
*I *519:A1 I *D sky130_fd_sc_hd__o21ai_2
*I *739:B1 I *D sky130_fd_sc_hd__o21ai_0
*I *525:Y O *D sky130_fd_sc_hd__nand2_1
*CAP
1 *519:A1 0.0010243
2 *739:B1 2.85096e-05
3 *525:Y 0.000669877
4 *282:20 0.00172269
5 *519:A1 *515:C1 0.000309008
6 *519:A1 *662:D 3.05511e-05
7 *519:A1 *863:A 0.000207316
8 *519:A1 *959:A 1.91224e-05
9 *519:A1 *283:23 1.54212e-05
10 *519:A1 *290:14 7.09666e-06
11 *519:A1 *292:22 1.94615e-05
12 *739:B1 *662:B 5.04829e-06
13 *282:20 *634:A0 0
14 *282:20 *655:S 0.000409578
15 *282:20 *662:A 5.98035e-06
16 *282:20 *662:D 3.26582e-06
17 *282:20 *392:12 0.000360388
18 *282:20 *459:22 5.70106e-05
19 *548:B *519:A1 9.48335e-05
20 *589:A2 *519:A1 0
21 *739:A1 *519:A1 0
22 *22:12 *282:20 0.000214617
23 *23:33 *519:A1 0.000213725
24 *106:20 *739:B1 1.41181e-05
25 *184:8 *519:A1 6.7671e-06
26 *184:12 *519:A1 1.80887e-05
27 *199:40 *282:20 0
28 *252:20 *519:A1 3.97785e-05
29 *254:20 *519:A1 1.50374e-05
30 *254:20 *282:20 7.86825e-06
31 *256:36 *519:A1 0.000117777
32 *258:12 *282:20 0.000108106
33 *272:12 *519:A1 4.59322e-05
*RES
1 *525:Y *282:20 32.9151 
2 *282:20 *739:B1 14.4725 
3 *282:20 *519:A1 45.2234 
*END

*D_NET *283 0.00767196
*CONN
*I *523:B I *D sky130_fd_sc_hd__nor2_1
*I *895:A I *D sky130_fd_sc_hd__buf_4
*I *740:B I *D sky130_fd_sc_hd__nor2_1
*I *524:Y O *D sky130_fd_sc_hd__xnor2_1
*CAP
1 *523:B 0.000355009
2 *895:A 0.000390885
3 *740:B 6.82656e-05
4 *524:Y 0.000571931
5 *283:23 0.00137465
6 *283:10 0.00126895
7 *523:B *673:S 3.99086e-06
8 *523:B *748:C1 6.08467e-05
9 *523:B *284:6 0.000221823
10 *523:B *284:33 9.64718e-05
11 *523:B *337:22 7.28994e-06
12 *523:B *343:25 9.54357e-06
13 *523:B *362:16 6.63489e-05
14 *523:B *407:22 6.3657e-05
15 *740:B *662:A 1.03403e-05
16 *740:B *662:B 2.41274e-06
17 *895:A *516:B1 2.16355e-05
18 *895:A *741:A 6.08467e-05
19 *895:A *741:B 8.50177e-05
20 *895:A *882:A 9.53051e-05
21 *895:A *362:16 5.04829e-06
22 *283:10 *637:A0 0
23 *283:10 *640:A0 3.52082e-05
24 *283:10 *655:S 2.33103e-06
25 *283:10 *662:A 1.27831e-06
26 *283:10 *662:C 0.00031959
27 *283:10 *662:D 2.00611e-05
28 *283:10 *408:16 1.18339e-05
29 *283:23 *661:A 0.000568785
30 *283:23 *290:14 0
31 *283:23 *455:24 0.000351649
32 *519:A1 *283:23 1.54212e-05
33 *544:B *283:23 0.000105998
34 *641:A *283:10 0
35 *673:A1 *523:B 0.000145945
36 *734:A2 *283:23 9.2346e-06
37 *899:A *283:10 0
38 *961:A *523:B 0.000287716
39 *80:18 *283:10 0.00024913
40 *118:12 *283:23 1.32845e-05
41 *198:18 *283:10 0.000162884
42 *198:18 *283:23 0.000456846
43 *251:36 *283:23 1.17185e-05
44 *278:31 *523:B 6.27782e-05
*RES
1 *524:Y *283:10 28.2103 
2 *283:10 *740:B 15.0271 
3 *283:10 *283:23 25.0183 
4 *283:23 *895:A 17.7611 
5 *283:23 *523:B 29.9005 
*END

*D_NET *284 0.011061
*CONN
*I *749:A1 I *D sky130_fd_sc_hd__a21oi_1
*I *522:B I *D sky130_fd_sc_hd__nand2_1
*I *747:D I *D sky130_fd_sc_hd__nand4_1
*I *748:C1 I *D sky130_fd_sc_hd__o211ai_1
*I *523:Y O *D sky130_fd_sc_hd__nor2_1
*CAP
1 *749:A1 0
2 *522:B 0.000315956
3 *747:D 0.000526612
4 *748:C1 0.000885227
5 *523:Y 0.00031766
6 *284:43 0.00151374
7 *284:33 0.00136724
8 *284:6 0.00189895
9 *522:B *522:A 9.32809e-06
10 *522:B *536:B 2.68526e-05
11 *522:B *549:A 2.73981e-05
12 *522:B *285:10 4.5013e-06
13 *522:B *324:20 0.000397752
14 *522:B *340:40 3.57291e-06
15 *522:B *485:26 4.49767e-05
16 *747:D *747:A 6.67826e-05
17 *747:D *442:26 0.000180615
18 *747:D *472:18 1.61631e-05
19 *748:C1 *742:A2 1.65872e-05
20 *748:C1 *743:A1 0.000122877
21 *748:C1 *745:C1 0.000310764
22 *748:C1 *292:22 7.56738e-05
23 *748:C1 *336:10 0.00017312
24 *748:C1 *407:22 8.29362e-05
25 *284:33 *516:B1 1.88014e-05
26 *284:33 *735:B 7.50872e-05
27 *284:33 *743:A1 4.03678e-05
28 *284:33 *290:14 2.16355e-05
29 *284:33 *337:22 0.000324911
30 *284:33 *343:25 0.000280244
31 *284:33 *455:24 6.08467e-05
32 *284:43 *516:B1 0.000140321
33 *284:43 *693:DE 8.58027e-05
34 *284:43 *346:20 0
35 *516:A1 *522:B 0.00013189
36 *523:B *748:C1 6.08467e-05
37 *523:B *284:6 0.000221823
38 *523:B *284:33 9.64718e-05
39 *536:A *284:43 2.1203e-06
40 *544:A *748:C1 7.23118e-05
41 *589:A1 *284:33 0.000164044
42 *673:A1 *284:33 1.86362e-05
43 *693:D *747:D 1.82679e-05
44 *693:D *284:43 2.92975e-06
45 *728:B *748:C1 0.000154145
46 *736:C *748:C1 6.08467e-05
47 *743:B1 *284:33 1.88152e-05
48 *747:B *747:D 1.4091e-06
49 *748:B1 *748:C1 4.66492e-05
50 *978:A *284:33 2.16355e-05
51 *178:8 *748:C1 2.15034e-05
52 *178:10 *284:43 6.58132e-05
53 *178:27 *522:B 1.28732e-05
54 *178:57 *748:C1 0.000288901
55 *251:24 *522:B 2.38638e-05
56 *252:20 *284:33 1.14055e-05
57 *278:31 *284:6 0.000110458
*RES
1 *523:Y *284:6 14.4094 
2 *284:6 *748:C1 38.7498 
3 *284:6 *284:33 24.4394 
4 *284:33 *284:43 20.0404 
5 *284:43 *747:D 19.0873 
6 *284:43 *522:B 27.9952 
7 *284:33 *749:A1 9.24915 
*END

*D_NET *285 0.00514345
*CONN
*I *514:A1 I *D sky130_fd_sc_hd__o21ai_2
*I *521:B I *D sky130_fd_sc_hd__nor2_1
*I *522:Y O *D sky130_fd_sc_hd__nand2_1
*CAP
1 *514:A1 6.78312e-05
2 *521:B 0.000658097
3 *522:Y 0.000514624
4 *285:10 0.00124055
5 *514:A1 *514:A2 8.68094e-05
6 *514:A1 *717:A 3.00174e-06
7 *514:A1 *743:A1 4.2951e-05
8 *514:A1 *324:20 3.57378e-06
9 *521:B *516:B1 2.41274e-06
10 *521:B *725:A 6.53364e-05
11 *521:B *750:A1 0.000235455
12 *521:B *750:C1 4.67779e-05
13 *521:B *882:A 3.30684e-05
14 *521:B *350:24 7.87236e-05
15 *285:10 *514:A2 8.52652e-05
16 *285:10 *522:A 5.46198e-06
17 *285:10 *737:A1 1.91391e-05
18 *285:10 *737:C1 0.000295369
19 *285:10 *743:A1 0.000394877
20 *285:10 *750:C1 1.41706e-05
21 *285:10 *324:20 1.59183e-05
22 *516:A1 *521:B 2.65831e-05
23 *522:B *285:10 4.5013e-06
24 *551:B1 *521:B 6.42034e-05
25 *575:B *521:B 0.000947708
26 *995:A *521:B 0.000161252
27 *189:8 *521:B 4.78069e-06
28 *199:40 *285:10 4.29314e-06
29 *267:12 *285:10 2.07135e-05
*RES
1 *522:Y *285:10 26.828 
2 *285:10 *521:B 31.8823 
3 *285:10 *514:A1 15.9964 
*END

*D_NET *286 0.00397677
*CONN
*I *513:A2 I *D sky130_fd_sc_hd__a21o_4
*I *521:Y O *D sky130_fd_sc_hd__nor2_1
*CAP
1 *513:A2 0
2 *521:Y 0.000817138
3 *286:14 0.000817138
4 *286:14 *493:C 8.97886e-05
5 *286:14 *502:B 0.00011818
6 *286:14 *502:C 0.00016733
7 *286:14 *684:DE 0.000724851
8 *286:14 *719:A2 0
9 *286:14 *738:B 4.05417e-06
10 *286:14 *979:A 1.07549e-05
11 *286:14 *306:8 5.69649e-05
12 *286:14 *347:20 0
13 *286:14 *438:16 0.000302295
14 *286:14 *438:136 3.63593e-05
15 *286:14 *456:16 0.000204213
16 *286:14 *472:18 9.66954e-05
17 *494:A *286:14 5.54528e-05
18 *513:A1 *286:14 0.000136519
19 *521:A *286:14 0.000270306
20 *1008:A *286:14 3.05478e-05
21 *33:10 *286:14 3.07159e-05
22 *239:26 *286:14 7.46648e-06
*RES
1 *521:Y *286:14 46.1758 
2 *286:14 *513:A2 9.24915 
*END

*D_NET *287 0.001635
*CONN
*I *515:C1 I *D sky130_fd_sc_hd__a221oi_2
*I *520:Y O *D sky130_fd_sc_hd__nor2_1
*CAP
1 *515:C1 0.000404929
2 *520:Y 0.000404929
3 *515:C1 *292:22 0.000316554
4 *519:A1 *515:C1 0.000309008
5 *256:36 *515:C1 0.000138735
6 *274:10 *515:C1 6.08467e-05
*RES
1 *520:Y *515:C1 37.5338 
*END

*D_NET *288 0.0021469
*CONN
*I *993:A I *D sky130_fd_sc_hd__buf_4
*I *515:B1 I *D sky130_fd_sc_hd__a221oi_2
*I *519:Y O *D sky130_fd_sc_hd__o21ai_2
*CAP
1 *993:A 0.000343134
2 *515:B1 0.000169143
3 *519:Y 0
4 *288:6 0.000512276
5 *515:B1 *292:22 3.06917e-06
6 *515:B1 *436:31 2.58616e-05
7 *993:A *735:B 3.58531e-05
8 *993:A *959:A 0.000107496
9 *993:A *436:31 8.92483e-05
10 *519:B1 *515:B1 0.000111135
11 *519:B1 *993:A 5.64043e-05
12 *257:22 *515:B1 0.000192906
13 *272:12 *515:B1 7.05477e-05
14 *278:16 *515:B1 0.000263797
15 *278:16 *993:A 4.24474e-05
16 *278:31 *993:A 0.000123582
*RES
1 *519:Y *288:6 13.7491 
2 *288:6 *515:B1 20.4571 
3 *288:6 *993:A 21.312 
*END

*D_NET *289 0.0015886
*CONN
*I *887:A I *D sky130_fd_sc_hd__buf_4
*I *518:Y O *D sky130_fd_sc_hd__o21ai_0
*CAP
1 *887:A 0.000445185
2 *518:Y 0.000445185
3 *887:A *540:A 1.26207e-05
4 *887:A *723:A 6.31922e-05
5 *887:A *727:B 0.000107496
6 *887:A *733:B 0
7 *887:A *754:A1 0.000266161
8 *887:A *367:12 0.000107496
9 *517:A2 *887:A 6.13411e-05
10 *518:A2 *887:A 6.48653e-05
11 *731:B1 *887:A 2.57465e-06
12 *1:28 *887:A 1.24886e-05
*RES
1 *518:Y *887:A 37.4728 
*END

*D_NET *290 0.00366106
*CONN
*I *749:A2 I *D sky130_fd_sc_hd__a21oi_1
*I *516:B1 I *D sky130_fd_sc_hd__a21oi_2
*I *517:Y O *D sky130_fd_sc_hd__o21ai_1
*CAP
1 *749:A2 0
2 *516:B1 0.000341149
3 *517:Y 0.000536477
4 *290:14 0.000877626
5 *516:B1 *743:A1 0.000454012
6 *516:B1 *749:B1 0.000114594
7 *516:B1 *882:A 0.000107496
8 *516:B1 *375:26 0.000146267
9 *290:14 *743:A1 4.66492e-05
10 *290:14 *346:20 6.04335e-05
11 *517:A2 *290:14 6.75063e-06
12 *519:A1 *290:14 7.09666e-06
13 *521:B *516:B1 2.41274e-06
14 *536:A *516:B1 9.13616e-06
15 *544:B *290:14 0.000464869
16 *895:A *516:B1 2.16355e-05
17 *23:33 *290:14 6.36477e-05
18 *178:10 *516:B1 4.10191e-05
19 *178:27 *516:B1 0.000113968
20 *255:18 *290:14 0
21 *267:12 *516:B1 6.50586e-05
22 *283:23 *290:14 0
23 *284:33 *516:B1 1.88014e-05
24 *284:33 *290:14 2.16355e-05
25 *284:43 *516:B1 0.000140321
*RES
1 *517:Y *290:14 31.0787 
2 *290:14 *516:B1 30.8648 
3 *290:14 *749:A2 9.24915 
*END

*D_NET *291 0.00267284
*CONN
*I *514:A2 I *D sky130_fd_sc_hd__o21ai_2
*I *737:C1 I *D sky130_fd_sc_hd__o221ai_4
*I *516:Y O *D sky130_fd_sc_hd__a21oi_2
*CAP
1 *514:A2 0.000169848
2 *737:C1 0.000335706
3 *516:Y 0
4 *291:6 0.000505555
5 *514:A2 *293:12 9.94284e-06
6 *514:A2 *324:20 7.1377e-05
7 *514:A2 *350:24 4.23858e-05
8 *737:C1 *536:B 0.000205006
9 *737:C1 *750:C1 0.000291757
10 *737:C1 *485:26 6.08467e-05
11 *514:A1 *514:A2 8.68094e-05
12 *521:A *737:C1 0.000258444
13 *178:27 *737:C1 0.000254532
14 *285:10 *514:A2 8.52652e-05
15 *285:10 *737:C1 0.000295369
*RES
1 *516:Y *291:6 13.7491 
2 *291:6 *737:C1 26.5818 
3 *291:6 *514:A2 19.2382 
*END

*D_NET *292 0.00467544
*CONN
*I *514:B1 I *D sky130_fd_sc_hd__o21ai_2
*I *515:Y O *D sky130_fd_sc_hd__a221oi_2
*CAP
1 *514:B1 0
2 *515:Y 0.00147819
3 *292:22 0.00147819
4 *292:22 *735:B 0.000261643
5 *292:22 *741:B 0
6 *292:22 *745:A1 9.24219e-06
7 *292:22 *959:A 1.1246e-05
8 *292:22 *346:20 0
9 *292:22 *386:93 8.47735e-05
10 *515:C1 *292:22 0.000316554
11 *515:B1 *292:22 3.06917e-06
12 *517:A2 *292:22 0.000221434
13 *519:A1 *292:22 1.94615e-05
14 *589:A2 *292:22 0.000219923
15 *748:C1 *292:22 7.56738e-05
16 *26:26 *292:22 2.69702e-06
17 *105:34 *292:22 1.73562e-05
18 *158:22 *292:22 5.45571e-05
19 *178:8 *292:22 1.03403e-05
20 *178:10 *292:22 0.000153795
21 *178:57 *292:22 7.20738e-05
22 *272:12 *292:22 5.55617e-05
23 *278:16 *292:22 1.77302e-05
24 *278:31 *292:22 0.000111938
*RES
1 *515:Y *292:22 45.7987 
2 *292:22 *514:B1 9.24915 
*END

*D_NET *293 0.00491696
*CONN
*I *513:B1 I *D sky130_fd_sc_hd__a21o_4
*I *514:Y O *D sky130_fd_sc_hd__o21ai_2
*CAP
1 *513:B1 0
2 *514:Y 0.000706973
3 *293:12 0.000706973
4 *293:12 *574:A2 0.000200794
5 *293:12 *737:A1 1.5147e-05
6 *293:12 *738:B 1.22788e-05
7 *293:12 *745:C1 0.000724151
8 *293:12 *325:8 1.41761e-05
9 *293:12 *350:24 0.000441294
10 *293:12 *386:101 0.000671243
11 *293:12 *442:26 0.000360871
12 *514:A2 *293:12 9.94284e-06
13 *713:B *293:12 0.000713695
14 *106:20 *293:12 0.000330809
15 *265:39 *293:12 8.61737e-06
*RES
1 *514:Y *293:12 47.6706 
2 *293:12 *513:B1 9.24915 
*END

*D_NET *299 0.00659743
*CONN
*I *507:A2 I *D sky130_fd_sc_hd__o211ai_1
*I *502:B I *D sky130_fd_sc_hd__nor3_4
*I *509:Y O *D sky130_fd_sc_hd__nand2_2
*CAP
1 *507:A2 0.000338626
2 *502:B 0.000250872
3 *509:Y 0.00116796
4 *299:8 0.00175746
5 *502:B *493:C 0.00023212
6 *502:B *501:B1 0.000118166
7 *502:B *502:A 1.39719e-05
8 *502:B *304:31 0.000222904
9 *502:B *456:28 1.21652e-05
10 *507:A2 *490:A2 0.000107496
11 *507:A2 *494:B 0.000311261
12 *507:A2 *974:A 6.08467e-05
13 *299:8 *381:20 6.9033e-05
14 *299:8 *382:14 1.47488e-05
15 *494:A *507:A2 5.04829e-06
16 *508:B *299:8 0.000699502
17 *509:A *299:8 1.03403e-05
18 *551:A1 *507:A2 0.000153707
19 *565:A *299:8 5.51483e-06
20 *565:B *299:8 0.00035152
21 *901:A *299:8 2.58106e-05
22 *955:A *502:B 3.91685e-05
23 *33:33 *502:B 3.55968e-05
24 *33:33 *507:A2 0.000317026
25 *259:16 *502:B 2.69795e-05
26 *259:16 *507:A2 0.000131409
27 *286:14 *502:B 0.00011818
*RES
1 *509:Y *299:8 32.2199 
2 *299:8 *502:B 22.9303 
3 *299:8 *507:A2 25.3091 
*END

*D_NET *300 0.00241539
*CONN
*I *507:B1 I *D sky130_fd_sc_hd__o211ai_1
*I *501:A2 I *D sky130_fd_sc_hd__a21oi_4
*I *508:Y O *D sky130_fd_sc_hd__nand3_2
*CAP
1 *507:B1 0.000129887
2 *501:A2 0.000135697
3 *508:Y 0.000278259
4 *300:10 0.000543843
5 *501:A2 *501:A1 4.28076e-05
6 *501:A2 *501:B1 0.000111802
7 *501:A2 *719:A3 2.78256e-05
8 *501:A2 *382:14 7.92757e-06
9 *507:B1 *494:B 1.88152e-05
10 *507:B1 *507:C1 9.49631e-05
11 *300:10 *500:B 0.000117278
12 *300:10 *507:C1 6.85329e-05
13 *496:A2 *507:B1 7.3747e-05
14 *496:A2 *300:10 2.02035e-05
15 *507:A1 *507:B1 1.0759e-05
16 *551:A1 *501:A2 0.000354215
17 *90:16 *300:10 3.02534e-05
18 *191:10 *300:10 0.000348569
*RES
1 *508:Y *300:10 22.3968 
2 *300:10 *501:A2 18.9335 
3 *300:10 *507:B1 17.462 
*END

*D_NET *301 0.00184531
*CONN
*I *490:B2 I *D sky130_fd_sc_hd__a221oi_4
*I *974:A I *D sky130_fd_sc_hd__buf_4
*I *507:Y O *D sky130_fd_sc_hd__o211ai_1
*CAP
1 *490:B2 0.000113537
2 *974:A 0.000491333
3 *507:Y 0.000604871
4 *490:B2 *571:A 7.54269e-06
5 *490:B2 *384:18 4.87301e-05
6 *490:B2 *437:10 5.04829e-06
7 *974:A *496:B2 9.37232e-05
8 *974:A *571:B 0
9 *974:A *382:14 2.07503e-05
10 *974:A *451:22 0.000113713
11 *496:A2 *490:B2 5.13058e-05
12 *498:D *974:A 2.57986e-05
13 *507:A1 *974:A 0.000112015
14 *507:A2 *974:A 6.08467e-05
15 *107:26 *490:B2 2.85505e-05
16 *251:24 *490:B2 6.75453e-05
*RES
1 *507:Y *974:A 37.1508 
2 *507:Y *490:B2 31.5781 
*END

*D_NET *304 0.00907073
*CONN
*I *493:C I *D sky130_fd_sc_hd__nor3_4
*I *502:A I *D sky130_fd_sc_hd__nor3_4
*I *1005:A I *D sky130_fd_sc_hd__buf_6
*I *504:X O *D sky130_fd_sc_hd__or2_4
*CAP
1 *493:C 0.000560986
2 *502:A 1.81563e-05
3 *1005:A 0
4 *504:X 0.00144911
5 *304:31 0.000692201
6 *304:22 0.000113059
7 *304:20 0.00144911
8 *493:C *502:C 0.000156955
9 *493:C *373:22 0.000211954
10 *304:20 *500:B 8.56985e-05
11 *304:20 *501:B1 3.31882e-05
12 *304:20 *502:C 3.15055e-05
13 *304:20 *508:A 3.49497e-05
14 *304:20 *681:DE 0.000300046
15 *304:20 *977:A 2.16514e-05
16 *304:20 *1007:A 7.21593e-05
17 *304:20 *421:18 2.41909e-05
18 *304:20 *421:28 5.95249e-06
19 *304:20 *427:12 0.000383943
20 *304:20 *427:18 0.000123582
21 *304:20 *438:34 0.000175331
22 *304:31 *501:B1 3.58208e-05
23 *502:B *493:C 0.00023212
24 *502:B *502:A 1.39719e-05
25 *502:B *304:31 0.000222904
26 *504:B *304:20 0.00013068
27 *512:A *304:20 3.88213e-05
28 *512:B *304:20 1.35366e-05
29 *513:A1 *493:C 0.000497264
30 *553:B1 *304:20 0.000498923
31 *565:B *304:31 0.000162583
32 *567:B *304:31 0.000195315
33 *645:A1 *304:20 0.000478673
34 *703:D *304:20 0.000117838
35 *955:A *304:20 0.000163515
36 *956:A *493:C 0.000114495
37 *33:10 *493:C 2.65831e-05
38 *186:16 *304:20 9.41781e-05
39 *286:14 *493:C 8.97886e-05
*RES
1 *504:X *304:20 49.4731 
2 *304:20 *304:22 4.5 
3 *304:22 *1005:A 9.24915 
4 *304:22 *304:31 5.18434 
5 *304:31 *502:A 9.82786 
6 *304:31 *493:C 36.6464 
*END

*D_NET *305 0.0124173
*CONN
*I *490:A1 I *D sky130_fd_sc_hd__a221oi_4
*I *719:A2 I *D sky130_fd_sc_hd__o31ai_4
*I *500:A I *D sky130_fd_sc_hd__nor3_1
*I *503:Y O *D sky130_fd_sc_hd__o21ai_2
*CAP
1 *490:A1 0
2 *719:A2 0.000372533
3 *500:A 0.00215658
4 *503:Y 0.00111599
5 *305:43 0.000567078
6 *305:16 0.00346712
7 *500:A *499:B 0.000262133
8 *500:A *500:B 0.000152167
9 *500:A *600:A2 3.31882e-05
10 *500:A *655:S 0.000773821
11 *500:A *663:A 2.9526e-05
12 *500:A *429:65 0
13 *500:A *430:94 3.82228e-05
14 *500:A *445:92 2.26985e-05
15 *719:A2 *719:A3 7.04074e-05
16 *719:A2 *979:A 3.37945e-05
17 *719:A2 *384:18 0.000175372
18 *305:16 *489:B 0.000862856
19 *305:16 *403:24 0.00033428
20 *305:16 *404:68 6.96897e-05
21 *305:16 *451:22 7.29209e-06
22 *305:16 *464:80 7.87417e-05
23 *305:43 *489:B 0.000370571
24 *305:43 *340:40 1.2934e-05
25 *305:43 *384:18 1.91246e-05
26 *496:B1 *305:16 6.80979e-05
27 *503:A2 *305:16 1.55025e-05
28 *551:A2 *719:A2 0.000252976
29 *551:A2 *305:43 1.00004e-05
30 *578:B *305:16 1.50753e-05
31 *582:B *305:16 0.000122838
32 *632:A *500:A 2.82987e-06
33 *665:D *305:16 6.08467e-05
34 *880:A *500:A 0
35 *108:18 *305:16 1.03594e-05
36 *167:22 *305:16 4.51176e-05
37 *239:26 *305:43 8.22964e-06
38 *242:19 *305:16 4.01502e-05
39 *259:16 *719:A2 2.87124e-05
40 *259:46 *305:16 7.9184e-05
41 *259:46 *305:43 2.24023e-05
42 *259:58 *305:16 0.000489139
43 *259:146 *500:A 0
44 *259:146 *305:43 1.05308e-05
45 *259:267 *500:A 0.000109235
46 *286:14 *719:A2 0
*RES
1 *503:Y *305:16 29.9646 
2 *305:16 *500:A 24.7303 
3 *305:16 *305:43 4.37096 
4 *305:43 *719:A2 24.224 
5 *305:43 *490:A1 13.7491 
*END

*D_NET *306 0.0011686
*CONN
*I *979:A I *D sky130_fd_sc_hd__buf_4
*I *719:A1 I *D sky130_fd_sc_hd__o31ai_4
*I *502:Y O *D sky130_fd_sc_hd__nor3_4
*CAP
1 *979:A 0.000173277
2 *719:A1 0
3 *502:Y 0.000196482
4 *306:8 0.000369759
5 *979:A *384:18 6.46815e-05
6 *979:A *456:16 0.000137056
7 *306:8 *502:C 0
8 *306:8 *456:16 7.75163e-05
9 *494:A *979:A 1.00901e-05
10 *567:B *306:8 3.82245e-05
11 *719:A2 *979:A 3.37945e-05
12 *984:A *306:8 0
13 *259:16 *306:8 0
14 *286:14 *979:A 1.07549e-05
15 *286:14 *306:8 5.69649e-05
*RES
1 *502:Y *306:8 18.4879 
2 *306:8 *719:A1 13.7491 
3 *306:8 *979:A 18.8377 
*END

*D_NET *307 0.00545221
*CONN
*I *719:A3 I *D sky130_fd_sc_hd__o31ai_4
*I *500:B I *D sky130_fd_sc_hd__nor3_1
*I *501:Y O *D sky130_fd_sc_hd__a21oi_4
*CAP
1 *719:A3 0.000440941
2 *500:B 0.000908781
3 *501:Y 0
4 *307:4 0.00134972
5 *500:B *501:B1 0.000190925
6 *500:B *507:C1 7.09666e-06
7 *500:B *508:C 0.000549415
8 *500:B *600:A2 7.77309e-06
9 *500:B *663:A 6.08467e-05
10 *500:B *703:CLK 0.000225237
11 *500:B *393:20 0
12 *500:B *430:94 1.31867e-05
13 *500:B *445:84 0.000183763
14 *500:B *445:92 7.70172e-06
15 *719:A3 *501:A1 0.000157107
16 *719:A3 *456:16 0.000302934
17 *500:A *500:B 0.000152167
18 *501:A2 *719:A3 2.78256e-05
19 *512:A *500:B 9.08576e-05
20 *632:A *500:B 2.28238e-05
21 *643:A1 *500:B 1.26119e-05
22 *703:D *500:B 0
23 *719:A2 *719:A3 7.04074e-05
24 *77:22 *500:B 0.000430659
25 *123:18 *500:B 3.256e-05
26 *191:10 *500:B 3.89332e-06
27 *300:10 *500:B 0.000117278
28 *304:20 *500:B 8.56985e-05
*RES
1 *501:Y *307:4 9.24915 
2 *307:4 *500:B 47.9381 
3 *307:4 *719:A3 20.3894 
*END

*D_NET *308 0.00801607
*CONN
*I *499:B I *D sky130_fd_sc_hd__xor2_1
*I *500:Y O *D sky130_fd_sc_hd__nor3_1
*CAP
1 *499:B 0.00351788
2 *500:Y 0.00351788
3 *499:B *574:A2 9.00714e-07
4 *499:B *598:S 2.26772e-05
5 *499:B *655:S 0.000362231
6 *499:B *736:B 2.09205e-05
7 *499:B *393:20 1.91246e-05
8 *499:B *397:22 6.36477e-05
9 *499:B *464:45 6.72806e-05
10 *499:B *464:80 6.21488e-06
11 *500:A *499:B 0.000262133
12 *958:A *499:B 1.92319e-05
13 *259:267 *499:B 0.000135955
*RES
1 *500:Y *499:B 42.511 
*END

*D_NET *310 0.00123294
*CONN
*I *496:B2 I *D sky130_fd_sc_hd__a221oi_1
*I *498:Y O *D sky130_fd_sc_hd__nor4_2
*CAP
1 *496:B2 0.000308813
2 *498:Y 0.000308813
3 *496:B2 *957:A 4.1757e-05
4 *496:B2 *462:32 0.00023811
5 *496:C1 *496:B2 1.07248e-05
6 *498:D *496:B2 0.00013937
7 *498:C *496:B2 6.27718e-05
8 *507:A1 *496:B2 7.09666e-06
9 *960:A *496:B2 8.20492e-06
10 *974:A *496:B2 9.37232e-05
11 *213:30 *496:B2 1.35539e-05
12 *228:21 *496:B2 0
*RES
1 *498:Y *496:B2 36.771 
*END

*D_NET *197 0.00347259
*CONN
*I *558:C I *D sky130_fd_sc_hd__maj3_2
*I *497:Y O *D sky130_fd_sc_hd__clkinv_1
*CAP
1 *558:C 0
2 *497:Y 0.000706465
3 *197:18 0.000706465
4 *197:18 *497:A 5.39247e-05
5 *197:18 *512:B 2.16355e-05
6 *197:18 *567:B 0
7 *197:18 *734:A1 0.000156948
8 *197:18 *199:22 0.00028921
9 *197:18 *259:259 0.000155636
10 *197:18 *259:261 3.31882e-05
11 *197:18 *260:26 0.000353019
12 *1001:A *197:18 0.000349593
13 *19:10 *197:18 3.67708e-05
14 *196:14 *197:18 0.000609733
*RES
1 *497:Y *197:18 41.5473 
2 *197:18 *558:C 9.24915 
*END

*D_NET *311 0.000446921
*CONN
*I *957:A I *D sky130_fd_sc_hd__buf_4
*I *496:Y O *D sky130_fd_sc_hd__a221oi_1
*CAP
1 *957:A 0.000113557
2 *496:Y 0.000113557
3 *496:B1 *957:A 6.50727e-05
4 *496:B2 *957:A 4.1757e-05
5 *960:A *957:A 0.000112978
*RES
1 *496:Y *957:A 30.4689 
*END

*D_NET *313 0.0009131
*CONN
*I *490:A2 I *D sky130_fd_sc_hd__a221oi_4
*I *494:Y O *D sky130_fd_sc_hd__nor2_1
*CAP
1 *490:A2 0.000236356
2 *494:Y 0.000236356
3 *490:A2 *490:B1 6.08467e-05
4 *490:A2 *384:18 2.16355e-05
5 *494:A *490:A2 5.51483e-06
6 *507:A2 *490:A2 0.000107496
7 *551:A1 *490:A2 0.000113309
8 *551:A2 *490:A2 0.000109951
9 *259:8 *490:A2 2.16355e-05
*RES
1 *494:Y *490:A2 32.8561 
*END

*D_NET *314 0.00164699
*CONN
*I *490:B1 I *D sky130_fd_sc_hd__a221oi_4
*I *493:Y O *D sky130_fd_sc_hd__nor3_4
*CAP
1 *490:B1 0.000394912
2 *493:Y 0.000394912
3 *490:B1 *493:B 0.000164044
4 *490:B1 *347:20 5.09846e-05
5 *490:B1 *384:18 4.7035e-05
6 *490:A2 *490:B1 6.08467e-05
7 *521:A *490:B1 0.000117108
8 *251:24 *490:B1 0.000417145
*RES
1 *493:Y *490:B1 32.2428 
*END

*D_NET *315 0.00513648
*CONN
*I *714:A2 I *D sky130_fd_sc_hd__a211oi_1
*I *491:B I *D sky130_fd_sc_hd__nand2_1
*I *492:Y O *D sky130_fd_sc_hd__o211ai_1
*CAP
1 *714:A2 0.00022398
2 *491:B 0
3 *492:Y 0.000945442
4 *315:18 0.00022398
5 *315:16 0.000945442
6 *714:A2 *665:A 0.000156955
7 *714:A2 *898:A 8.89729e-05
8 *315:16 *495:A 1.77461e-05
9 *315:16 *579:A 9.76854e-05
10 *315:16 *736:B 6.92555e-05
11 *315:16 *898:A 0.000452325
12 *315:16 *340:40 7.05017e-05
13 *315:16 *474:47 0.000225058
14 *491:A *714:A2 0.000117836
15 *572:B *315:16 0.00085164
16 *577:A2 *315:16 0.00011516
17 *665:D *714:A2 0.000100955
18 *916:A *315:16 7.45722e-06
19 *1011:A *315:16 8.61693e-07
20 *103:12 *315:16 0.000385234
21 *227:10 *315:16 1.42609e-05
22 *238:59 *714:A2 2.57292e-05
*RES
1 *492:Y *315:16 47.9132 
2 *315:16 *315:18 4.5 
3 *315:18 *491:B 9.24915 
4 *315:18 *714:A2 16.1214 
*END

*D_NET *316 0.00130627
*CONN
*I *490:C1 I *D sky130_fd_sc_hd__a221oi_4
*I *491:Y O *D sky130_fd_sc_hd__nand2_1
*CAP
1 *490:C1 0.000292391
2 *491:Y 0.000292391
3 *490:C1 *499:A 0.000139435
4 *490:C1 *571:A 4.49767e-05
5 *490:C1 *571:B 3.96856e-05
6 *490:C1 *736:B 1.69657e-06
7 *496:A2 *490:C1 0.000129105
8 *958:A *490:C1 0.000291074
9 *251:79 *490:C1 7.55107e-05
*RES
1 *491:Y *490:C1 37.1224 
*END

*D_NET *251 0.0106592
*CONN
*I *883:A I *D sky130_fd_sc_hd__buf_4
*I *734:A2 I *D sky130_fd_sc_hd__o21ai_2
*I *978:A I *D sky130_fd_sc_hd__buf_4
*I *490:Y O *D sky130_fd_sc_hd__a221oi_4
*CAP
1 *883:A 0
2 *734:A2 0.000274111
3 *978:A 1.98947e-05
4 *490:Y 0.00218824
5 *251:79 0.000799711
6 *251:36 0.00106961
7 *251:24 0.00216413
8 *734:A2 *283:23 9.2346e-06
9 *734:A2 *455:24 0.000159008
10 *978:A *743:A1 6.08467e-05
11 *978:A *284:33 2.16355e-05
12 *251:24 *490:B1 0.000417145
13 *251:24 *490:B2 6.75453e-05
14 *251:24 *522:B 2.38638e-05
15 *251:24 *536:B 6.00956e-05
16 *251:24 *549:A 2.26713e-06
17 *251:24 *746:B 9.37126e-05
18 *251:24 *319:36 0.000109427
19 *251:24 *384:18 0.00036544
20 *251:24 *437:10 1.37563e-05
21 *251:36 *734:A1 0.000172016
22 *251:36 *737:A1 0.000295914
23 *251:36 *888:A 0
24 *251:36 *283:23 1.17185e-05
25 *251:36 *373:22 2.59382e-05
26 *251:79 *490:C1 7.55107e-05
27 *251:79 *499:A 0.000133124
28 *251:79 *574:A2 6.8263e-05
29 *251:79 *736:B 3.08147e-05
30 *251:79 *736:D 1.86487e-05
31 *251:79 *884:A 4.28718e-05
32 *251:79 *340:40 0.000163211
33 *251:79 *363:26 6.84074e-06
34 *251:79 *437:10 0.000244799
35 *251:79 *437:33 0.000347077
36 *251:79 *462:32 9.85683e-06
37 *496:A2 *251:79 0.000129105
38 *544:B *734:A2 0.000176443
39 *544:B *251:36 3.55968e-05
40 *549:B *251:24 2.16355e-05
41 *893:A *251:36 8.64937e-05
42 *903:A *251:79 0.000304837
43 *26:26 *734:A2 4.65164e-05
44 *61:26 *251:79 0.000100857
45 *63:22 *251:79 3.0923e-05
46 *106:20 *251:24 5.37526e-05
47 *120:32 *251:79 0.000106771
*RES
1 *490:Y *251:24 49.0836 
2 *251:24 *251:36 9.24748 
3 *251:36 *978:A 14.4725 
4 *251:36 *734:A2 21.3173 
5 *490:Y *251:79 44.9742 
6 *251:79 *883:A 9.24915 
*END

*D_NET *319 0.00952804
*CONN
*I *733:A I *D sky130_fd_sc_hd__nand2_1
*I *713:Y O *D sky130_fd_sc_hd__nor2_1
*CAP
1 *733:A 0
2 *713:Y 0.00246677
3 *319:36 0.00246677
4 *319:36 *516:A2 3.03709e-05
5 *319:36 *536:B 0.000109598
6 *319:36 *661:B 0.000396649
7 *319:36 *693:CLK 5.65314e-05
8 *319:36 *718:C 4.75571e-06
9 *319:36 *730:A2 0.000113484
10 *319:36 *732:B 0
11 *319:36 *738:B 6.93171e-05
12 *319:36 *745:A1 5.69073e-05
13 *319:36 *750:A2 9.96342e-05
14 *319:36 *324:20 0.000142124
15 *319:36 *340:40 0.000265431
16 *319:36 *375:26 0
17 *319:36 *399:24 9.03492e-05
18 *319:36 *426:56 1.33641e-05
19 *538:B *319:36 1.43358e-05
20 *575:B *319:36 0.000145232
21 *626:A *319:36 5.59402e-05
22 *713:A *319:36 0.000594023
23 *713:B *319:36 8.73224e-05
24 *718:B *319:36 7.94125e-06
25 *730:A1 *319:36 5.11381e-05
26 *934:A *319:36 7.09666e-06
27 *26:26 *319:36 0.00145524
28 *105:34 *319:36 0.000546915
29 *182:30 *319:36 3.49082e-07
30 *238:12 *319:36 7.10277e-05
31 *251:24 *319:36 0.000109427
*RES
1 *713:Y *319:36 49.8214 
2 *319:36 *733:A 9.24915 
*END

*D_NET *320 0.0055892
*CONN
*I *742:A1 I *D sky130_fd_sc_hd__o211ai_1
*I *886:A I *D sky130_fd_sc_hd__buf_4
*I *714:Y O *D sky130_fd_sc_hd__a211oi_1
*CAP
1 *742:A1 0.000733474
2 *886:A 4.87915e-05
3 *714:Y 0.000943549
4 *320:22 0.00172581
5 *742:A1 *754:A2 3.99287e-05
6 *742:A1 *754:B1 0.000109596
7 *742:A1 *324:20 2.77625e-06
8 *742:A1 *329:20 2.42962e-05
9 *742:A1 *345:24 3.8713e-05
10 *320:22 *591:B 4.83562e-06
11 *320:22 *726:A2 1.88563e-05
12 *320:22 *736:D 0.000119251
13 *320:22 *745:A1 6.23115e-05
14 *320:22 *745:A2 9.80242e-07
15 *320:22 *745:B1 2.9535e-05
16 *320:22 *745:C1 0.000168313
17 *320:22 *329:20 4.84662e-06
18 *320:22 *429:15 4.69495e-06
19 *320:22 *442:26 0.000205101
20 *320:22 *472:18 1.99996e-05
21 *693:D *886:A 2.3301e-05
22 *714:A1 *320:22 4.02474e-05
23 *718:B *320:22 0.000440723
24 *718:D *742:A1 3.31745e-05
25 *728:B *742:A1 2.20187e-05
26 *754:C1 *742:A1 4.17531e-06
27 *238:10 *886:A 0.000122992
28 *265:39 *742:A1 0.000380147
29 *265:39 *320:22 0.000156076
30 *266:14 *886:A 6.06764e-05
*RES
1 *714:Y *320:22 38.3938 
2 *320:22 *886:A 20.4964 
3 *320:22 *742:A1 30.6481 
*END

*D_NET *321 0.00394622
*CONN
*I *730:A2 I *D sky130_fd_sc_hd__a211oi_1
*I *716:B I *D sky130_fd_sc_hd__nand2_1
*I *715:Y O *D sky130_fd_sc_hd__o211ai_1
*CAP
1 *730:A2 0.000300315
2 *716:B 0.000290139
3 *715:Y 0.000288173
4 *321:10 0.000878628
5 *730:A2 *732:B 0
6 *730:A2 *754:A1 0.000441558
7 *321:10 *328:10 0.000408912
8 *321:10 *336:10 0.000190621
9 *321:10 *414:39 0.000392665
10 *538:A *730:A2 2.57986e-05
11 *716:A *716:B 4.80635e-06
12 *730:A1 *716:B 8.60123e-05
13 *730:A1 *730:A2 1.88014e-05
14 *171:16 *321:10 0.000139684
15 *264:27 *716:B 2.74767e-05
16 *265:6 *716:B 6.27718e-05
17 *265:27 *716:B 0.000253345
18 *265:27 *321:10 2.30281e-05
19 *319:36 *730:A2 0.000113484
*RES
1 *715:Y *321:10 30.0472 
2 *321:10 *716:B 17.0618 
3 *321:10 *730:A2 18.5086 
*END

*D_NET *322 0.00552459
*CONN
*I *742:A2 I *D sky130_fd_sc_hd__o211ai_1
*I *717:B I *D sky130_fd_sc_hd__nor2_1
*I *716:Y O *D sky130_fd_sc_hd__nand2_1
*CAP
1 *742:A2 0.000278429
2 *717:B 0.000236383
3 *716:Y 0.000600288
4 *322:10 0.0011151
5 *717:B *516:A2 0.000153103
6 *717:B *720:B 0.000366076
7 *717:B *345:24 5.49916e-05
8 *742:A2 *748:A2 0.000156946
9 *742:A2 *754:B1 0.000114594
10 *322:10 *715:A1 0.000164017
11 *322:10 *720:B 0.000319509
12 *322:10 *721:A 0.000273767
13 *322:10 *414:39 3.29488e-05
14 *322:10 *448:19 0.000201184
15 *322:10 *448:112 0.000334926
16 *546:A *322:10 2.12494e-05
17 *588:A1 *742:A2 6.64392e-05
18 *693:D *717:B 6.31047e-05
19 *693:D *322:10 7.13778e-05
20 *715:A2 *322:10 6.14756e-06
21 *728:B *742:A2 1.92481e-05
22 *730:A1 *322:10 0.000207266
23 *736:C *742:A2 0.000451291
24 *748:B1 *742:A2 6.08467e-05
25 *748:C1 *742:A2 1.65872e-05
26 *262:10 *322:10 3.029e-06
27 *264:27 *322:10 1.41976e-05
28 *265:12 *322:10 0.000121543
*RES
1 *716:Y *322:10 33.3327 
2 *322:10 *717:B 21.3947 
3 *322:10 *742:A2 22.237 
*END

*D_NET *323 0.00205215
*CONN
*I *720:B I *D sky130_fd_sc_hd__nand2_4
*I *717:Y O *D sky130_fd_sc_hd__nor2_1
*CAP
1 *720:B 0.000407551
2 *717:Y 0.000407551
3 *720:B *516:A2 1.98014e-05
4 *720:B *717:A 0.00016921
5 *720:B *324:20 0.000127074
6 *715:A2 *720:B 0.000167558
7 *717:B *720:B 0.000366076
8 *1:59 *720:B 4.56516e-05
9 *265:27 *720:B 1.98901e-05
10 *265:31 *720:B 2.27901e-06
11 *322:10 *720:B 0.000319509
*RES
1 *717:Y *720:B 41.7879 
*END

*D_NET *324 0.00432299
*CONN
*I *719:B1 I *D sky130_fd_sc_hd__o31ai_4
*I *718:Y O *D sky130_fd_sc_hd__nor4_4
*CAP
1 *719:B1 0.000366412
2 *718:Y 0.000691212
3 *324:20 0.00105762
4 *719:B1 *522:A 6.27718e-05
5 *719:B1 *536:B 0.000208627
6 *324:20 *516:A2 7.08792e-05
7 *324:20 *522:A 6.93171e-05
8 *324:20 *536:B 0
9 *324:20 *549:A 8.72115e-06
10 *324:20 *717:A 0.000146712
11 *324:20 *750:C1 0.000369615
12 *324:20 *754:A2 6.08467e-05
13 *324:20 *329:20 0.000205101
14 *324:20 *350:24 2.44622e-05
15 *514:A2 *324:20 7.1377e-05
16 *514:A1 *324:20 3.57378e-06
17 *516:A1 *324:20 4.66386e-05
18 *522:B *324:20 0.000397752
19 *718:D *324:20 4.45999e-05
20 *720:B *324:20 0.000127074
21 *742:A1 *324:20 2.77625e-06
22 *893:A *324:20 4.23622e-05
23 *956:A *719:B1 3.61024e-05
24 *199:40 *324:20 5.03924e-05
25 *267:12 *324:20 0
26 *285:10 *324:20 1.59183e-05
27 *319:36 *324:20 0.000142124
*RES
1 *718:Y *324:20 46.6051 
2 *324:20 *719:B1 17.2065 
*END

*D_NET *325 0.0070143
*CONN
*I *745:A2 I *D sky130_fd_sc_hd__o211ai_1
*I *882:A I *D sky130_fd_sc_hd__buf_4
*I *719:Y O *D sky130_fd_sc_hd__o31ai_4
*CAP
1 *745:A2 0.000809274
2 *882:A 0.00050686
3 *719:Y 0.00031524
4 *325:8 0.00163137
5 *745:A2 *574:A2 5.8518e-05
6 *745:A2 *726:A1 0.000165521
7 *745:A2 *726:A2 2.84892e-05
8 *745:A2 *745:C1 9.81509e-05
9 *745:A2 *347:20 6.3657e-05
10 *745:A2 *429:15 0
11 *745:A2 *442:26 4.21015e-05
12 *745:A2 *472:18 2.43314e-05
13 *882:A *741:A 6.3657e-05
14 *882:A *741:B 0.000222099
15 *882:A *750:A1 8.05465e-05
16 *882:A *750:C1 0.000304871
17 *882:A *751:B 0.000755289
18 *882:A *350:24 7.92757e-06
19 *325:8 *737:A1 0.000184646
20 *325:8 *386:101 8.91304e-05
21 *325:8 *442:26 2.3939e-05
22 *325:8 *472:18 9.49135e-05
23 *325:8 *485:26 0.000153419
24 *513:A1 *325:8 0.000705263
25 *516:B1 *882:A 0.000107496
26 *521:B *882:A 3.30684e-05
27 *574:A1 *745:A2 0.000119015
28 *895:A *882:A 9.53051e-05
29 *995:A *745:A2 3.58525e-05
30 *995:A *325:8 3.04443e-05
31 *221:18 *745:A2 6.71002e-06
32 *222:24 *745:A2 0.000118529
33 *237:22 *745:A2 2.35078e-05
34 *293:12 *325:8 1.41761e-05
35 *320:22 *745:A2 9.80242e-07
*RES
1 *719:Y *325:8 27.2082 
2 *325:8 *882:A 30.7731 
3 *325:8 *745:A2 29.9389 
*END

*D_NET *326 0.000984711
*CONN
*I *721:A I *D sky130_fd_sc_hd__xnor2_2
*I *720:Y O *D sky130_fd_sc_hd__nand2_4
*CAP
1 *721:A 0.000213702
2 *720:Y 0.000213702
3 *721:A *448:19 6.50586e-05
4 *693:D *721:A 0.000182438
5 *69:16 *721:A 1.93666e-05
6 *182:30 *721:A 1.66771e-05
7 *322:10 *721:A 0.000273767
*RES
1 *720:Y *721:A 33.791 
*END

*D_NET *328 0.00453276
*CONN
*I *723:B I *D sky130_fd_sc_hd__nor2_1
*I *748:A2 I *D sky130_fd_sc_hd__o211ai_1
*I *722:Y O *D sky130_fd_sc_hd__a21boi_0
*CAP
1 *723:B 0.000302693
2 *748:A2 0.000180142
3 *722:Y 0.000789157
4 *328:10 0.00127199
5 *723:B *727:B 1.3604e-05
6 *723:B *745:A1 1.43499e-05
7 *723:B *345:24 1.57247e-06
8 *748:A2 *336:10 9.94268e-06
9 *748:A2 *367:12 0.000119538
10 *328:10 *336:10 9.96487e-06
11 *328:10 *358:20 4.54635e-05
12 *517:A2 *723:B 0.000187325
13 *546:A *328:10 6.7671e-06
14 *588:A1 *723:B 1.91246e-05
15 *722:A1 *328:10 6.08467e-05
16 *722:A2 *328:10 0.000112361
17 *742:A2 *748:A2 0.000156946
18 *880:A *723:B 6.9426e-05
19 *171:16 *328:10 2.41274e-06
20 *182:30 *328:10 0.000160942
21 *265:27 *748:A2 0.000156059
22 *265:27 *328:10 0.000433224
23 *321:10 *328:10 0.000408912
*RES
1 *722:Y *328:10 30.9206 
2 *328:10 *748:A2 18.4519 
3 *328:10 *723:B 21.5271 
*END

*D_NET *329 0.00427716
*CONN
*I *726:B1 I *D sky130_fd_sc_hd__o21ai_4
*I *723:Y O *D sky130_fd_sc_hd__nor2_1
*CAP
1 *726:B1 0
2 *723:Y 0.00143229
3 *329:20 0.00143229
4 *329:20 *718:C 0.00034756
5 *329:20 *723:A 4.99786e-05
6 *329:20 *727:B 2.41948e-05
7 *329:20 *733:B 1.73713e-05
8 *329:20 *741:A 6.3657e-05
9 *329:20 *754:A1 0
10 *329:20 *754:A2 0.000123341
11 *329:20 *754:B1 0
12 *329:20 *345:24 1.81863e-06
13 *329:20 *442:26 8.96314e-06
14 *517:A2 *329:20 0
15 *544:A *329:20 4.71853e-05
16 *728:B *329:20 4.89622e-05
17 *742:A1 *329:20 2.42962e-05
18 *754:C1 *329:20 0.000216458
19 *179:58 *329:20 0.000209582
20 *265:39 *329:20 1.92707e-05
21 *320:22 *329:20 4.84662e-06
22 *324:20 *329:20 0.000205101
*RES
1 *723:Y *329:20 45.4345 
2 *329:20 *726:B1 9.24915 
*END

*D_NET *225 0.00178075
*CONN
*I *878:A I *D sky130_fd_sc_hd__buf_4
*I *744:B I *D sky130_fd_sc_hd__xnor2_4
*I *908:A I *D sky130_fd_sc_hd__buf_4
*I *724:X O *D sky130_fd_sc_hd__xor2_4
*CAP
1 *878:A 0.000103987
2 *744:B 0.000247218
3 *908:A 0
4 *724:X 5.9768e-05
5 *225:6 0.000203
6 *744:B *576:C1 0.000242899
7 *744:B *259:169 0.000107496
8 *878:A *729:B 1.94615e-05
9 *878:A *415:20 6.08467e-05
10 *878:A *415:71 0.000113309
11 *878:A *417:14 0.000130268
12 *225:6 *576:C1 0.00014012
13 *722:A2 *744:B 0.000191176
14 *722:A2 *225:6 0.00014012
15 *136:24 *878:A 1.03403e-05
16 *169:18 *878:A 1.07403e-05
*RES
1 *724:X *225:6 7.1625 
2 *225:6 *908:A 13.7491 
3 *225:6 *744:B 18.9354 
4 *744:B *878:A 31.2994 
*END

*D_NET *331 0.00144739
*CONN
*I *726:A2 I *D sky130_fd_sc_hd__o21ai_4
*I *725:Y O *D sky130_fd_sc_hd__nand2_1
*CAP
1 *726:A2 0.000373837
2 *725:Y 0.000373837
3 *726:A2 *576:B1 1.83515e-05
4 *726:A2 *576:C1 7.09666e-06
5 *726:A2 *725:A 6.15905e-05
6 *726:A2 *727:B 0.000121688
7 *726:A2 *745:C1 6.1578e-06
8 *726:A2 *415:71 6.08467e-05
9 *726:A2 *442:26 9.94634e-05
10 *575:B *726:A2 1.28732e-05
11 *718:B *726:A2 0.000244663
12 *736:C *726:A2 1.96344e-05
13 *745:A2 *726:A2 2.84892e-05
14 *320:22 *726:A2 1.88563e-05
*RES
1 *725:Y *726:A2 40.1205 
*END

*D_NET *332 0.0038338
*CONN
*I *727:B I *D sky130_fd_sc_hd__xnor2_2
*I *726:Y O *D sky130_fd_sc_hd__o21ai_4
*CAP
1 *727:B 0.00109795
2 *726:Y 0.00109795
3 *727:B *576:A2 1.4459e-05
4 *727:B *576:B1 3.12497e-05
5 *727:B *723:A 0.000104959
6 *727:B *725:A 7.09666e-06
7 *727:B *745:A1 0.000251596
8 *727:B *754:A1 0.000167676
9 *727:B *336:10 0.000189554
10 *727:B *345:24 0.000508179
11 *727:B *442:26 5.60474e-05
12 *718:B *727:B 4.01064e-05
13 *723:B *727:B 1.3604e-05
14 *726:A2 *727:B 0.000121688
15 *727:A *727:B 0
16 *887:A *727:B 0.000107496
17 *329:20 *727:B 2.41948e-05
*RES
1 *726:Y *727:B 49.8266 
*END

*D_NET *334 0.00469246
*CONN
*I *733:B I *D sky130_fd_sc_hd__nand2_1
*I *742:B1 I *D sky130_fd_sc_hd__o211ai_1
*I *741:A I *D sky130_fd_sc_hd__nand2_1
*I *728:Y O *D sky130_fd_sc_hd__nor2_1
*CAP
1 *733:B 0.000771654
2 *742:B1 0.000132064
3 *741:A 0.000247142
4 *728:Y 0.000368643
5 *334:30 0.00102522
6 *733:B *626:B 1.91246e-05
7 *733:B *754:A1 0
8 *733:B *448:35 2.26985e-05
9 *733:B *455:24 0.000201554
10 *741:A *346:20 0.000207393
11 *742:B1 *754:B1 3.16239e-05
12 *742:B1 *343:55 2.71504e-05
13 *742:B1 *345:24 6.36477e-05
14 *334:30 *455:24 6.93171e-05
15 *544:A *741:A 2.41598e-05
16 *544:B *741:A 0.000149498
17 *588:A1 *733:B 1.38446e-05
18 *588:B1 *334:30 0.000107496
19 *626:A *733:B 0.0002837
20 *731:A2 *733:B 0.00016244
21 *753:B *742:B1 3.20453e-05
22 *880:A *733:B 4.69495e-06
23 *882:A *741:A 6.3657e-05
24 *887:A *733:B 0
25 *895:A *741:A 6.08467e-05
26 *1:28 *733:B 3.06917e-06
27 *174:10 *733:B 0.000335341
28 *179:58 *733:B 0.000114091
29 *179:58 *334:30 6.93171e-05
30 *329:20 *733:B 1.73713e-05
31 *329:20 *741:A 6.3657e-05
*RES
1 *728:Y *741:A 34.5143 
2 *728:Y *334:30 16.4439 
3 *334:30 *742:B1 17.3179 
4 *334:30 *733:B 33.8034 
*END

*D_NET *223 0.0058681
*CONN
*I *722:A1 I *D sky130_fd_sc_hd__a21boi_0
*I *575:A I *D sky130_fd_sc_hd__nand2_1
*I *729:Y O *D sky130_fd_sc_hd__nand2_1
*CAP
1 *722:A1 0.00049875
2 *575:A 0.000940756
3 *729:Y 0
4 *223:4 0.00143951
5 *575:A *491:A 8.37599e-05
6 *575:A *575:B 2.16355e-05
7 *575:A *650:A0 0.000189201
8 *575:A *238:59 8.6297e-06
9 *575:A *239:8 3.02249e-05
10 *575:A *340:40 3.93804e-05
11 *575:A *347:20 4.60375e-07
12 *575:A *355:26 2.08274e-05
13 *575:A *397:22 2.65831e-05
14 *575:A *400:8 6.08467e-05
15 *575:A *430:14 0
16 *722:A1 *650:A0 6.08467e-05
17 *722:A1 *722:B1_N 1.29759e-05
18 *722:A1 *328:10 6.08467e-05
19 *722:A1 *358:20 1.10803e-05
20 *722:A1 *415:20 0.000388444
21 *875:A *575:A 6.08467e-05
22 *33:33 *575:A 0.00100796
23 *61:26 *575:A 0
24 *109:20 *575:A 0.000408281
25 *170:12 *575:A 0.000496262
*RES
1 *729:Y *223:4 9.24915 
2 *223:4 *575:A 46.8667 
3 *223:4 *722:A1 17.9299 
*END

*D_NET *335 0.00476034
*CONN
*I *732:A I *D sky130_fd_sc_hd__nor2_1
*I *754:A1 I *D sky130_fd_sc_hd__o211ai_1
*I *730:Y O *D sky130_fd_sc_hd__a211oi_1
*CAP
1 *732:A 9.85918e-05
2 *754:A1 0.00105981
3 *730:Y 0
4 *335:4 0.00115841
5 *732:A *732:B 1.37695e-05
6 *732:A *337:22 0.000110297
7 *754:A1 *336:10 6.29148e-05
8 *754:A1 *414:39 0.000135937
9 *754:A1 *426:56 0.000198745
10 *517:A2 *754:A1 0.00020325
11 *588:A2 *754:A1 0.000298399
12 *727:B *754:A1 0.000167676
13 *730:A1 *754:A1 1.19705e-05
14 *730:A2 *754:A1 0.000441558
15 *730:B1 *754:A1 6.08467e-05
16 *733:B *754:A1 0
17 *887:A *754:A1 0.000266161
18 *178:57 *754:A1 0.000170764
19 *259:180 *754:A1 0.000169314
20 *259:189 *754:A1 0.000131931
21 *329:20 *754:A1 0
*RES
1 *730:Y *335:4 9.24915 
2 *335:4 *754:A1 47.8002 
3 *335:4 *732:A 12.0704 
*END

*D_NET *336 0.00959649
*CONN
*I *732:B I *D sky130_fd_sc_hd__nor2_1
*I *754:A2 I *D sky130_fd_sc_hd__o211ai_1
*I *743:A1 I *D sky130_fd_sc_hd__a21oi_1
*I *731:Y O *D sky130_fd_sc_hd__o21ai_0
*CAP
1 *732:B 0.00100268
2 *754:A2 7.02796e-05
3 *743:A1 0.000687593
4 *731:Y 0
5 *336:10 0.00124877
6 *336:4 0.00149358
7 *732:B *337:22 0.000409155
8 *732:B *386:41 5.09774e-05
9 *732:B *444:120 2.00611e-05
10 *732:B *444:126 2.42501e-05
11 *743:A1 *717:A 0
12 *743:A1 *749:B1 0.000114549
13 *743:A1 *750:C1 0.000301768
14 *743:A1 *350:24 0.000143537
15 *743:A1 *455:24 2.58616e-05
16 *336:10 *516:A2 1.02619e-05
17 *336:10 *350:24 0.000127163
18 *336:10 *362:16 2.18523e-06
19 *336:10 *367:12 0.000168763
20 *336:10 *414:39 3.88213e-05
21 *514:A1 *743:A1 4.2951e-05
22 *516:B1 *743:A1 0.000454012
23 *536:A *743:A1 3.90689e-06
24 *588:A2 *732:B 0.000106069
25 *589:A1 *743:A1 2.75076e-05
26 *727:B *336:10 0.000189554
27 *730:A1 *732:B 0
28 *730:A2 *732:B 0
29 *731:A1 *732:B 1.67698e-05
30 *731:A1 *336:10 7.97098e-06
31 *731:A2 *732:B 0.000124975
32 *731:A2 *336:10 7.92757e-06
33 *731:B1 *732:B 9.76046e-05
34 *731:B1 *336:10 1.41976e-05
35 *732:A *732:B 1.37695e-05
36 *742:A1 *754:A2 3.99287e-05
37 *743:B1 *743:A1 6.3657e-05
38 *748:A2 *336:10 9.94268e-06
39 *748:C1 *743:A1 0.000122877
40 *748:C1 *336:10 0.00017312
41 *754:A1 *336:10 6.29148e-05
42 *978:A *743:A1 6.08467e-05
43 *1:10 *732:B 1.5212e-05
44 *1:28 *732:B 7.82637e-06
45 *178:10 *743:A1 5.04768e-05
46 *178:57 *743:A1 3.21677e-05
47 *178:57 *336:10 5.1493e-06
48 *179:33 *732:B 0.000306753
49 *255:18 *743:A1 0.000610374
50 *267:12 *743:A1 0.000121106
51 *284:33 *743:A1 4.03678e-05
52 *285:10 *743:A1 0.000394877
53 *290:14 *743:A1 4.66492e-05
54 *319:36 *732:B 0
55 *321:10 *336:10 0.000190621
56 *324:20 *754:A2 6.08467e-05
57 *328:10 *336:10 9.96487e-06
58 *329:20 *754:A2 0.000123341
*RES
1 *731:Y *336:4 9.24915 
2 *336:4 *336:10 17.7154 
3 *336:10 *743:A1 39.397 
4 *336:10 *754:A2 16.1364 
5 *336:4 *732:B 39.6953 
*END

*D_NET *337 0.00482183
*CONN
*I *734:B1 I *D sky130_fd_sc_hd__o21ai_2
*I *732:Y O *D sky130_fd_sc_hd__nor2_1
*CAP
1 *734:B1 0
2 *732:Y 0.00103734
3 *337:22 0.00103734
4 *337:22 *685:CLK 1.25664e-05
5 *337:22 *863:A 6.57447e-05
6 *337:22 *395:20 0
7 *337:22 *407:22 0.000144659
8 *337:22 *444:126 0.000310387
9 *337:22 *444:172 3.33431e-05
10 *337:22 *448:43 6.97351e-05
11 *523:B *337:22 7.28994e-06
12 *673:A1 *337:22 3.57378e-06
13 *732:A *337:22 0.000110297
14 *732:B *337:22 0.000409155
15 *179:33 *337:22 4.58666e-05
16 *179:35 *337:22 4.37999e-05
17 *179:58 *337:22 0.00016021
18 *252:20 *337:22 0.00100562
19 *284:33 *337:22 0.000324911
*RES
1 *732:Y *337:22 49.9656 
2 *337:22 *734:B1 13.7491 
*END

*D_NET *250 0.0125636
*CONN
*I *880:A I *D sky130_fd_sc_hd__buf_4
*I *588:A2 I *D sky130_fd_sc_hd__o311ai_4
*I *733:Y O *D sky130_fd_sc_hd__nand2_1
*CAP
1 *880:A 0.00357031
2 *588:A2 0.00418043
3 *733:Y 0.000610118
4 *588:A2 *680:DE 7.94956e-05
5 *588:A2 *732:B 0.000106069
6 *588:A2 *754:A1 0.000298399
7 *588:A2 *386:41 0.000175666
8 *588:A2 *444:149 0.000154902
9 *588:A2 *448:27 1.27433e-05
10 *588:A2 *448:35 5.93269e-06
11 *880:A *500:A 0
12 *880:A *567:B 0.000146993
13 *880:A *626:B 3.49082e-07
14 *880:A *681:DE 7.35292e-05
15 *880:A *723:B 6.9426e-05
16 *880:A *729:B 0.000307231
17 *880:A *733:B 4.69495e-06
18 *880:A *734:A1 0.000159664
19 *880:A *745:A1 9.08978e-05
20 *880:A *259:146 8.03244e-05
21 *880:A *397:22 0.000600015
22 *880:A *414:39 0.000525725
23 *880:A *438:34 0.000374977
24 *880:A *438:136 0.000193557
25 *588:A1 *880:A 2.70456e-05
26 *627:B1 *588:A2 0
27 *681:D *880:A 5.41799e-05
28 *731:A1 *588:A2 0.000102655
29 *731:A1 *880:A 6.64392e-05
30 *731:A2 *880:A 6.3657e-05
31 *1:28 *588:A2 0.000164398
32 *105:34 *880:A 1.46849e-05
33 *179:33 *588:A2 7.81602e-05
34 *180:26 *880:A 0.000170984
*RES
1 *733:Y *588:A2 43.4065 
2 *588:A2 *880:A 47.8106 
*END

*D_NET *338 0.0017086
*CONN
*I *735:B I *D sky130_fd_sc_hd__xnor2_2
*I *734:Y O *D sky130_fd_sc_hd__o21ai_2
*CAP
1 *735:B 0.000399607
2 *734:Y 0.000399607
3 *735:B *959:A 3.88655e-06
4 *735:B *379:20 6.36477e-05
5 *519:A2 *735:B 5.04829e-06
6 *589:A1 *735:B 6.52373e-05
7 *589:A2 *735:B 6.08467e-05
8 *993:A *735:B 3.58531e-05
9 *252:20 *735:B 6.46124e-05
10 *256:36 *735:B 1.5734e-05
11 *278:16 *735:B 0.000210781
12 *278:31 *735:B 4.70104e-05
13 *284:33 *735:B 7.50872e-05
14 *292:22 *735:B 0.000261643
*RES
1 *734:Y *735:B 47.6211 
*END

*D_NET *340 0.0086429
*CONN
*I *737:B1 I *D sky130_fd_sc_hd__o221ai_4
*I *736:Y O *D sky130_fd_sc_hd__nand4_1
*CAP
1 *737:B1 0
2 *736:Y 0.0027954
3 *340:40 0.0027954
4 *340:40 *493:B 0.000176382
5 *340:40 *536:B 2.26985e-05
6 *340:40 *574:A2 6.15852e-05
7 *340:40 *693:CLK 2.90716e-05
8 *340:40 *489:B 1.79239e-05
9 *340:40 *718:C 5.35171e-06
10 *340:40 *725:A 0.000223923
11 *340:40 *734:A1 0.000129404
12 *340:40 *736:B 9.17954e-05
13 *340:40 *737:A1 6.39957e-05
14 *340:40 *745:A1 8.33489e-06
15 *340:40 *750:A1 4.10895e-05
16 *340:40 *884:A 5.25852e-05
17 *340:40 *347:20 7.72602e-05
18 *340:40 *373:22 0
19 *340:40 *375:26 7.50366e-05
20 *340:40 *386:101 0
21 *340:40 *438:136 6.23101e-05
22 *340:40 *485:26 9.12416e-06
23 *491:A *340:40 0.00033781
24 *522:B *340:40 3.57291e-06
25 *551:A1 *340:40 0.00019032
26 *551:A2 *340:40 0.00021166
27 *575:A *340:40 3.93804e-05
28 *714:B1 *340:40 0.000310696
29 *893:A *340:40 8.034e-05
30 *33:33 *340:40 3.89332e-06
31 *120:32 *340:40 7.11318e-05
32 *237:35 *340:40 1.76701e-05
33 *239:26 *340:40 0.000125681
34 *251:79 *340:40 0.000163211
35 *305:43 *340:40 1.2934e-05
36 *315:16 *340:40 7.05017e-05
37 *319:36 *340:40 0.000265431
*RES
1 *736:Y *340:40 47.6484 
2 *340:40 *737:B1 13.7491 
*END

*D_NET *341 0.00219265
*CONN
*I *738:B I *D sky130_fd_sc_hd__xnor2_2
*I *737:Y O *D sky130_fd_sc_hd__o221ai_4
*CAP
1 *738:B 0.000429686
2 *737:Y 0.000429686
3 *738:B *549:A 0
4 *738:B *684:DE 0.000134715
5 *738:B *485:26 0.000107496
6 *513:A1 *738:B 4.1457e-05
7 *549:B *738:B 0.000182588
8 *713:A *738:B 2.77305e-05
9 *713:B *738:B 0.000136347
10 *23:33 *738:B 0.000113968
11 *106:20 *738:B 0.000365397
12 *185:14 *738:B 0.000137927
13 *286:14 *738:B 4.05417e-06
14 *293:12 *738:B 1.22788e-05
15 *319:36 *738:B 6.93171e-05
*RES
1 *737:Y *738:B 42.9202 
*END

*D_NET *254 0.00422173
*CONN
*I *589:A1 I *D sky130_fd_sc_hd__a21oi_1
*I *743:B1 I *D sky130_fd_sc_hd__a21oi_1
*I *739:Y O *D sky130_fd_sc_hd__o21ai_0
*CAP
1 *589:A1 0.000107812
2 *743:B1 1.3306e-05
3 *739:Y 0.00070668
4 *254:20 0.000827799
5 *589:A1 *735:B 6.52373e-05
6 *589:A1 *743:A1 2.75076e-05
7 *589:A1 *255:18 1.58551e-05
8 *589:A1 *256:36 1.03403e-05
9 *589:A1 *284:33 0.000164044
10 *743:B1 *743:A1 6.3657e-05
11 *743:B1 *284:33 1.88152e-05
12 *254:20 *519:A1 1.50374e-05
13 *254:20 *641:B 0.000204088
14 *254:20 *655:S 0.000212407
15 *254:20 *661:B 1.5714e-05
16 *254:20 *661:C 1.91246e-05
17 *254:20 *661:D 4.00092e-05
18 *254:20 *662:A 1.75194e-05
19 *254:20 *684:DE 0.00064503
20 *254:20 *255:18 7.75133e-06
21 *254:20 *282:20 7.86825e-06
22 *254:20 *343:12 0.000626174
23 *254:20 *444:172 3.52699e-05
24 *589:A2 *589:A1 0
25 *739:A1 *254:20 2.29823e-05
26 *118:12 *254:20 0.000128648
27 *158:22 *254:20 5.99155e-05
28 *184:42 *254:20 0.000140364
29 *252:20 *589:A1 2.77625e-06
*RES
1 *739:Y *254:20 41.0713 
2 *254:20 *743:B1 9.97254 
3 *254:20 *589:A1 12.7697 
*END

*D_NET *343 0.00771967
*CONN
*I *754:B1 I *D sky130_fd_sc_hd__o211ai_1
*I *742:C1 I *D sky130_fd_sc_hd__o211ai_1
*I *753:A I *D sky130_fd_sc_hd__nand2_1
*I *741:B I *D sky130_fd_sc_hd__nand2_1
*I *743:A2 I *D sky130_fd_sc_hd__a21oi_1
*I *740:Y O *D sky130_fd_sc_hd__nor2_1
*CAP
1 *754:B1 0.000215322
2 *742:C1 0
3 *753:A 0
4 *741:B 0.000168706
5 *743:A2 0
6 *740:Y 0.000453847
7 *343:55 0.000303054
8 *343:46 0.000367367
9 *343:25 0.000661861
10 *343:12 0.000667366
11 *741:B *751:B 0.000392218
12 *741:B *346:20 4.31988e-05
13 *741:B *362:16 0.000107496
14 *754:B1 *345:24 4.79321e-06
15 *343:12 *642:A1 6.9865e-05
16 *343:12 *662:A 3.06765e-05
17 *343:12 *959:A 0.0002082
18 *343:12 *379:20 0.000487273
19 *343:12 *444:199 2.02035e-05
20 *343:25 *751:B 0.000196686
21 *343:25 *959:A 1.07248e-05
22 *343:25 *362:16 0.000110306
23 *343:46 *661:A 0.000198357
24 *343:46 *362:16 5.60364e-06
25 *343:46 *444:149 0.00014966
26 *343:46 *455:24 0.000209185
27 *343:55 *863:A 5.07728e-05
28 *517:A2 *754:B1 6.41856e-05
29 *523:B *343:25 9.54357e-06
30 *588:A1 *754:B1 0.000134345
31 *588:A1 *343:55 9.61606e-05
32 *673:A1 *343:25 6.36477e-05
33 *675:A2 *343:46 9.76996e-05
34 *728:B *754:B1 6.9391e-05
35 *742:A1 *754:B1 0.000109596
36 *742:A2 *754:B1 0.000114594
37 *742:B1 *754:B1 3.16239e-05
38 *742:B1 *343:55 2.71504e-05
39 *753:B *343:55 4.29844e-05
40 *882:A *741:B 0.000222099
41 *895:A *741:B 8.50177e-05
42 *899:A *343:12 2.07325e-05
43 *118:12 *343:12 1.40978e-05
44 *118:12 *343:25 7.59658e-05
45 *118:12 *343:46 0.000373874
46 *184:42 *343:12 1.09168e-05
47 *254:20 *343:12 0.000626174
48 *256:36 *343:12 1.68872e-05
49 *284:33 *343:25 0.000280244
50 *292:22 *741:B 0
51 *329:20 *754:B1 0
*RES
1 *740:Y *343:12 30.45 
2 *343:12 *743:A2 13.7491 
3 *343:12 *343:25 12.8717 
4 *343:25 *741:B 24.5797 
5 *343:25 *343:46 19.5523 
6 *343:46 *753:A 9.24915 
7 *343:46 *343:55 2.96592 
8 *343:55 *742:C1 9.24915 
9 *343:55 *754:B1 26.0102 
*END

*D_NET *344 0.00668364
*CONN
*I *745:A1 I *D sky130_fd_sc_hd__o211ai_1
*I *741:Y O *D sky130_fd_sc_hd__nand2_1
*CAP
1 *745:A1 0.00197167
2 *741:Y 0.00197167
3 *745:A1 *576:B1 8.98146e-05
4 *745:A1 *585:B 4.16993e-05
5 *745:A1 *693:CLK 0.00023402
6 *745:A1 *736:D 1.10888e-05
7 *745:A1 *745:B1 2.91682e-05
8 *745:A1 *346:20 5.35941e-05
9 *745:A1 *375:26 0
10 *745:A1 *386:101 0
11 *745:A1 *429:19 0.000126572
12 *517:A2 *745:A1 0.000199224
13 *714:A1 *745:A1 0.000284999
14 *723:B *745:A1 1.43499e-05
15 *727:B *745:A1 0.000251596
16 *880:A *745:A1 9.08978e-05
17 *105:34 *745:A1 0.000371406
18 *259:146 *745:A1 0.000805075
19 *292:22 *745:A1 9.24219e-06
20 *319:36 *745:A1 5.69073e-05
21 *320:22 *745:A1 6.23115e-05
22 *340:40 *745:A1 8.33489e-06
*RES
1 *741:Y *745:A1 46.2943 
*END

*D_NET *345 0.00551297
*CONN
*I *745:B1 I *D sky130_fd_sc_hd__o211ai_1
*I *742:Y O *D sky130_fd_sc_hd__o211ai_1
*CAP
1 *745:B1 0.0001364
2 *742:Y 0.0010658
3 *345:24 0.0012022
4 *745:B1 *585:B 1.91391e-05
5 *745:B1 *591:B 0.00021346
6 *345:24 *516:A2 3.00716e-05
7 *345:24 *693:CLK 3.3753e-05
8 *517:A2 *345:24 4.47118e-05
9 *588:A1 *345:24 3.28625e-05
10 *693:D *345:24 5.97413e-05
11 *717:B *345:24 5.49916e-05
12 *723:B *345:24 1.57247e-06
13 *727:B *345:24 0.000508179
14 *728:B *345:24 8.68041e-05
15 *736:C *345:24 0.0011919
16 *742:A1 *345:24 3.8713e-05
17 *742:B1 *345:24 6.36477e-05
18 *745:A1 *745:B1 2.91682e-05
19 *754:B1 *345:24 4.79321e-06
20 *962:A *345:24 0.000268878
21 *266:14 *345:24 0.000394842
22 *320:22 *745:B1 2.9535e-05
23 *329:20 *345:24 1.81863e-06
*RES
1 *742:Y *345:24 48.0753 
2 *345:24 *745:B1 18.0727 
*END

*D_NET *346 0.0073144
*CONN
*I *745:C1 I *D sky130_fd_sc_hd__o211ai_1
*I *743:Y O *D sky130_fd_sc_hd__a21oi_1
*CAP
1 *745:C1 0.00151031
2 *743:Y 0.000868179
3 *346:20 0.00237849
4 *745:C1 *574:A2 3.31745e-05
5 *745:C1 *726:A1 7.45047e-05
6 *745:C1 *442:26 9.12416e-06
7 *346:20 *749:B1 0
8 *517:A2 *346:20 0
9 *536:A *346:20 0
10 *544:A *745:C1 5.04829e-06
11 *544:B *346:20 0.000271403
12 *726:A2 *745:C1 6.1578e-06
13 *741:A *346:20 0.000207393
14 *741:B *346:20 4.31988e-05
15 *745:A1 *346:20 5.35941e-05
16 *745:A2 *745:C1 9.81509e-05
17 *748:C1 *745:C1 0.000310764
18 *221:18 *745:C1 6.46815e-05
19 *222:24 *745:C1 3.85273e-06
20 *237:22 *745:C1 2.21251e-05
21 *238:43 *745:C1 2.38934e-06
22 *255:18 *346:20 0.000398951
23 *284:43 *346:20 0
24 *290:14 *346:20 6.04335e-05
25 *292:22 *346:20 0
26 *293:12 *745:C1 0.000724151
27 *320:22 *745:C1 0.000168313
*RES
1 *743:Y *346:20 36.8756 
2 *346:20 *745:C1 46.4739 
*END

*D_NET *238 0.0114166
*CONN
*I *718:A I *D sky130_fd_sc_hd__nor4_4
*I *714:C1 I *D sky130_fd_sc_hd__a211oi_1
*I *583:A I *D sky130_fd_sc_hd__nor2_4
*I *960:A I *D sky130_fd_sc_hd__buf_4
*I *713:A I *D sky130_fd_sc_hd__nor2_1
*I *744:Y O *D sky130_fd_sc_hd__xnor2_4
*CAP
1 *718:A 0
2 *714:C1 0
3 *583:A 3.68604e-05
4 *960:A 0.000723196
5 *713:A 0.000332727
6 *744:Y 0.000375481
7 *238:59 0.00134666
8 *238:43 0.00143707
9 *238:12 0.00133962
10 *238:10 0.00053191
11 *583:A *583:B 4.76161e-06
12 *713:A *536:B 1.12479e-05
13 *713:A *738:B 2.77305e-05
14 *713:A *319:36 0.000594023
15 *713:A *350:24 8.87641e-05
16 *960:A *496:B2 8.20492e-06
17 *960:A *489:B 0.00010283
18 *960:A *903:A 7.73219e-05
19 *960:A *957:A 0.000112978
20 *960:A *242:25 0.000313018
21 *960:A *363:26 6.00782e-06
22 *960:A *431:22 8.23171e-06
23 *238:10 *576:A2 0.000194016
24 *238:10 *718:B 3.57291e-06
25 *238:10 *729:B 8.98855e-05
26 *238:10 *886:A 0.000122992
27 *238:10 *266:14 1.94058e-05
28 *238:12 *718:B 9.12416e-06
29 *238:12 *718:C 1.66771e-05
30 *238:12 *319:36 7.10277e-05
31 *238:12 *350:24 7.07762e-05
32 *238:43 *574:A2 2.37827e-05
33 *238:43 *714:B1 0.000519163
34 *238:43 *745:C1 2.38934e-06
35 *238:43 *472:18 5.03168e-05
36 *238:59 *491:A 5.18899e-06
37 *238:59 *714:A2 2.57292e-05
38 *238:59 *714:B1 6.64392e-05
39 *238:59 *898:A 1.58551e-05
40 *238:59 *903:A 7.98171e-06
41 *238:59 *239:67 2.77625e-06
42 *238:59 *347:20 8.3087e-05
43 *496:C1 *960:A 8.09682e-05
44 *498:D *960:A 0.000102927
45 *549:B *713:A 7.09666e-06
46 *574:A1 *238:43 6.76107e-05
47 *575:A *238:59 8.6297e-06
48 *575:B *238:10 0.000106313
49 *575:B *238:12 4.6894e-05
50 *693:D *713:A 2.01986e-05
51 *693:D *238:10 1.28642e-05
52 *693:D *238:12 5.78827e-05
53 *722:A2 *238:10 0.000523485
54 *893:A *713:A 0.000488422
55 *949:A *238:43 3.95516e-05
56 *949:A *238:59 5.04829e-06
57 *985:A *960:A 6.08467e-05
58 *1004:A *960:A 7.34948e-06
59 *1:59 *238:10 4.01722e-05
60 *109:20 *238:59 6.22114e-05
61 *219:14 *960:A 0.000499439
62 *221:18 *238:43 0.000135462
63 *228:21 *960:A 5.48214e-05
64 *237:22 *238:43 4.68411e-05
65 *237:22 *238:59 6.27376e-05
*RES
1 *744:Y *238:10 26.6952 
2 *238:10 *238:12 4.73876 
3 *238:12 *713:A 27.1105 
4 *238:12 *238:43 30.3197 
5 *238:43 *238:59 19.7057 
6 *238:59 *960:A 40.0889 
7 *238:59 *583:A 10.2378 
8 *238:43 *714:C1 9.24915 
9 *238:10 *718:A 13.7491 
*END

*D_NET *347 0.0116455
*CONN
*I *746:B I *D sky130_fd_sc_hd__xnor2_1
*I *745:Y O *D sky130_fd_sc_hd__o211ai_1
*CAP
1 *746:B 0.00216072
2 *745:Y 0.0010123
3 *347:20 0.00317302
4 *746:B *493:B 5.05252e-05
5 *746:B *655:S 0.000196788
6 *746:B *684:DE 0.00204882
7 *746:B *373:22 0
8 *746:B *375:26 6.77316e-05
9 *746:B *438:16 0.000428436
10 *347:20 *384:18 6.50586e-05
11 *347:20 *397:22 2.01653e-05
12 *347:20 *438:16 0
13 *347:20 *438:136 0
14 *347:20 *472:18 0
15 *490:B1 *347:20 5.09846e-05
16 *491:A *347:20 1.37385e-05
17 *494:A *746:B 2.91812e-05
18 *517:A2 *746:B 0.000281435
19 *521:A *347:20 0.000205101
20 *551:A2 *347:20 0.000300097
21 *575:A *347:20 4.60375e-07
22 *637:A1 *746:B 3.67259e-05
23 *714:A1 *347:20 0.000127065
24 *745:A2 *347:20 6.3657e-05
25 *865:A *746:B 0.000143172
26 *888:A *746:B 9.3479e-05
27 *956:A *746:B 0
28 *33:16 *746:B 0.000300413
29 *102:14 *746:B 3.02592e-05
30 *120:32 *347:20 1.0892e-05
31 *237:22 *347:20 1.47729e-05
32 *238:59 *347:20 8.3087e-05
33 *251:24 *746:B 9.37126e-05
34 *257:22 *746:B 0.000466455
35 *286:14 *347:20 0
36 *340:40 *347:20 7.72602e-05
*RES
1 *745:Y *347:20 43.1378 
2 *347:20 *746:B 46.3399 
*END

*D_NET *349 0.00027227
*CONN
*I *750:A2 I *D sky130_fd_sc_hd__o211ai_1
*I *747:Y O *D sky130_fd_sc_hd__nand4_1
*CAP
1 *750:A2 3.65008e-05
2 *747:Y 3.65008e-05
3 *713:B *750:A2 9.96342e-05
4 *319:36 *750:A2 9.96342e-05
*RES
1 *747:Y *750:A2 29.3303 
*END

*D_NET *350 0.00293026
*CONN
*I *750:B1 I *D sky130_fd_sc_hd__o211ai_1
*I *748:Y O *D sky130_fd_sc_hd__o211ai_1
*CAP
1 *750:B1 0
2 *748:Y 0.000638943
3 *350:24 0.000638943
4 *350:24 *516:A2 0.00014966
5 *350:24 *717:A 6.76986e-05
6 *350:24 *750:C1 6.60095e-06
7 *514:A2 *350:24 4.23858e-05
8 *521:B *350:24 7.87236e-05
9 *693:D *350:24 0.000155942
10 *713:A *350:24 8.87641e-05
11 *728:B *350:24 0.000247443
12 *743:A1 *350:24 0.000143537
13 *882:A *350:24 7.92757e-06
14 *238:12 *350:24 7.07762e-05
15 *293:12 *350:24 0.000441294
16 *324:20 *350:24 2.44622e-05
17 *336:10 *350:24 0.000127163
*RES
1 *748:Y *350:24 45.3003 
2 *350:24 *750:B1 9.24915 
*END

*D_NET *351 0.00248537
*CONN
*I *750:C1 I *D sky130_fd_sc_hd__o211ai_1
*I *749:Y O *D sky130_fd_sc_hd__a21oi_1
*CAP
1 *750:C1 0.000500731
2 *749:Y 0.000500731
3 *750:C1 *737:A1 1.5714e-05
4 *516:A1 *750:C1 6.50727e-05
5 *521:A *750:C1 5.37492e-05
6 *521:B *750:C1 4.67779e-05
7 *737:C1 *750:C1 0.000291757
8 *743:A1 *750:C1 0.000301768
9 *882:A *750:C1 0.000304871
10 *267:12 *750:C1 1.3808e-05
11 *285:10 *750:C1 1.41706e-05
12 *324:20 *750:C1 0.000369615
13 *350:24 *750:C1 6.60095e-06
*RES
1 *749:Y *750:C1 43.3852 
*END

*D_NET *352 0.0042835
*CONN
*I *751:B I *D sky130_fd_sc_hd__xnor2_1
*I *750:Y O *D sky130_fd_sc_hd__o211ai_1
*CAP
1 *751:B 0.0012648
2 *750:Y 0.0012648
3 *673:A1 *751:B 0.000363059
4 *741:B *751:B 0.000392218
5 *882:A *751:B 0.000755289
6 *1010:A *751:B 4.66492e-05
7 *343:25 *751:B 0.000196686
*RES
1 *750:Y *751:B 41.6229 
*END

*D_NET *253 0.00696169
*CONN
*I *753:B I *D sky130_fd_sc_hd__nand2_1
*I *754:C1 I *D sky130_fd_sc_hd__o211ai_1
*I *589:A2 I *D sky130_fd_sc_hd__a21oi_1
*I *752:Y O *D sky130_fd_sc_hd__nor2_1
*CAP
1 *753:B 0.000437812
2 *754:C1 0.000309377
3 *589:A2 0.00033642
4 *752:Y 0.000345931
5 *253:27 0.000813121
6 *253:8 0.000748282
7 *589:A2 *519:A1 0
8 *589:A2 *589:A1 0
9 *589:A2 *735:B 6.08467e-05
10 *589:A2 *959:A 0.000110766
11 *589:A2 *255:18 1.19084e-06
12 *589:A2 *256:36 1.43832e-05
13 *589:A2 *278:31 0
14 *589:A2 *292:22 0.000219923
15 *753:B *742:B1 3.20453e-05
16 *753:B *863:A 3.39714e-05
17 *753:B *343:55 4.29844e-05
18 *754:C1 *685:DE 8.06219e-05
19 *754:C1 *685:CLK 2.83896e-05
20 *754:C1 *742:A1 4.17531e-06
21 *754:C1 *329:20 0.000216458
22 *754:C1 *407:22 2.61955e-05
23 *253:8 *673:S 0.000308582
24 *253:8 *752:B 1.00766e-05
25 *253:8 *867:A 2.08274e-05
26 *587:B *589:A2 0.000202272
27 *587:B *753:B 0.000195545
28 *587:B *253:27 0.000160135
29 *588:B1 *754:C1 0.000115838
30 *685:D *754:C1 0.000234518
31 *728:B *754:C1 6.64392e-05
32 *927:A *753:B 5.81425e-05
33 *961:A *253:8 0.000952339
34 *210:12 *753:B 2.32318e-05
35 *252:20 *589:A2 0.000405844
36 *252:20 *753:B 0.000191887
37 *252:20 *253:27 0.000153119
*RES
1 *752:Y *253:8 25.5646 
2 *253:8 *589:A2 26.0921 
3 *253:8 *253:27 3.07775 
4 *253:27 *754:C1 23.5391 
5 *253:27 *753:B 25.5183 
*END

*D_NET *249 0.00225904
*CONN
*I *588:A1 I *D sky130_fd_sc_hd__o311ai_4
*I *753:Y O *D sky130_fd_sc_hd__nand2_1
*CAP
1 *588:A1 0.000897901
2 *753:Y 0.000897901
3 *588:A1 *693:CLK 1.89355e-06
4 *588:A1 *723:B 1.91246e-05
5 *588:A1 *733:B 1.38446e-05
6 *588:A1 *742:A2 6.64392e-05
7 *588:A1 *754:B1 0.000134345
8 *588:A1 *863:A 3.01683e-06
9 *588:A1 *880:A 2.70456e-05
10 *588:A1 *343:55 9.61606e-05
11 *588:A1 *345:24 3.28625e-05
12 *517:A2 *588:A1 6.851e-05
*RES
1 *753:Y *588:A1 44.3912 
*END

*D_NET *248 0.00231402
*CONN
*I *588:B1 I *D sky130_fd_sc_hd__o311ai_4
*I *754:Y O *D sky130_fd_sc_hd__o211ai_1
*CAP
1 *588:B1 0.000506158
2 *754:Y 0.000506158
3 *588:B1 *754:C1 0.000115838
4 *588:B1 *334:30 0.000107496
5 *588:B1 *362:16 0.000432824
6 *588:B1 *444:149 1.90335e-05
7 *588:B1 *448:43 0.000290785
8 *685:D *588:B1 0.000110306
9 *728:B *588:B1 6.3657e-05
10 *179:33 *588:B1 2.4562e-05
11 *179:35 *588:B1 0.000118485
12 *179:58 *588:B1 1.87125e-05
*RES
1 *754:Y *588:B1 42.8519 
*END

*D_NET *360 0.00871675
*CONN
*I *734:A1 I *D sky130_fd_sc_hd__o21ai_2
*I *880:X O *D sky130_fd_sc_hd__buf_4
*CAP
1 *734:A1 0.00255477
2 *880:X 0.00255477
3 *734:A1 *634:A0 1.00102e-05
4 *734:A1 *655:S 6.59904e-05
5 *734:A1 *661:A 0.00010562
6 *734:A1 *681:DE 0.000787401
7 *734:A1 *737:A1 8.81176e-05
8 *734:A1 *1000:A 0.00068441
9 *734:A1 *375:26 9.81327e-05
10 *734:A1 *386:93 0.000177133
11 *734:A1 *386:101 0.000699705
12 *734:A1 *438:34 8.36534e-06
13 *734:A1 *445:134 0
14 *567:B *734:A1 0
15 *880:A *734:A1 0.000159664
16 *888:A *734:A1 0
17 *1001:A *734:A1 0.000149768
18 *105:34 *734:A1 3.70027e-06
19 *118:12 *734:A1 0.00010562
20 *156:10 *734:A1 5.20546e-06
21 *197:18 *734:A1 0.000156948
22 *251:36 *734:A1 0.000172016
23 *340:40 *734:A1 0.000129404
*RES
1 *880:X *734:A1 47.0302 
*END

*D_NET *362 0.00480624
*CONN
*I *720:A I *D sky130_fd_sc_hd__nand2_4
*I *882:X O *D sky130_fd_sc_hd__buf_4
*CAP
1 *720:A 0
2 *882:X 0.00107925
3 *362:16 0.00107925
4 *362:16 *685:CLK 1.55681e-05
5 *362:16 *407:22 2.67096e-05
6 *362:16 *444:149 0.000454569
7 *362:16 *448:43 1.92925e-05
8 *523:B *362:16 6.63489e-05
9 *588:B1 *362:16 0.000432824
10 *673:A1 *362:16 0.00020653
11 *731:A1 *362:16 0.00082903
12 *741:B *362:16 0.000107496
13 *895:A *362:16 5.04829e-06
14 *118:12 *362:16 0.000366224
15 *336:10 *362:16 2.18523e-06
16 *343:25 *362:16 0.000110306
17 *343:46 *362:16 5.60364e-06
*RES
1 *882:X *362:16 47.1726 
2 *362:16 *720:A 9.24915 
*END

*D_NET *363 0.0023417
*CONN
*I *489:A I *D sky130_fd_sc_hd__xor2_2
*I *883:X O *D sky130_fd_sc_hd__buf_4
*CAP
1 *489:A 0
2 *883:X 0.000728109
3 *363:26 0.000728109
4 *363:26 *736:A 6.40849e-05
5 *363:26 *884:A 6.74426e-05
6 *363:26 *431:22 4.40735e-05
7 *736:C *363:26 0.000148785
8 *903:A *363:26 0.000485473
9 *960:A *363:26 6.00782e-06
10 *63:22 *363:26 0
11 *239:67 *363:26 6.27782e-05
12 *251:79 *363:26 6.84074e-06
*RES
1 *883:X *363:26 41.3113 
2 *363:26 *489:A 9.24915 
*END

*D_NET *364 0.00244458
*CONN
*I *495:B I *D sky130_fd_sc_hd__xor2_2
*I *884:X O *D sky130_fd_sc_hd__buf_4
*CAP
1 *495:B 0.000719612
2 *884:X 0.000719612
3 *495:B *659:B1 5.98634e-05
4 *495:B *736:A 9.04754e-05
5 *495:B *884:A 7.09666e-06
6 *495:B *429:83 9.92341e-06
7 *495:B *431:22 2.81147e-06
8 *492:A2 *495:B 0.000100397
9 *584:B *495:B 6.08467e-05
10 *736:C *495:B 2.64398e-05
11 *61:26 *495:B 0.000368567
12 *62:22 *495:B 5.1493e-06
13 *63:22 *495:B 0
14 *242:25 *495:B 0.000273785
*RES
1 *884:X *495:B 44.9353 
*END

*D_NET *437 0.0105435
*CONN
*I *884:A I *D sky130_fd_sc_hd__buf_4
*I *726:A1 I *D sky130_fd_sc_hd__o21ai_4
*I *750:A1 I *D sky130_fd_sc_hd__o211ai_1
*I *957:X O *D sky130_fd_sc_hd__buf_4
*CAP
1 *884:A 0.000187168
2 *726:A1 0.000669466
3 *750:A1 0.000787196
4 *957:X 0.00034532
5 *437:33 0.00102995
6 *437:10 0.00130583
7 *726:A1 *736:D 5.53641e-06
8 *884:A *898:A 8.8885e-05
9 *437:10 *462:32 3.88008e-05
10 *437:33 *898:A 5.01835e-05
11 *490:B2 *437:10 5.04829e-06
12 *491:A *437:33 3.66916e-05
13 *493:B *750:A1 0.000978485
14 *495:B *884:A 7.09666e-06
15 *521:B *750:A1 0.000235455
16 *571:A *437:10 0.000200794
17 *574:A2 *726:A1 0.00120895
18 *718:C *726:A1 0.000835325
19 *725:A *750:A1 9.93445e-05
20 *736:A *884:A 3.51036e-05
21 *736:A *437:33 1.75814e-05
22 *736:C *884:A 6.36477e-05
23 *745:A2 *726:A1 0.000165521
24 *745:C1 *726:A1 7.45047e-05
25 *882:A *750:A1 8.05465e-05
26 *992:A *750:A1 5.49686e-06
27 *995:A *750:A1 0.000161252
28 *63:22 *884:A 0
29 *120:32 *726:A1 2.62319e-05
30 *120:32 *750:A1 4.91084e-05
31 *189:8 *750:A1 8.41516e-05
32 *221:18 *750:A1 1.69657e-06
33 *222:24 *750:A1 1.84334e-05
34 *237:35 *750:A1 7.41979e-05
35 *251:24 *437:10 1.37563e-05
36 *251:79 *884:A 4.28718e-05
37 *251:79 *437:10 0.000244799
38 *251:79 *437:33 0.000347077
39 *340:40 *750:A1 4.10895e-05
40 *340:40 *884:A 5.25852e-05
41 *363:26 *884:A 6.74426e-05
42 *384:18 *437:10 0.000240294
43 *384:18 *437:33 0.000204938
44 *397:22 *750:A1 0.000315655
*RES
1 *957:X *437:10 23.8558 
2 *437:10 *750:A1 29.3362 
3 *437:10 *437:33 6.81502 
4 *437:33 *726:A1 25.5011 
5 *437:33 *884:A 19.0037 
*END

*D_NET *365 0.00398864
*CONN
*I *505:B I *D sky130_fd_sc_hd__xor2_2
*I *885:X O *D sky130_fd_sc_hd__buf_6
*CAP
1 *505:B 3.59884e-05
2 *885:X 0.00121747
3 *365:16 0.00125346
4 *505:B *435:71 0.000104623
5 *365:16 *552:A2 5.28741e-05
6 *365:16 *427:112 0.000139406
7 *365:16 *430:45 2.83564e-05
8 *365:16 *451:22 6.79041e-05
9 *365:16 *474:53 9.36277e-06
10 *552:A1 *365:16 4.49233e-05
11 *555:A1 *365:16 6.08467e-05
12 *555:A2 *365:16 1.88422e-05
13 *578:A *365:16 6.14756e-06
14 *582:A *365:16 1.10793e-05
15 *705:D *365:16 4.34293e-05
16 *890:A *365:16 0.000203756
17 *984:A *365:16 4.59822e-05
18 *166:12 *505:B 1.70615e-05
19 *166:12 *365:16 5.65971e-05
20 *190:10 *365:16 4.84662e-06
21 *193:6 *365:16 4.85806e-05
22 *207:21 *365:16 0.000380238
23 *259:46 *365:16 0.00013686
*RES
1 *885:X *365:16 47.0911 
2 *365:16 *505:B 5.6936 
*END

*D_NET *366 0.00138426
*CONN
*I *717:A I *D sky130_fd_sc_hd__nor2_1
*I *886:X O *D sky130_fd_sc_hd__buf_4
*CAP
1 *717:A 0.000357247
2 *886:X 0.000357247
3 *717:A *516:A2 1.40151e-05
4 *514:A1 *717:A 3.00174e-06
5 *720:B *717:A 0.00016921
6 *736:C *717:A 5.9036e-05
7 *743:A1 *717:A 0
8 *265:31 *717:A 5.40206e-05
9 *266:14 *717:A 0.00015607
10 *324:20 *717:A 0.000146712
11 *350:24 *717:A 6.76986e-05
*RES
1 *886:X *717:A 37.3578 
*END

*D_NET *367 0.00354409
*CONN
*I *723:A I *D sky130_fd_sc_hd__nor2_1
*I *748:A1 I *D sky130_fd_sc_hd__o211ai_1
*I *516:A2 I *D sky130_fd_sc_hd__a21oi_2
*I *887:X O *D sky130_fd_sc_hd__buf_4
*CAP
1 *723:A 0.00011928
2 *748:A1 2.31267e-05
3 *516:A2 0.000493861
4 *887:X 0
5 *367:12 0.000736389
6 *367:4 0.000338681
7 *367:12 *715:C1 1.41976e-05
8 *516:A1 *516:A2 1.07248e-05
9 *693:D *516:A2 0.000317217
10 *717:A *516:A2 1.40151e-05
11 *717:B *516:A2 0.000153103
12 *720:B *516:A2 1.98014e-05
13 *727:B *723:A 0.000104959
14 *728:B *748:A1 0.000111802
15 *736:C *748:A1 0.000107496
16 *748:A2 *367:12 0.000119538
17 *887:A *723:A 6.31922e-05
18 *887:A *367:12 0.000107496
19 *265:27 *516:A2 9.12416e-06
20 *265:27 *367:12 1.65668e-05
21 *265:31 *516:A2 0.000153537
22 *319:36 *516:A2 3.03709e-05
23 *324:20 *516:A2 7.08792e-05
24 *329:20 *723:A 4.99786e-05
25 *336:10 *516:A2 1.02619e-05
26 *336:10 *367:12 0.000168763
27 *345:24 *516:A2 3.00716e-05
28 *350:24 *516:A2 0.00014966
*RES
1 *887:X *367:4 9.24915 
2 *367:4 *367:12 10.5584 
3 *367:12 *516:A2 30.8883 
4 *367:12 *748:A1 15.0271 
5 *367:4 *723:A 13.3243 
*END

*D_NET *439 0.00208358
*CONN
*I *749:B1 I *D sky130_fd_sc_hd__a21oi_1
*I *959:X O *D sky130_fd_sc_hd__buf_4
*CAP
1 *749:B1 0.000656332
2 *959:X 0.000656332
3 *516:B1 *749:B1 0.000114594
4 *536:A *749:B1 0.000161568
5 *559:A *749:B1 3.95925e-05
6 *661:A *749:B1 0.000140853
7 *661:B *749:B1 6.08467e-05
8 *743:A1 *749:B1 0.000114549
9 *199:40 *749:B1 1.50924e-05
10 *255:18 *749:B1 0.000114621
11 *346:20 *749:B1 0
12 *379:20 *749:B1 9.19632e-06
*RES
1 *959:X *749:B1 44.4652 
*END

*D_NET *368 0.00146942
*CONN
*I *522:A I *D sky130_fd_sc_hd__nand2_1
*I *888:X O *D sky130_fd_sc_hd__buf_4
*CAP
1 *522:A 0.000409031
2 *888:X 0.000409031
3 *522:A *536:B 0.000225502
4 *522:A *549:A 8.36319e-05
5 *522:A *459:22 0.000195342
6 *522:B *522:A 9.32809e-06
7 *719:B1 *522:A 6.27718e-05
8 *285:10 *522:A 5.46198e-06
9 *324:20 *522:A 6.93171e-05
*RES
1 *888:X *522:A 38.4156 
*END

*D_NET *370 0.00504108
*CONN
*I *1007:A I *D sky130_fd_sc_hd__buf_4
*I *552:A2 I *D sky130_fd_sc_hd__a21oi_4
*I *890:X O *D sky130_fd_sc_hd__buf_6
*CAP
1 *1007:A 0.00039133
2 *552:A2 0.000549474
3 *890:X 0
4 *370:4 0.000940804
5 *552:A2 *508:A 0
6 *1007:A *986:A 0.000115934
7 *1007:A *421:18 1.03434e-05
8 *1007:A *421:28 0.000347
9 *1007:A *427:12 0.00029193
10 *503:A2 *552:A2 5.60804e-05
11 *552:A1 *552:A2 0.000114584
12 *552:B1 *552:A2 0.000616076
13 *555:A1 *552:A2 5.37496e-05
14 *555:A2 *552:A2 0.000522932
15 *704:D *552:A2 1.66626e-05
16 *186:16 *1007:A 9.35298e-05
17 *196:22 *1007:A 4.66492e-05
18 *196:24 *1007:A 0.000205101
19 *220:14 *552:A2 0.000543867
20 *304:20 *1007:A 7.21593e-05
21 *365:16 *552:A2 5.28741e-05
*RES
1 *890:X *370:4 9.24915 
2 *370:4 *552:A2 37.8793 
3 *370:4 *1007:A 31.939 
*END

*D_NET *371 0.00521795
*CONN
*I *736:B I *D sky130_fd_sc_hd__nand4_1
*I *571:B I *D sky130_fd_sc_hd__nand2_1
*I *891:X O *D sky130_fd_sc_hd__buf_4
*CAP
1 *736:B 0.000546617
2 *571:B 0.000441956
3 *891:X 0.000430893
4 *371:10 0.00141947
5 *571:B *571:A 0.000392719
6 *571:B *462:32 0
7 *736:B *574:A2 7.12632e-06
8 *736:B *462:32 5.28878e-05
9 *371:10 *381:20 0.000158371
10 *371:10 *472:18 0.000258208
11 *490:C1 *571:B 3.96856e-05
12 *490:C1 *736:B 1.69657e-06
13 *499:B *736:B 2.09205e-05
14 *891:A *371:10 0.00102222
15 *958:A *571:B 4.77858e-05
16 *958:A *736:B 0.000151371
17 *974:A *571:B 0
18 *63:22 *736:B 1.03594e-05
19 *222:24 *371:10 2.38044e-05
20 *251:79 *736:B 3.08147e-05
21 *315:16 *736:B 6.92555e-05
22 *340:40 *736:B 9.17954e-05
*RES
1 *891:X *371:10 27.2525 
2 *371:10 *571:B 24.3014 
3 *371:10 *736:B 27.9166 
*END

*D_NET *372 0.00523419
*CONN
*I *574:A2 I *D sky130_fd_sc_hd__a21oi_4
*I *892:X O *D sky130_fd_sc_hd__buf_4
*CAP
1 *574:A2 0.00127004
2 *892:X 0.00127004
3 *574:A2 *718:C 7.82399e-05
4 *574:A2 *726:A1 0.00120895
5 *574:A2 *442:26 5.49916e-05
6 *574:A2 *462:32 6.30541e-06
7 *574:A2 *464:80 0
8 *491:A *574:A2 0.000292738
9 *499:B *574:A2 9.00714e-07
10 *574:A1 *574:A2 0.000156946
11 *714:B1 *574:A2 0.000400735
12 *736:B *574:A2 7.12632e-06
13 *745:A2 *574:A2 5.8518e-05
14 *745:C1 *574:A2 3.31745e-05
15 *958:A *574:A2 1.14839e-05
16 *120:32 *574:A2 1.83871e-05
17 *237:35 *574:A2 1.11878e-05
18 *238:43 *574:A2 2.37827e-05
19 *251:79 *574:A2 6.8263e-05
20 *293:12 *574:A2 0.000200794
21 *340:40 *574:A2 6.15852e-05
*RES
1 *892:X *574:A2 42.1834 
*END

*D_NET *373 0.0109748
*CONN
*I *747:A I *D sky130_fd_sc_hd__nand4_1
*I *736:A I *D sky130_fd_sc_hd__nand4_1
*I *571:A I *D sky130_fd_sc_hd__nand2_1
*I *893:X O *D sky130_fd_sc_hd__buf_4
*CAP
1 *747:A 0.000394465
2 *736:A 0.00064117
3 *571:A 0.000493207
4 *893:X 0.000919602
5 *373:26 0.00191751
6 *373:22 0.0020972
7 *571:A *382:14 3.00084e-05
8 *571:A *384:18 0.000132433
9 *571:A *437:10 0.000200794
10 *571:A *462:32 0.00010813
11 *736:A *665:A 0.000340623
12 *736:A *884:A 3.51036e-05
13 *736:A *898:A 0.00012848
14 *736:A *384:18 0.000356261
15 *736:A *437:33 1.75814e-05
16 *747:A *442:26 1.35799e-05
17 *747:A *472:18 3.79844e-06
18 *373:22 *737:A1 4.32889e-05
19 *373:22 *392:12 9.12416e-06
20 *490:B2 *571:A 7.54269e-06
21 *490:C1 *571:A 4.49767e-05
22 *491:A *736:A 3.29488e-05
23 *493:C *373:22 0.000211954
24 *495:B *736:A 9.04754e-05
25 *496:A2 *571:A 9.04999e-05
26 *513:A1 *373:22 8.89147e-05
27 *551:A1 *571:A 7.01935e-06
28 *571:B *571:A 0.000392719
29 *736:C *736:A 3.56528e-05
30 *746:B *373:22 0
31 *747:B *747:A 0.000107496
32 *747:D *747:A 6.67826e-05
33 *891:A *373:26 2.59533e-05
34 *893:A *373:22 0.000355722
35 *992:A *747:A 5.04829e-06
36 *992:A *373:26 1.88014e-05
37 *33:33 *736:A 2.25623e-05
38 *107:26 *571:A 6.51637e-05
39 *107:26 *736:A 0.000363166
40 *191:10 *571:A 5.39635e-06
41 *199:40 *373:22 7.86825e-06
42 *222:24 *373:26 0.000952234
43 *251:36 *373:22 2.59382e-05
44 *267:12 *373:22 3.57291e-06
45 *340:40 *373:22 0
46 *363:26 *736:A 6.40849e-05
*RES
1 *893:X *373:22 34.0409 
2 *373:22 *373:26 17.4247 
3 *373:26 *571:A 36.0312 
4 *373:26 *736:A 32.8238 
5 *373:22 *747:A 16.2902 
*END

*D_NET *369 0.00306385
*CONN
*I *725:A I *D sky130_fd_sc_hd__nand2_1
*I *889:X O *D sky130_fd_sc_hd__buf_4
*CAP
1 *725:A 0.00104415
2 *889:X 0.00104415
3 *725:A *576:A2 1.03594e-05
4 *725:A *576:B1 1.60814e-05
5 *725:A *576:C1 0
6 *725:A *750:A1 9.93445e-05
7 *725:A *442:26 2.00324e-05
8 *521:B *725:A 6.53364e-05
9 *551:B1 *725:A 6.36477e-05
10 *726:A2 *725:A 6.15905e-05
11 *727:B *725:A 7.09666e-06
12 *189:8 *725:A 4.36956e-05
13 *221:18 *725:A 6.23715e-06
14 *237:35 *725:A 0.000358205
15 *340:40 *725:A 0.000223923
*RES
1 *889:X *725:A 40.3524 
*END

*D_NET *440 0.00521666
*CONN
*I *489:B I *D sky130_fd_sc_hd__xor2_2
*I *960:X O *D sky130_fd_sc_hd__buf_4
*CAP
1 *489:B 0.0012505
2 *960:X 0.0012505
3 *489:B *655:S 1.4656e-05
4 *489:B *736:D 1.79334e-05
5 *489:B *464:45 2.22892e-05
6 *489:B *464:80 0.000116999
7 *493:B *489:B 4.58389e-05
8 *714:A1 *489:B 0.000104976
9 *960:A *489:B 0.00010283
10 *120:32 *489:B 0.000103373
11 *228:21 *489:B 4.25507e-05
12 *239:8 *489:B 0.000104976
13 *239:14 *489:B 6.21462e-05
14 *239:26 *489:B 0.000715871
15 *259:146 *489:B 9.87335e-06
16 *305:16 *489:B 0.000862856
17 *305:43 *489:B 0.000370571
18 *340:40 *489:B 1.79239e-05
*RES
1 *960:X *489:B 32.9587 
*END

*D_NET *375 0.00448339
*CONN
*I *739:A2 I *D sky130_fd_sc_hd__o21ai_0
*I *738:A I *D sky130_fd_sc_hd__xnor2_2
*I *895:X O *D sky130_fd_sc_hd__buf_4
*CAP
1 *739:A2 0.000268796
2 *738:A 0
3 *895:X 0.00108219
4 *375:26 0.00135098
5 *739:A2 *392:12 0.000168498
6 *375:26 *549:A 7.02269e-06
7 *375:26 *693:CLK 0.000260321
8 *375:26 *386:101 1.14939e-05
9 *516:B1 *375:26 0.000146267
10 *549:B *739:A2 0.000253916
11 *734:A1 *375:26 9.81327e-05
12 *745:A1 *375:26 0
13 *746:B *375:26 6.77316e-05
14 *22:12 *739:A2 2.99291e-05
15 *23:33 *739:A2 0.000258128
16 *106:20 *739:A2 5.7209e-05
17 *178:10 *375:26 0.00014988
18 *199:40 *375:26 3.29488e-05
19 *258:12 *739:A2 0.000164915
20 *319:36 *375:26 0
21 *340:40 *375:26 7.50366e-05
*RES
1 *895:X *375:26 31.7655 
2 *375:26 *738:A 9.24915 
3 *375:26 *739:A2 27.6258 
*END

*D_NET *376 0.000748099
*CONN
*I *746:A I *D sky130_fd_sc_hd__xnor2_1
*I *896:X O *D sky130_fd_sc_hd__buf_4
*CAP
1 *746:A 8.29948e-05
2 *896:X 8.29948e-05
3 *746:A *409:10 0.000362627
4 *896:A *746:A 0.000117376
5 *144:18 *746:A 0.000102106
*RES
1 *896:X *746:A 23.128 
*END

*D_NET *377 0.00251913
*CONN
*I *751:A I *D sky130_fd_sc_hd__xnor2_1
*I *897:X O *D sky130_fd_sc_hd__buf_4
*CAP
1 *751:A 0.000714219
2 *897:X 0.000714219
3 *751:A *515:A2 0
4 resp_msg[13] *751:A 2.89766e-05
5 *528:B *751:A 3.55179e-05
6 *528:A *751:A 3.20407e-05
7 *530:B *751:A 3.54435e-05
8 *534:A *751:A 6.36477e-05
9 *534:B *751:A 4.17467e-05
10 *865:A *751:A 7.68696e-05
11 *879:A *751:A 1.1246e-05
12 *909:A *751:A 0.000184931
13 *161:6 *751:A 3.53654e-05
14 *246:12 *751:A 0.000374472
15 *256:14 *751:A 5.37199e-06
16 *258:32 *751:A 0.000109421
17 *269:12 *751:A 5.56367e-05
*RES
1 *897:X *751:A 48.1164 
*END

*D_NET *441 0.000684453
*CONN
*I *587:A I *D sky130_fd_sc_hd__xnor2_2
*I *961:X O *D sky130_fd_sc_hd__buf_4
*CAP
1 *587:A 0.00025476
2 *961:X 0.00025476
3 *587:B *587:A 9.40857e-05
4 *673:A1 *587:A 4.43826e-05
5 *278:31 *587:A 3.64651e-05
*RES
1 *961:X *587:A 32.7061 
*END

*D_NET *442 0.00932537
*CONN
*I *725:B I *D sky130_fd_sc_hd__nand2_1
*I *736:D I *D sky130_fd_sc_hd__nand4_1
*I *747:C I *D sky130_fd_sc_hd__nand4_1
*I *536:B I *D sky130_fd_sc_hd__nand2_1
*I *962:X O *D sky130_fd_sc_hd__buf_4
*CAP
1 *725:B 0
2 *736:D 0.00109234
3 *747:C 0
4 *536:B 0.000594433
5 *962:X 8.83556e-05
6 *442:26 0.0012301
7 *442:10 0.00172801
8 *442:8 8.83556e-05
9 *536:B *459:22 6.08467e-05
10 *536:B *485:26 1.25395e-05
11 *442:26 *472:18 0.000115573
12 *522:A *536:B 0.000225502
13 *522:B *536:B 2.68526e-05
14 *549:A *536:B 4.43331e-05
15 *549:B *536:B 0.000158254
16 *574:A1 *442:26 0.000119015
17 *574:A2 *442:26 5.49916e-05
18 *576:B1 *736:D 0.000494428
19 *585:B *736:D 0.000213209
20 *489:B *736:D 1.79334e-05
21 *713:A *536:B 1.12479e-05
22 *713:B *536:B 0.000114679
23 *718:B *736:D 3.04367e-05
24 *719:B1 *536:B 0.000208627
25 *725:A *442:26 2.00324e-05
26 *726:A1 *736:D 5.53641e-06
27 *726:A2 *442:26 9.94634e-05
28 *727:B *442:26 5.60474e-05
29 *736:C *442:8 5.8353e-05
30 *737:C1 *536:B 0.000205006
31 *745:A1 *736:D 1.10888e-05
32 *745:A2 *442:26 4.21015e-05
33 *745:C1 *442:26 9.12416e-06
34 *747:A *442:26 1.35799e-05
35 *747:D *442:26 0.000180615
36 *893:A *536:B 0.000206249
37 *962:A *442:8 6.64392e-05
38 *63:22 *736:D 2.02035e-05
39 *120:32 *736:D 0.000162564
40 *178:27 *536:B 7.09666e-06
41 *239:14 *736:D 1.21843e-05
42 *251:24 *536:B 6.00956e-05
43 *251:79 *736:D 1.86487e-05
44 *259:146 *736:D 8.41266e-06
45 *265:39 *442:26 5.69278e-05
46 *293:12 *442:26 0.000360871
47 *319:36 *536:B 0.000109598
48 *320:22 *736:D 0.000119251
49 *320:22 *442:26 0.000205101
50 *324:20 *536:B 0
51 *325:8 *442:26 2.3939e-05
52 *329:20 *442:26 8.96314e-06
53 *340:40 *536:B 2.26985e-05
54 *415:71 *442:8 0.000127602
55 *415:71 *442:26 1.48605e-05
56 *429:15 *442:26 0
57 *429:19 *736:D 2.81491e-05
58 *431:22 *736:D 0.000194099
59 *436:8 *536:B 6.0406e-05
*RES
1 *962:X *442:8 12.2151 
2 *442:8 *442:10 4.5 
3 *442:10 *442:26 31.5133 
4 *442:26 *536:B 44.6894 
5 *442:26 *747:C 9.24915 
6 *442:10 *736:D 23.2864 
7 *442:8 *725:B 9.24915 
*END

*D_NET *379 0.00344312
*CONN
*I *735:A I *D sky130_fd_sc_hd__xnor2_2
*I *899:X O *D sky130_fd_sc_hd__buf_4
*CAP
1 *735:A 0
2 *899:X 0.000742119
3 *379:20 0.000742119
4 *379:20 *640:A0 3.20285e-05
5 *379:20 *749:B1 9.19632e-06
6 *379:20 *436:62 8.36586e-06
7 *642:A2 *379:20 0.000126787
8 *642:B1 *379:20 0.000309067
9 *735:B *379:20 6.36477e-05
10 *899:A *379:20 0.000138681
11 *158:22 *379:20 0.000154145
12 *256:36 *379:20 0.000607076
13 *257:8 *379:20 2.41274e-06
14 *343:12 *379:20 0.000487273
15 *359:26 *379:20 2.02035e-05
*RES
1 *899:X *379:20 41.2758 
2 *379:20 *735:A 9.24915 
*END

*D_NET *382 0.00442899
*CONN
*I *501:A1 I *D sky130_fd_sc_hd__a21oi_4
*I *507:C1 I *D sky130_fd_sc_hd__o211ai_1
*I *902:X O *D sky130_fd_sc_hd__buf_4
*CAP
1 *501:A1 9.05035e-05
2 *507:C1 0.000202605
3 *902:X 0.000717985
4 *382:14 0.00101109
5 *501:A1 *501:B1 0.000111802
6 *507:C1 *494:B 6.36477e-05
7 *507:C1 *501:B1 1.18318e-05
8 *382:14 *977:A 9.97706e-05
9 *382:14 *435:71 6.08467e-05
10 *382:14 *451:22 6.08467e-05
11 *382:14 *461:14 6.50586e-05
12 *496:A2 *507:C1 1.84508e-05
13 *500:B *507:C1 7.09666e-06
14 *501:A2 *501:A1 4.28076e-05
15 *501:A2 *382:14 7.92757e-06
16 *507:A1 *382:14 0.000182246
17 *507:B1 *507:C1 9.49631e-05
18 *508:B *382:14 9.82896e-06
19 *509:A *382:14 0.00046546
20 *551:A1 *382:14 9.02099e-06
21 *571:A *382:14 3.00084e-05
22 *719:A3 *501:A1 0.000157107
23 *901:A *382:14 0.000413132
24 *974:A *382:14 2.07503e-05
25 *33:33 *507:C1 0
26 *107:26 *507:C1 2.19322e-05
27 *213:30 *382:14 7.48916e-05
28 *214:8 *382:14 0.000294093
29 *299:8 *382:14 1.47488e-05
30 *300:10 *507:C1 6.85329e-05
*RES
1 *902:X *382:14 39.827 
2 *382:14 *507:C1 22.8808 
3 *382:14 *501:A1 12.7938 
*END

*D_NET *381 0.00781179
*CONN
*I *493:B I *D sky130_fd_sc_hd__nor3_4
*I *499:A I *D sky130_fd_sc_hd__xor2_1
*I *901:X O *D sky130_fd_sc_hd__buf_4
*CAP
1 *493:B 0.000720477
2 *499:A 9.96315e-05
3 *901:X 0.000697334
4 *381:20 0.00151744
5 *493:B *489:B 4.58389e-05
6 *493:B *750:A1 0.000978485
7 *493:B *438:136 5.60804e-05
8 *493:B *464:80 0.000114642
9 *499:A *397:22 2.16355e-05
10 *381:20 *474:53 0.000719644
11 *490:B1 *493:B 0.000164044
12 *490:C1 *499:A 0.000139435
13 *494:A *493:B 5.22654e-06
14 *496:B1 *381:20 3.58208e-05
15 *508:B *381:20 6.08467e-05
16 *513:A1 *493:B 0
17 *521:A *493:B 0.000191426
18 *746:B *493:B 5.05252e-05
19 *891:A *381:20 8.01922e-05
20 *901:A *381:20 0.000495893
21 *992:A *493:B 8.34464e-05
22 *15:20 *381:20 0.000178466
23 *219:14 *381:20 0.000360784
24 *228:21 *381:20 0.000434608
25 *239:26 *493:B 2.29568e-05
26 *251:79 *499:A 0.000133124
27 *299:8 *381:20 6.9033e-05
28 *340:40 *493:B 0.000176382
29 *371:10 *381:20 0.000158371
*RES
1 *901:X *381:20 47.6914 
2 *381:20 *499:A 17.135 
3 *381:20 *493:B 28.4301 
*END

*D_NET *378 0.00436025
*CONN
*I *718:C I *D sky130_fd_sc_hd__nor4_4
*I *898:X O *D sky130_fd_sc_hd__buf_4
*CAP
1 *718:C 0.000763377
2 *898:X 0.000763377
3 *718:C *726:A1 0.000835325
4 *574:A2 *718:C 7.82399e-05
5 *575:B *718:C 2.02035e-05
6 *714:A1 *718:C 7.86825e-06
7 *714:B1 *718:C 2.15676e-05
8 *718:B *718:C 0.00125974
9 *109:20 *718:C 1.94472e-05
10 *238:12 *718:C 1.66771e-05
11 *239:14 *718:C 0.00016008
12 *265:39 *718:C 5.66864e-05
13 *319:36 *718:C 4.75571e-06
14 *329:20 *718:C 0.00034756
15 *340:40 *718:C 5.35171e-06
*RES
1 *898:X *718:C 42.0714 
*END

*D_NET *383 0.0012098
*CONN
*I *495:A I *D sky130_fd_sc_hd__xor2_2
*I *903:X O *D sky130_fd_sc_hd__buf_4
*CAP
1 *495:A 0.000219249
2 *903:X 0.000219249
3 *495:A *618:A1 0.000188758
4 *495:A *659:A2 1.5714e-05
5 *495:A *418:14 5.68225e-06
6 *495:A *474:47 9.12772e-05
7 *903:A *495:A 8.62814e-05
8 *103:12 *495:A 0.000246668
9 *113:10 *495:A 0.000119171
10 *315:16 *495:A 1.77461e-05
*RES
1 *903:X *495:A 36.2853 
*END

*D_NET *388 0.00397591
*CONN
*I *729:B I *D sky130_fd_sc_hd__nand2_1
*I *576:A2 I *D sky130_fd_sc_hd__o211ai_1
*I *908:X O *D sky130_fd_sc_hd__buf_4
*CAP
1 *729:B 0.000830952
2 *576:A2 0.00039799
3 *908:X 0
4 *388:6 0.00122894
5 *576:A2 *576:B1 1.4843e-05
6 *576:A2 *576:C1 2.15068e-05
7 *576:A2 *475:18 1.80862e-05
8 *729:B *585:B 3.33278e-05
9 *729:B *650:A0 6.36477e-05
10 *729:B *415:71 0.000113295
11 *729:B *429:19 1.24871e-05
12 *722:B1_N *576:A2 9.34919e-05
13 *724:A *576:A2 5.07314e-05
14 *725:A *576:A2 1.03594e-05
15 *727:B *576:A2 1.4459e-05
16 *878:A *729:B 1.94615e-05
17 *880:A *729:B 0.000307231
18 *1:59 *576:A2 0.000197492
19 *1:59 *729:B 0.000100393
20 *105:34 *729:B 0.000160898
21 *136:24 *729:B 2.41274e-06
22 *169:18 *729:B 0
23 *238:10 *576:A2 0.000194016
24 *238:10 *729:B 8.98855e-05
*RES
1 *908:X *388:6 13.7491 
2 *388:6 *576:A2 33.5491 
3 *388:6 *729:B 30.1146 
*END

*D_NET *389 0.00222643
*CONN
*I *515:A2 I *D sky130_fd_sc_hd__a221oi_2
*I *909:X O *D sky130_fd_sc_hd__buf_4
*CAP
1 *515:A2 0.000425478
2 *909:X 0.000425478
3 *515:A2 *866:A 0
4 *515:A2 *867:A 0.000506452
5 *515:A2 *436:31 0.000469425
6 resp_msg[14] *515:A2 8.82627e-05
7 *530:B *515:A2 0
8 *751:A *515:A2 0
9 *359:26 *515:A2 0.000311339
*RES
1 *909:X *515:A2 43.7654 
*END

*D_NET *385 0.00585392
*CONN
*I *591:A I *D sky130_fd_sc_hd__xnor2_4
*I *905:X O *D sky130_fd_sc_hd__buf_4
*CAP
1 *591:A 0.000310919
2 *905:X 0.00063025
3 *385:16 0.000941169
4 *591:A *431:36 0.000567547
5 *385:16 *616:A0 0.000697153
6 *385:16 *391:31 0.000110113
7 *385:16 *447:18 0.000197364
8 *385:16 *447:24 2.33852e-05
9 *385:16 *447:32 9.87648e-05
10 *385:16 *464:34 0.000396233
11 *911:A *385:16 0.000262387
12 *989:A *385:16 8.52652e-05
13 *28:22 *591:A 7.84431e-05
14 *61:26 *591:A 0.000378249
15 *103:12 *385:16 0.000599849
16 *109:20 *591:A 3.18806e-05
17 *265:16 *385:16 0.000444948
*RES
1 *905:X *385:16 49.4522 
2 *385:16 *591:A 26.3122 
*END

*D_NET *390 0.000475864
*CONN
*I *721:B I *D sky130_fd_sc_hd__xnor2_2
*I *910:X O *D sky130_fd_sc_hd__buf_4
*CAP
1 *721:B 7.80853e-05
2 *910:X 7.80853e-05
3 *721:B *448:19 6.36607e-05
4 *721:B *448:112 0.000100209
5 *358:20 *721:B 0.000155824
*RES
1 *910:X *721:B 30.576 
*END

*D_NET *392 0.00512473
*CONN
*I *559:A I *D sky130_fd_sc_hd__xnor2_2
*I *912:X O *D sky130_fd_sc_hd__buf_4
*CAP
1 *559:A 0.00014128
2 *912:X 0.00144194
3 *392:12 0.00158322
4 *559:A *749:B1 3.95925e-05
5 *392:12 *631:A0 3.82228e-05
6 *392:12 *446:56 6.11872e-05
7 *392:12 *459:22 0.000752454
8 *536:A *392:12 1.60111e-05
9 *697:D *392:12 0.000123304
10 *739:A2 *392:12 0.000168498
11 *912:A *392:12 1.9633e-05
12 *199:40 *559:A 0.000156076
13 *199:40 *392:12 3.61338e-05
14 *258:12 *392:12 7.99846e-05
15 *267:12 *392:12 9.76854e-05
16 *282:20 *392:12 0.000360388
17 *373:22 *392:12 9.12416e-06
*RES
1 *912:X *392:12 45.968 
2 *392:12 *559:A 17.2697 
*END

*D_NET *393 0.00524935
*CONN
*I *508:C I *D sky130_fd_sc_hd__nand3_2
*I *913:X O *D sky130_fd_sc_hd__buf_4
*CAP
1 *508:C 0.000463274
2 *913:X 0.00128519
3 *393:20 0.00174846
4 *508:C *977:A 2.42858e-05
5 *508:C *454:16 2.85637e-05
6 *393:20 *600:A2 4.30017e-06
7 *393:20 *663:A 0.00010801
8 *393:20 *663:C 0
9 *393:20 *445:90 3.31736e-05
10 *393:20 *456:28 4.67945e-05
11 *499:B *393:20 1.91246e-05
12 *500:B *508:C 0.000549415
13 *500:B *393:20 0
14 *504:A *393:20 2.85139e-05
15 *504:B *393:20 5.20192e-05
16 *562:B *393:20 7.37753e-05
17 *565:A *508:C 0
18 *565:A *393:20 0.000148964
19 *600:A1 *393:20 1.00937e-05
20 *600:B1 *393:20 0.000293446
21 *606:B1 *393:20 1.07248e-05
22 *643:A1 *393:20 7.25324e-06
23 *681:DE *508:C 0.000104635
24 *847:A *393:20 0
25 *77:22 *393:20 2.99643e-05
26 *129:14 *393:20 2.52287e-06
27 *191:10 *508:C 5.11593e-05
28 *204:12 *393:20 0.000125695
*RES
1 *913:X *393:20 49.7213 
2 *393:20 *508:C 26.3655 
*END

*D_NET *396 0.0026617
*CONN
*I *492:B1 I *D sky130_fd_sc_hd__o211ai_1
*I *581:B I *D sky130_fd_sc_hd__nand2_1
*I *916:X O *D sky130_fd_sc_hd__buf_4
*CAP
1 *492:B1 0.000285955
2 *581:B 0.000129347
3 *916:X 3.51473e-05
4 *396:8 0.000450449
5 *492:B1 *492:C1 6.08467e-05
6 *492:B1 *447:18 0.000368069
7 *581:B *581:A 6.3657e-05
8 *581:B *474:47 1.55025e-05
9 *396:8 *618:A1 0.000107496
10 *492:A1 *492:B1 0
11 *572:A *492:B1 5.68205e-05
12 *572:A *581:B 6.72196e-05
13 *572:B *492:B1 0.000515267
14 *572:B *581:B 0.000178062
15 *577:B1 *581:B 2.41274e-06
16 *903:A *396:8 3.82228e-05
17 *28:35 *492:B1 0.000123229
18 *33:37 *492:B1 0
19 *33:48 *492:B1 0.000144857
20 *109:20 *492:B1 1.91391e-05
*RES
1 *916:X *396:8 15.0271 
2 *396:8 *581:B 17.9655 
3 *396:8 *492:B1 26.6056 
*END

*D_NET *397 0.00824621
*CONN
*I *576:B1 I *D sky130_fd_sc_hd__o211ai_1
*I *585:B I *D sky130_fd_sc_hd__nand2_1
*I *917:X O *D sky130_fd_sc_hd__buf_4
*CAP
1 *576:B1 0.000369005
2 *585:B 0.000421822
3 *917:X 0.000998433
4 *397:22 0.00178926
5 *576:B1 *576:C1 4.9339e-05
6 *576:B1 *736:D 0.000494428
7 *585:B *591:B 5.90884e-05
8 *585:B *736:D 0.000213209
9 *585:B *429:99 0
10 *585:B *443:18 0.000339101
11 *397:22 *750:A1 0.000315655
12 *397:22 *438:136 0.000597256
13 *397:22 *472:18 2.87136e-06
14 *499:A *397:22 2.16355e-05
15 *499:B *397:22 6.36477e-05
16 *575:A *397:22 2.65831e-05
17 *575:B *397:22 3.00587e-05
18 *576:A2 *576:B1 1.4843e-05
19 *714:A1 *585:B 4.16798e-05
20 *718:B *576:B1 2.26886e-06
21 *725:A *576:B1 1.60814e-05
22 *726:A2 *576:B1 1.83515e-05
23 *727:B *576:B1 3.12497e-05
24 *729:B *585:B 3.33278e-05
25 *736:C *576:B1 6.08467e-05
26 *745:A1 *576:B1 8.98146e-05
27 *745:A1 *585:B 4.16993e-05
28 *745:B1 *585:B 1.91391e-05
29 *880:A *397:22 0.000600015
30 *120:32 *397:22 2.41607e-05
31 *167:22 *397:22 0.000524433
32 *169:18 *585:B 0
33 *222:24 *397:22 0.000107496
34 *237:35 *397:22 8.20799e-06
35 *259:146 *576:B1 0.000592059
36 *259:146 *585:B 0.000208977
37 *347:20 *397:22 2.01653e-05
*RES
1 *917:X *397:22 31.5418 
2 *397:22 *585:B 28.0883 
3 *397:22 *576:B1 19.7942 
*END

*D_NET *417 0.00421862
*CONN
*I *576:C1 I *D sky130_fd_sc_hd__o211ai_1
*I *585:A I *D sky130_fd_sc_hd__nand2_1
*I *937:X O *D sky130_fd_sc_hd__buf_4
*CAP
1 *576:C1 0.000707513
2 *585:A 0.00013994
3 *937:X 0.000195988
4 *417:14 0.00104344
5 *576:C1 *475:18 0.000161065
6 *417:14 *619:S 5.24138e-05
7 *417:14 *443:18 6.27718e-05
8 *575:B *576:C1 9.12416e-06
9 *576:A2 *576:C1 2.15068e-05
10 *576:B1 *576:C1 4.9339e-05
11 *722:A2 *576:C1 0.000218161
12 *722:B1_N *576:C1 2.66394e-05
13 *725:A *576:C1 0
14 *726:A2 *576:C1 7.09666e-06
15 *736:C *576:C1 1.65872e-05
16 *744:B *576:C1 0.000242899
17 *878:A *417:14 0.000130268
18 *136:24 *417:14 2.02354e-05
19 *169:18 *417:14 0.000282037
20 *225:6 *576:C1 0.00014012
21 *259:169 *576:C1 0.000113143
22 *264:8 *576:C1 9.04211e-05
23 *264:27 *576:C1 6.40849e-05
24 *415:71 *576:C1 0.000314399
25 *415:71 *585:A 0.000109421
*RES
1 *937:X *417:14 25.1205 
2 *417:14 *585:A 12.7697 
3 *417:14 *576:C1 39.6558 
*END

*D_NET *449 0.00354389
*CONN
*I *505:A I *D sky130_fd_sc_hd__xor2_2
*I *972:X O *D sky130_fd_sc_hd__buf_4
*CAP
1 *505:A 0
2 *972:X 0.000812057
3 *449:20 0.000812057
4 *449:20 *976:A 0.000157762
5 *557:B *449:20 0.000134037
6 *561:A *449:20 1.37189e-05
7 *568:A *449:20 8.38834e-05
8 *609:B1 *449:20 8.51445e-05
9 *688:D *449:20 4.41899e-05
10 *871:A *449:20 6.50727e-05
11 *923:A *449:20 7.82909e-05
12 *972:A *449:20 4.87301e-05
13 *31:37 *449:20 1.98711e-05
14 *34:8 *449:20 0.000131803
15 *131:22 *449:20 9.46392e-05
16 *163:10 *449:20 0
17 *166:12 *449:20 6.49003e-05
18 *202:14 *449:20 0.000216458
19 *427:44 *449:20 0.00040788
20 *427:112 *449:20 0.000181909
21 *430:62 *449:20 0
22 *435:71 *449:20 9.14834e-05
*RES
1 *972:X *449:20 47.1069 
2 *449:20 *505:A 9.24915 
*END

*D_NET *450 0.00281939
*CONN
*I *563:A I *D sky130_fd_sc_hd__nor2_1
*I *506:A I *D sky130_fd_sc_hd__xnor2_2
*I *973:X O *D sky130_fd_sc_hd__buf_4
*CAP
1 *563:A 0.000103214
2 *506:A 0.000714688
3 *973:X 8.23417e-05
4 *450:10 0.000900244
5 *506:A *924:A 0.000139037
6 *563:A *451:22 1.15074e-05
7 *552:A1 *563:A 2.25867e-05
8 *552:A1 *450:10 1.58588e-05
9 *579:B *506:A 0
10 *704:D *506:A 9.98615e-06
11 *705:D *506:A 0
12 *705:DE *506:A 0
13 *872:A *506:A 1.30711e-05
14 *973:A *506:A 1.1718e-05
15 *15:20 *506:A 8.86331e-05
16 *31:37 *506:A 0.000295637
17 *403:24 *563:A 6.55459e-05
18 *403:24 *450:10 1.58588e-05
19 *404:14 *506:A 0.000207026
20 *404:68 *563:A 1.07248e-05
21 *430:45 *506:A 0.00011171
*RES
1 *973:X *450:10 16.0286 
2 *450:10 *506:A 38.6743 
3 *450:10 *563:A 16.4116 
*END

*D_NET *451 0.00468843
*CONN
*I *506:B I *D sky130_fd_sc_hd__xnor2_2
*I *974:X O *D sky130_fd_sc_hd__buf_4
*CAP
1 *506:B 0
2 *974:X 0.00105057
3 *451:22 0.00105057
4 *451:22 *461:14 0.000107496
5 *451:22 *474:53 0.000250442
6 *451:22 *481:32 0.000518488
7 *552:A1 *451:22 5.88253e-05
8 *563:A *451:22 1.15074e-05
9 *579:B *451:22 0.000267394
10 *705:D *451:22 0.000245986
11 *705:DE *451:22 2.82571e-05
12 *973:A *451:22 7.16793e-05
13 *974:A *451:22 0.000113713
14 *984:A *451:22 3.12828e-05
15 *15:20 *451:22 0
16 *165:20 *451:22 0.000263126
17 *259:46 *451:22 0.000142398
18 *259:58 *451:22 0.000246825
19 *305:16 *451:22 7.29209e-06
20 *365:16 *451:22 6.79041e-05
21 *382:14 *451:22 6.08467e-05
22 *403:24 *451:22 2.33103e-06
23 *404:68 *451:22 9.14922e-05
*RES
1 *974:X *451:22 47.3614 
2 *451:22 *506:B 9.24915 
*END

*D_NET *453 0.00145917
*CONN
*I *511:A I *D sky130_fd_sc_hd__xnor2_2
*I *976:X O *D sky130_fd_sc_hd__buf_6
*CAP
1 *511:A 0.000302915
2 *976:X 0.000302915
3 *511:A *976:A 0.000171273
4 *557:A *511:A 6.50727e-05
5 *557:B *511:A 6.24655e-05
6 *52:18 *511:A 0
7 *131:22 *511:A 0.000325676
8 *427:104 *511:A 0.000113968
9 *438:74 *511:A 2.5971e-05
10 *445:20 *511:A 8.89134e-05
*RES
1 *976:X *511:A 39.0583 
*END

*D_NET *455 0.00352946
*CONN
*I *588:A3 I *D sky130_fd_sc_hd__o311ai_4
*I *978:X O *D sky130_fd_sc_hd__buf_4
*CAP
1 *588:A3 0
2 *978:X 0.000686087
3 *455:24 0.000686087
4 *455:24 *863:A 1.9101e-05
5 *544:A *455:24 0.000158455
6 *544:B *455:24 3.21484e-05
7 *661:A *455:24 0.000117158
8 *675:A1 *455:24 1.91246e-05
9 *675:A2 *455:24 9.90707e-05
10 *733:B *455:24 0.000201554
11 *734:A2 *455:24 0.000159008
12 *743:A1 *455:24 2.58616e-05
13 *26:26 *455:24 0.000199956
14 *179:58 *455:24 7.93318e-06
15 *283:23 *455:24 0.000351649
16 *284:33 *455:24 6.08467e-05
17 *334:30 *455:24 6.93171e-05
18 *343:46 *455:24 0.000209185
19 *444:149 *455:24 0.000309928
20 *448:35 *455:24 0.000116986
*RES
1 *978:X *455:24 44.2785 
2 *455:24 *588:A3 9.24915 
*END

*D_NET *456 0.00614636
*CONN
*I *500:C I *D sky130_fd_sc_hd__nor3_1
*I *979:X O *D sky130_fd_sc_hd__buf_4
*CAP
1 *500:C 0
2 *979:X 0.000331082
3 *456:28 0.00124236
4 *456:16 0.00157344
5 *456:28 *474:90 8.78153e-05
6 *502:B *456:28 1.21652e-05
7 *512:B *456:28 0.000376778
8 *643:A1 *456:28 2.99978e-05
9 *663:C *456:28 0
10 *703:D *456:28 0.000146736
11 *703:CLK *456:28 1.23358e-05
12 *719:A3 *456:16 0.000302934
13 *955:A *456:28 3.4731e-05
14 *970:A *456:28 0.000200664
15 *979:A *456:16 0.000137056
16 *984:A *456:28 0.000806442
17 *17:10 *456:28 0.000404448
18 *259:16 *456:28 9.72183e-05
19 *286:14 *456:16 0.000204213
20 *306:8 *456:16 7.75163e-05
21 *384:18 *456:16 2.16355e-05
22 *393:20 *456:28 4.67945e-05
*RES
1 *979:X *456:16 30.8772 
2 *456:16 *456:28 45.9964 
3 *456:28 *500:C 9.24915 
*END

*D_NET *462 0.00338596
*CONN
*I *494:B I *D sky130_fd_sc_hd__nor2_1
*I *985:X O *D sky130_fd_sc_hd__buf_4
*CAP
1 *494:B 0.000109524
2 *985:X 0.000975817
3 *462:32 0.00108534
4 *494:A *494:B 0
5 *496:B2 *462:32 0.00023811
6 *496:C1 *462:32 0.000210897
7 *496:A2 *462:32 0.000104719
8 *507:A2 *494:B 0.000311261
9 *507:B1 *494:B 1.88152e-05
10 *507:C1 *494:B 6.36477e-05
11 *571:A *462:32 0.00010813
12 *571:B *462:32 0
13 *574:A2 *462:32 6.30541e-06
14 *736:B *462:32 5.28878e-05
15 *242:25 *462:32 5.18492e-05
16 *251:79 *462:32 9.85683e-06
17 *437:10 *462:32 3.88008e-05
*RES
1 *985:X *462:32 46.3975 
2 *462:32 *494:B 17.8243 
*END

*D_NET *463 0.00116485
*CONN
*I *510:A I *D sky130_fd_sc_hd__xnor2_2
*I *986:X O *D sky130_fd_sc_hd__buf_6
*CAP
1 *510:A 0.000110113
2 *986:X 0.000110113
3 *510:A *986:A 0.000217937
4 *972:A *510:A 3.58208e-05
5 *32:22 *510:A 0.000213739
6 *202:14 *510:A 0.000262216
7 *427:44 *510:A 1.41689e-05
8 *435:16 *510:A 0.00020074
*RES
1 *986:X *510:A 34.4877 
*END

*D_NET *469 0.00186945
*CONN
*I *737:A1 I *D sky130_fd_sc_hd__o221ai_4
*I *992:X O *D sky130_fd_sc_hd__buf_4
*CAP
1 *737:A1 0.000466312
2 *992:X 0.000466312
3 *734:A1 *737:A1 8.81176e-05
4 *750:C1 *737:A1 1.5714e-05
5 *893:A *737:A1 1.38894e-05
6 *251:36 *737:A1 0.000295914
7 *285:10 *737:A1 1.91391e-05
8 *293:12 *737:A1 1.5147e-05
9 *325:8 *737:A1 0.000184646
10 *340:40 *737:A1 6.39957e-05
11 *373:22 *737:A1 4.32889e-05
12 *386:101 *737:A1 0.000196978
*RES
1 *992:X *737:A1 39.0206 
*END

*D_NET *470 0.0013747
*CONN
*I *959:A I *D sky130_fd_sc_hd__buf_4
*I *993:X O *D sky130_fd_sc_hd__buf_4
*CAP
1 *959:A 0.000326161
2 *993:X 0.000326161
3 *519:A1 *959:A 1.91224e-05
4 *589:A2 *959:A 0.000110766
5 *735:B *959:A 3.88655e-06
6 *993:A *959:A 0.000107496
7 *252:20 *959:A 8.74583e-05
8 *256:36 *959:A 0.000163478
9 *292:22 *959:A 1.1246e-05
10 *343:12 *959:A 0.0002082
11 *343:25 *959:A 1.07248e-05
*RES
1 *993:X *959:A 37.2035 
*END

*D_NET *472 0.0042709
*CONN
*I *591:B I *D sky130_fd_sc_hd__xnor2_4
*I *995:X O *D sky130_fd_sc_hd__buf_6
*CAP
1 *591:B 0.000361137
2 *995:X 0.00100524
3 *472:18 0.00136638
4 *521:A *472:18 1.15099e-05
5 *585:B *591:B 5.90884e-05
6 *714:A1 *472:18 0
7 *724:B *591:B 0.000215771
8 *745:A2 *472:18 2.43314e-05
9 *745:B1 *591:B 0.00021346
10 *747:A *472:18 3.79844e-06
11 *747:D *472:18 1.61631e-05
12 *992:A *472:18 7.69482e-05
13 *120:32 *472:18 1.83037e-05
14 *222:24 *472:18 4.79321e-06
15 *237:22 *591:B 0.000106413
16 *237:22 *472:18 7.78808e-05
17 *238:43 *472:18 5.03168e-05
18 *286:14 *472:18 9.66954e-05
19 *320:22 *591:B 4.83562e-06
20 *320:22 *472:18 1.99996e-05
21 *325:8 *472:18 9.49135e-05
22 *347:20 *472:18 0
23 *371:10 *472:18 0.000258208
24 *397:22 *472:18 2.87136e-06
25 *429:15 *591:B 6.627e-05
26 *442:26 *472:18 0.000115573
*RES
1 *995:X *472:18 42.2778 
2 *472:18 *591:B 24.1971 
*END

*D_NET *479 0.00239782
*CONN
*I *976:A I *D sky130_fd_sc_hd__buf_6
*I *1002:X O *D sky130_fd_sc_hd__buf_4
*CAP
1 *976:A 0.000319268
2 *1002:X 0.000319268
3 *511:A *976:A 0.000171273
4 *557:B *976:A 0.000171273
5 *568:A *976:A 0.000161359
6 *609:A1 *976:A 9.81288e-06
7 *923:A *976:A 9.22246e-05
8 *1002:A *976:A 4.66121e-05
9 *52:18 *976:A 0.000115934
10 *213:8 *976:A 0.000765492
11 *403:24 *976:A 3.43656e-05
12 *427:104 *976:A 3.31745e-05
13 *449:20 *976:A 0.000157762
*RES
1 *1002:X *976:A 42.5844 
*END

*D_NET *480 0.00468616
*CONN
*I *502:C I *D sky130_fd_sc_hd__nor3_4
*I *1003:X O *D sky130_fd_sc_hd__buf_4
*CAP
1 *502:C 0.00113706
2 *1003:X 0.00113706
3 *493:C *502:C 0.000156955
4 *508:A *502:C 0.000547246
5 *567:B *502:C 0
6 *645:A1 *502:C 7.59518e-05
7 *655:S *502:C 0.00101416
8 *681:DE *502:C 3.12734e-06
9 *977:A *502:C 6.00151e-05
10 *984:A *502:C 0
11 *33:16 *502:C 0.000172833
12 *207:21 *502:C 0
13 *286:14 *502:C 0.00016733
14 *304:20 *502:C 3.15055e-05
15 *306:8 *502:C 0
16 *421:28 *502:C 6.94925e-05
17 *438:16 *502:C 4.33979e-05
18 *438:34 *502:C 6.01588e-05
19 *474:53 *502:C 9.87197e-06
*RES
1 *1003:X *502:C 45.2898 
*END

*D_NET *482 0.00123517
*CONN
*I *501:B1 I *D sky130_fd_sc_hd__a21oi_4
*I *1005:X O *D sky130_fd_sc_hd__buf_6
*CAP
1 *501:B1 0.000269491
2 *1005:X 0.000269491
3 *500:B *501:B1 0.000190925
4 *501:A1 *501:B1 0.000111802
5 *501:A2 *501:B1 0.000111802
6 *502:B *501:B1 0.000118166
7 *507:C1 *501:B1 1.18318e-05
8 *565:B *501:B1 7.92757e-06
9 *955:A *501:B1 1.80266e-05
10 *33:33 *501:B1 5.66988e-05
11 *304:20 *501:B1 3.31882e-05
12 *304:31 *501:B1 3.58208e-05
*RES
1 *1005:X *501:B1 36.0416 
*END

*D_NET *484 0.00113823
*CONN
*I *986:A I *D sky130_fd_sc_hd__buf_6
*I *1007:X O *D sky130_fd_sc_hd__buf_4
*CAP
1 *986:A 0.000126754
2 *1007:X 0.000126754
3 *510:A *986:A 0.000217937
4 *972:A *986:A 0.000281173
5 *1007:A *986:A 0.000115934
6 *32:22 *986:A 0.000269681
*RES
1 *1007:X *986:A 24.9606 
*END

*D_NET *485 0.00226014
*CONN
*I *737:B2 I *D sky130_fd_sc_hd__o221ai_4
*I *1008:X O *D sky130_fd_sc_hd__buf_6
*CAP
1 *737:B2 0
2 *1008:X 0.000533204
3 *485:26 0.000533204
4 *521:A *485:26 0.000426366
5 *522:B *485:26 4.49767e-05
6 *536:B *485:26 1.25395e-05
7 *737:C1 *485:26 6.08467e-05
8 *738:B *485:26 0.000107496
9 *106:20 *485:26 0.000154145
10 *325:8 *485:26 0.000153419
11 *340:40 *485:26 9.12416e-06
12 *384:18 *485:26 6.66272e-05
13 *386:101 *485:26 0.000158186
*RES
1 *1008:X *485:26 42.0199 
2 *485:26 *737:B2 9.24915 
*END

*D_NET *488 0.00208178
*CONN
*I *898:A I *D sky130_fd_sc_hd__buf_4
*I *1011:X O *D sky130_fd_sc_hd__buf_4
*CAP
1 *898:A 0.000432045
2 *1011:X 0.000432045
3 *665:A *898:A 6.08467e-05
4 *665:D *898:A 4.00404e-05
5 *714:A2 *898:A 8.89729e-05
6 *736:A *898:A 0.00012848
7 *884:A *898:A 8.8885e-05
8 *892:A *898:A 4.47179e-05
9 *1011:A *898:A 1.0759e-05
10 *227:10 *898:A 2.16355e-05
11 *237:22 *898:A 6.08467e-05
12 *238:59 *898:A 1.58551e-05
13 *239:67 *898:A 0.000154145
14 *315:16 *898:A 0.000452325
15 *437:33 *898:A 5.01835e-05
*RES
1 *1011:X *898:A 40.6983 
*END

*D_NET *358 0.00352086
*CONN
*I *715:B1 I *D sky130_fd_sc_hd__o211ai_1
*I *878:X O *D sky130_fd_sc_hd__buf_4
*CAP
1 *715:B1 0
2 *878:X 0.000990022
3 *358:20 0.000990022
4 *358:20 *715:C1 6.08467e-05
5 *358:20 *721:B 0.000155824
6 *358:20 *415:20 2.84661e-05
7 *358:20 *448:19 1.75156e-05
8 *358:20 *448:112 7.69594e-06
9 *546:A *358:20 0.000306212
10 *715:A2 *358:20 0.000189774
11 *722:A1 *358:20 1.10803e-05
12 *722:A2 *358:20 1.99054e-05
13 *722:B1_N *358:20 2.16355e-05
14 *1:59 *358:20 2.41274e-06
15 *182:30 *358:20 4.87087e-05
16 *262:10 *358:20 0.000108286
17 *265:27 *358:20 0.000516987
18 *328:10 *358:20 4.54635e-05
*RES
1 *878:X *358:20 42.5165 
2 *358:20 *715:B1 9.24915 
*END

*D_NET *475 0.00463931
*CONN
*I *715:C1 I *D sky130_fd_sc_hd__o211ai_1
*I *998:X O *D sky130_fd_sc_hd__buf_4
*CAP
1 *715:C1 0.000260313
2 *998:X 0.000893912
3 *475:18 0.00115423
4 *576:A2 *475:18 1.80862e-05
5 *576:C1 *475:18 0.000161065
6 *619:S *475:18 0.000545083
7 *715:A1 *715:C1 0.000107496
8 *722:B1_N *475:18 0.000402584
9 *724:A *475:18 2.65667e-05
10 *998:A *475:18 4.02502e-05
11 *1:59 *715:C1 2.10055e-05
12 *1:59 *475:18 7.04549e-07
13 *66:14 *475:18 9.40857e-05
14 *105:34 *475:18 4.56195e-05
15 *182:30 *475:18 0
16 *264:8 *475:18 9.04211e-05
17 *264:27 *475:18 0.00039928
18 *358:20 *715:C1 6.08467e-05
19 *367:12 *715:C1 1.41976e-05
20 *415:20 *475:18 0.00030357
*RES
1 *998:X *475:18 45.2695 
2 *475:18 *715:C1 15.4342 
*END

*D_NET *120 0.0128526
*CONN
*P clk I
*I *949:A I *D sky130_fd_sc_hd__clkbuf_8
*CAP
1 clk 0.00571487
2 *949:A 5.24895e-05
3 *120:32 0.00576736
4 *949:A *238:43 3.95516e-05
5 *949:A *238:59 5.04829e-06
6 *120:32 req_rdy 9.17272e-05
7 *120:32 *574:A2 1.83871e-05
8 *120:32 *659:B2 3.98271e-05
9 *120:32 *671:A1 0
10 *120:32 *707:DE 0
11 *120:32 *489:B 0.000103373
12 *120:32 *714:A1 1.9472e-06
13 *120:32 *726:A1 2.62319e-05
14 *120:32 *736:D 0.000162564
15 *120:32 *750:A1 4.91084e-05
16 *120:32 *167:22 0
17 *120:32 *251:79 0.000106771
18 *120:32 *340:40 7.11318e-05
19 *120:32 *347:20 1.0892e-05
20 *120:32 *397:22 2.41607e-05
21 *120:32 *425:18 5.02503e-06
22 *120:32 *429:29 0
23 *120:32 *431:22 3.67267e-05
24 *120:32 *464:45 0.000117368
25 *120:32 *472:18 1.83037e-05
26 *109:20 *120:32 0.000389755
*RES
1 clk *120:32 16.8477 
2 *120:32 *949:A 15.0271 
*END

*D_NET *429 0.0182434
*CONN
*I *968:A I *D sky130_fd_sc_hd__clkbuf_8
*I *967:A I *D sky130_fd_sc_hd__clkbuf_8
*I *966:A I *D sky130_fd_sc_hd__clkbuf_8
*I *947:A I *D sky130_fd_sc_hd__clkbuf_8
*I *949:X O *D sky130_fd_sc_hd__clkbuf_8
*CAP
1 *968:A 9.65145e-05
2 *967:A 0.000100765
3 *966:A 0
4 *947:A 0.000115229
5 *949:X 3.65629e-05
6 *429:99 0.00021211
7 *429:83 0.000329268
8 *429:65 0.00259727
9 *429:37 0.000314359
10 *429:29 0.00554914
11 *429:19 0.00383918
12 *429:15 0.0014994
13 *429:6 0.000562421
14 *967:A *447:18 1.26207e-06
15 *429:15 *591:B 6.627e-05
16 *429:15 *442:26 0
17 *429:19 *736:D 2.81491e-05
18 *429:19 *431:22 1.39253e-05
19 *429:29 *431:22 1.70226e-05
20 *429:29 *438:34 0.00012007
21 *429:29 *445:76 2.87956e-05
22 *429:29 *474:65 5.79683e-06
23 *429:65 *654:S 0
24 *429:65 *438:34 0.000408893
25 *429:65 *445:76 4.51854e-05
26 *429:65 *445:134 8.11493e-05
27 *429:83 *447:18 0.000105358
28 *495:B *429:83 9.92341e-06
29 *500:A *429:65 0
30 *566:B *429:37 2.86353e-06
31 *585:B *429:99 0
32 *632:A *429:65 9.29563e-05
33 *663:D *429:19 0.000175437
34 *663:D *429:29 0.000951979
35 *714:B1 *429:6 7.85629e-05
36 *714:B1 *429:15 2.30551e-05
37 *729:B *429:19 1.24871e-05
38 *745:A1 *429:19 0.000126572
39 *745:A2 *429:15 0
40 *845:A *429:65 8.49123e-06
41 *969:A *429:37 1.78942e-05
42 *63:22 *429:83 8.43017e-07
43 *107:26 *429:29 0.000180831
44 *109:20 *429:29 1.08251e-05
45 *109:20 *429:83 1.99363e-05
46 *120:32 *429:29 0
47 *169:18 *429:15 8.50873e-05
48 *169:18 *429:99 5.15043e-05
49 *196:14 *429:37 5.38612e-06
50 *221:18 *429:6 4.71076e-05
51 *237:22 *429:15 7.64e-05
52 *312:37 *429:65 1.10565e-05
53 *320:22 *429:15 4.69495e-06
54 *415:71 *429:15 0
55 *427:12 *947:A 2.22317e-05
56 *427:12 *429:37 5.31978e-05
*RES
1 *949:X *429:6 11.1481 
2 *429:6 *429:15 15.917 
3 *429:15 *429:19 5.40742 
4 *429:19 *429:29 7.6139 
5 *429:29 *429:37 12.0211 
6 *429:37 *947:A 11.3591 
7 *429:29 *429:65 10.2859 
8 *429:65 *966:A 13.7491 
9 *429:19 *429:83 12.1598 
10 *429:83 *967:A 11.2204 
11 *429:15 *429:99 7.40097 
12 *429:99 *968:A 11.3591 
*END

*D_NET *427 0.0200479
*CONN
*I *969:A I *D sky130_fd_sc_hd__clkbuf_1
*I *704:CLK I *D sky130_fd_sc_hd__edfxtp_1
*I *705:CLK I *D sky130_fd_sc_hd__edfxtp_1
*I *689:CLK I *D sky130_fd_sc_hd__edfxtp_1
*I *688:CLK I *D sky130_fd_sc_hd__edfxtp_1
*I *686:CLK I *D sky130_fd_sc_hd__edfxtp_1
*I *702:CLK I *D sky130_fd_sc_hd__edfxtp_1
*I *687:CLK I *D sky130_fd_sc_hd__edfxtp_1
*I *703:CLK I *D sky130_fd_sc_hd__edfxtp_1
*I *695:CLK I *D sky130_fd_sc_hd__edfxtp_1
*I *947:X O *D sky130_fd_sc_hd__clkbuf_8
*CAP
1 *969:A 0.000522333
2 *704:CLK 2.22938e-05
3 *705:CLK 0.000167241
4 *689:CLK 0.00086392
5 *688:CLK 0
6 *686:CLK 0
7 *702:CLK 0.000143237
8 *687:CLK 0.00015288
9 *703:CLK 0.000874664
10 *695:CLK 0
11 *947:X 2.1308e-05
12 *427:112 0.00151666
13 *427:104 0.000818931
14 *427:85 0.000894474
15 *427:68 0.000638513
16 *427:46 0.000416528
17 *427:44 0.00185831
18 *427:18 0.000951254
19 *427:12 0.0021645
20 *427:6 0.000948829
21 *687:CLK *445:22 0
22 *689:CLK *689:DE 3.5328e-05
23 *702:CLK *603:A1 1.00981e-05
24 *703:CLK *430:79 2.42886e-05
25 *703:CLK *456:28 1.23358e-05
26 *705:CLK *705:DE 6.64392e-05
27 *969:A *977:A 1.82679e-05
28 *969:A *429:37 1.78942e-05
29 *427:12 *947:A 2.22317e-05
30 *427:12 *429:37 5.31978e-05
31 *427:18 *430:79 2.65667e-05
32 *427:44 *510:A 1.41689e-05
33 *427:44 *686:DE 2.90638e-06
34 *427:44 *449:20 0.00040788
35 *427:68 *445:20 0
36 *427:85 *438:40 0.000128611
37 *427:85 *438:46 6.05995e-05
38 *427:85 *445:20 0
39 *427:104 *511:A 0.000113968
40 *427:104 *976:A 3.31745e-05
41 *427:104 *438:40 7.27374e-05
42 *427:112 *430:45 5.72538e-05
43 *427:112 *449:20 0.000181909
44 *427:112 *481:32 7.40248e-05
45 *500:B *703:CLK 0.000225237
46 *512:B *969:A 0.000109427
47 *552:B1 *427:112 2.18679e-05
48 *557:B *427:104 7.5147e-05
49 *568:A *427:112 3.25464e-05
50 *568:B *704:CLK 1.00846e-05
51 *568:B *427:104 0.000372253
52 *568:C *427:85 2.23108e-05
53 *568:C *427:104 0.000141129
54 *603:A2 *702:CLK 0.000100477
55 *603:B1 *687:CLK 6.12656e-05
56 *643:A1 *703:CLK 0.000176743
57 *686:D *702:CLK 0.00011818
58 *686:D *427:44 4.77434e-05
59 *695:D *703:CLK 5.76258e-05
60 *703:D *703:CLK 1.45944e-05
61 *836:A *427:85 0.000167503
62 *923:A *704:CLK 2.16355e-05
63 *923:A *427:104 8.90311e-06
64 *923:A *427:112 4.9073e-05
65 *1007:A *427:12 0.00029193
66 *15:20 *689:CLK 7.41247e-05
67 *15:20 *705:CLK 0.000187034
68 *15:20 *427:112 6.50727e-05
69 *31:37 *705:CLK 6.08467e-05
70 *32:22 *427:44 0.000553227
71 *52:18 *427:104 3.1218e-05
72 *57:14 *689:CLK 5.93747e-05
73 *131:22 *427:44 0.000122714
74 *131:22 *427:104 0
75 *156:10 *969:A 0.000202719
76 *186:16 *427:12 2.93532e-05
77 *186:16 *427:18 5.53789e-05
78 *202:14 *427:44 0.000460388
79 *259:72 *427:112 0.000377818
80 *259:94 *427:112 0.000197507
81 *304:20 *427:12 0.000383943
82 *304:20 *427:18 0.000123582
83 *365:16 *427:112 0.000139406
84 *420:18 *705:CLK 0.000240285
85 *420:18 *427:112 0.000148517
*RES
1 *947:X *427:6 9.82786 
2 *427:6 *427:12 16.3359 
3 *427:12 *427:18 7.47064 
4 *427:18 *695:CLK 9.24915 
5 *427:18 *703:CLK 33.713 
6 *427:12 *427:44 36.3444 
7 *427:44 *427:46 1.832 
8 *427:46 *687:CLK 17.6574 
9 *427:46 *702:CLK 17.8243 
10 *427:44 *427:68 1.00149 
11 *427:68 *686:CLK 13.7491 
12 *427:68 *427:85 20.5504 
13 *427:85 *688:CLK 9.24915 
14 *427:85 *427:104 20.3564 
15 *427:104 *427:112 26.5045 
16 *427:112 *689:CLK 23.0419 
17 *427:112 *705:CLK 15.7115 
18 *427:104 *704:CLK 9.97254 
19 *427:6 *969:A 20.944 
*END

*D_NET *446 0.0172682
*CONN
*I *684:CLK I *D sky130_fd_sc_hd__edfxtp_1
*I *683:CLK I *D sky130_fd_sc_hd__edfxtp_1
*I *700:CLK I *D sky130_fd_sc_hd__edfxtp_1
*I *699:CLK I *D sky130_fd_sc_hd__edfxtp_1
*I *682:CLK I *D sky130_fd_sc_hd__edfxtp_1
*I *697:CLK I *D sky130_fd_sc_hd__edfxtp_1
*I *970:A I *D sky130_fd_sc_hd__clkbuf_1
*I *681:CLK I *D sky130_fd_sc_hd__edfxtp_1
*I *698:CLK I *D sky130_fd_sc_hd__edfxtp_1
*I *679:CLK I *D sky130_fd_sc_hd__edfxtp_1
*I *966:X O *D sky130_fd_sc_hd__clkbuf_8
*CAP
1 *684:CLK 0.000421172
2 *683:CLK 0
3 *700:CLK 0.000198027
4 *699:CLK 0
5 *682:CLK 0.000384839
6 *697:CLK 0
7 *970:A 9.40471e-05
8 *681:CLK 0.000553447
9 *698:CLK 4.7036e-05
10 *679:CLK 0
11 *966:X 2.06324e-05
12 *446:144 0.000494231
13 *446:125 0.000726777
14 *446:114 0.00125075
15 *446:56 0.00110116
16 *446:42 0.000453664
17 *446:40 0.00098788
18 *446:21 0.000780093
19 *446:12 0.000442371
20 *446:6 0.00112805
21 *681:CLK *454:16 0.000207032
22 *700:CLK *471:28 8.86374e-05
23 *970:A *456:28 0.000200664
24 *446:12 *477:14 0
25 *446:40 *1000:A 4.61908e-05
26 *446:114 *928:A 0.000128091
27 *446:114 *471:28 1.77537e-06
28 *446:114 *477:14 0
29 *446:144 *471:28 6.28484e-05
30 *504:B *681:CLK 0.00030869
31 *507:A1 *681:CLK 4.0375e-06
32 *529:B *684:CLK 9.57557e-06
33 *529:B *700:CLK 0.000185044
34 *529:B *446:144 4.46284e-06
35 *548:B *684:CLK 0.000271166
36 *550:B *684:CLK 5.20862e-05
37 *553:A2 *681:CLK 2.77419e-05
38 *564:B *681:CLK 0.000359859
39 *633:A1 *446:40 1.0758e-05
40 *635:A *446:12 5.96542e-05
41 *637:A1 *700:CLK 2.09561e-05
42 *637:A1 *446:144 1.27071e-05
43 *637:S *684:CLK 0.000229914
44 *638:A *700:CLK 3.77957e-05
45 *638:A *446:144 3.20069e-06
46 *639:A2 *446:12 0.000332039
47 *639:A2 *446:21 3.04837e-05
48 *639:A2 *446:40 3.36608e-05
49 *639:A2 *446:114 0.000436811
50 *642:A1 *684:CLK 0
51 *642:B1 *684:CLK 0.000195482
52 *655:A0 *446:114 0
53 *674:A *684:CLK 7.92757e-06
54 *679:DE *682:CLK 2.34593e-05
55 *679:DE *446:21 5.30345e-05
56 *681:D *446:56 0.000300324
57 *683:DE *684:CLK 0.000121756
58 *697:DE *446:40 0.000236807
59 *698:DE *698:CLK 6.08467e-05
60 *699:D *446:125 6.63586e-05
61 *703:D *970:A 0.000200664
62 *845:A *446:12 2.65667e-05
63 *864:A *446:21 3.00073e-05
64 *900:A *446:40 2.16355e-05
65 *902:A *681:CLK 6.08467e-05
66 *912:A *682:CLK 2.75449e-05
67 *912:A *446:40 0.000143875
68 *912:A *446:56 0.000158451
69 *7:10 *446:114 9.3667e-06
70 *23:33 *682:CLK 0.000125289
71 *45:14 *446:12 2.7961e-05
72 *45:14 *446:21 4.3116e-06
73 *77:22 *446:56 1.1718e-05
74 *84:22 *700:CLK 0.000186163
75 *102:14 *684:CLK 1.06443e-05
76 *102:14 *446:144 2.31171e-05
77 *123:18 *681:CLK 0.000308121
78 *156:10 *446:56 4.63672e-05
79 *191:10 *681:CLK 5.28741e-05
80 *196:14 *681:CLK 0.000112748
81 *196:22 *681:CLK 4.45999e-05
82 *200:8 *446:40 6.87106e-05
83 *211:6 *681:CLK 0.000542082
84 *211:6 *446:56 0.000572938
85 *213:10 *681:CLK 3.12828e-05
86 *259:315 *698:CLK 0.000271058
87 *272:12 *684:CLK 8.51933e-05
88 *280:10 *698:CLK 1.92172e-05
89 *312:37 *682:CLK 2.69233e-05
90 *312:37 *446:40 6.41036e-05
91 *312:37 *446:56 0.00010474
92 *380:22 *446:12 0
93 *380:22 *446:21 0
94 *380:22 *446:40 0.000107496
95 *386:103 *682:CLK 0
96 *392:12 *446:56 6.11872e-05
97 *430:123 *698:CLK 0.000266846
98 *430:123 *446:21 3.31882e-05
99 *430:123 *446:40 4.07907e-05
100 *436:62 *684:CLK 2.35487e-05
*RES
1 *966:X *446:6 9.82786 
2 *446:6 *446:12 13.4319 
3 *446:12 *679:CLK 13.7491 
4 *446:12 *446:21 3.90826 
5 *446:21 *698:CLK 17.2456 
6 *446:21 *446:40 22.3892 
7 *446:40 *446:42 4.5 
8 *446:42 *446:56 22.3393 
9 *446:56 *681:CLK 38.297 
10 *446:56 *970:A 22.1574 
11 *446:42 *697:CLK 9.24915 
12 *446:40 *682:CLK 22.6066 
13 *446:6 *446:114 26.0177 
14 *446:114 *699:CLK 9.24915 
15 *446:114 *446:125 11.6134 
16 *446:125 *700:CLK 25.6758 
17 *446:125 *446:144 2.24725 
18 *446:144 *683:CLK 13.7491 
19 *446:144 *684:CLK 28.9935 
*END

*D_NET *447 0.0185606
*CONN
*I *692:CLK I *D sky130_fd_sc_hd__edfxtp_1
*I *691:CLK I *D sky130_fd_sc_hd__edfxtp_1
*I *708:CLK I *D sky130_fd_sc_hd__edfxtp_1
*I *676:CLK I *D sky130_fd_sc_hd__dfxtp_4
*I *707:CLK I *D sky130_fd_sc_hd__edfxtp_1
*I *677:CLK I *D sky130_fd_sc_hd__dfxtp_1
*I *678:CLK I *D sky130_fd_sc_hd__dfxtp_1
*I *690:CLK I *D sky130_fd_sc_hd__edfxtp_1
*I *706:CLK I *D sky130_fd_sc_hd__edfxtp_1
*I *967:X O *D sky130_fd_sc_hd__clkbuf_8
*CAP
1 *692:CLK 0.000608677
2 *691:CLK 0.000313496
3 *708:CLK 0
4 *676:CLK 2.3034e-05
5 *707:CLK 0
6 *677:CLK 6.41207e-05
7 *678:CLK 0
8 *690:CLK 0
9 *706:CLK 0.000262353
10 *967:X 0.000847151
11 *447:99 0.00168181
12 *447:88 0.00117817
13 *447:54 0.000121026
14 *447:36 0.000420919
15 *447:34 0.000215471
16 *447:32 0.00121903
17 *447:24 0.00168717
18 *447:18 0.0017108
19 *691:CLK *946:A 1.5714e-05
20 *447:88 *596:B 6.11872e-05
21 req_rdy *677:CLK 4.38177e-05
22 resp_msg[6] *691:CLK 0.000266051
23 *492:B1 *447:18 0.000368069
24 *546:B *692:CLK 2.58757e-05
25 *572:A *447:18 0.000379756
26 *572:B *447:18 8.25154e-06
27 *616:A1 *691:CLK 6.38219e-05
28 *617:A *447:18 7.14746e-05
29 *617:A *447:88 0.0004337
30 *624:A2 *692:CLK 1.00901e-05
31 *624:B1 *692:CLK 0.000265046
32 *649:A1 *677:CLK 0
33 *650:S *691:CLK 0.000131782
34 *677:D *677:CLK 1.18084e-05
35 *678:D *677:CLK 3.67708e-05
36 *678:D *706:CLK 0.000339008
37 *678:D *447:36 0.000607289
38 *678:D *447:54 0.000177772
39 *690:DE *706:CLK 0.000669757
40 *690:DE *447:36 4.16614e-05
41 *707:D *447:32 5.93747e-05
42 *838:A *706:CLK 2.02035e-05
43 *840:A *691:CLK 0
44 *840:A *692:CLK 0.000208606
45 *852:A *706:CLK 0.000107287
46 *853:A *677:CLK 0.000199091
47 *853:A *447:36 0.000558996
48 *853:A *447:54 0.000182322
49 *854:A *691:CLK 9.72662e-06
50 *858:A *447:18 8.62625e-06
51 *911:A *447:18 1.94615e-05
52 *948:A *447:18 1.29348e-05
53 *948:A *447:88 0
54 *952:A *447:88 2.43211e-05
55 *967:A *447:18 1.26207e-06
56 *998:A *692:CLK 0.000111658
57 *13:26 *447:32 8.51541e-05
58 *41:12 *447:88 6.27718e-05
59 *41:12 *447:99 0.000117627
60 *60:12 *706:CLK 0
61 *62:22 *447:18 7.37827e-05
62 *66:14 *692:CLK 5.57875e-05
63 *69:16 *692:CLK 1.60259e-05
64 *103:12 *447:18 0
65 *103:12 *447:24 0.000152885
66 *109:20 *447:18 8.79845e-05
67 *113:10 *447:88 7.92757e-06
68 *265:16 *447:32 6.28371e-05
69 *385:16 *447:18 0.000197364
70 *385:16 *447:24 2.33852e-05
71 *385:16 *447:32 9.87648e-05
72 *391:10 *447:18 0.000178954
73 *391:31 *447:18 5.74864e-05
74 *429:83 *447:18 0.000105358
75 *433:32 *447:88 0.000111677
76 *444:48 *447:18 0.000398075
77 *444:103 *692:CLK 0.000760938
*RES
1 *967:X *447:18 46.4181 
2 *447:18 *447:24 11.3481 
3 *447:24 *447:32 20.3274 
4 *447:32 *447:34 4.5 
5 *447:34 *447:36 10.5523 
6 *447:36 *706:CLK 26.7929 
7 *447:36 *690:CLK 13.7491 
8 *447:34 *447:54 3.07775 
9 *447:54 *678:CLK 13.7491 
10 *447:54 *677:CLK 17.2421 
11 *447:32 *707:CLK 9.24915 
12 *447:24 *676:CLK 9.82786 
13 *447:18 *447:88 17.1664 
14 *447:88 *708:CLK 9.24915 
15 *447:88 *447:99 12.2736 
16 *447:99 *691:CLK 27.4702 
17 *447:99 *692:CLK 28.2986 
*END

*D_NET *448 0.0218434
*CONN
*I *710:CLK I *D sky130_fd_sc_hd__edfxtp_1
*I *694:CLK I *D sky130_fd_sc_hd__edfxtp_1
*I *709:CLK I *D sky130_fd_sc_hd__edfxtp_1
*I *696:CLK I *D sky130_fd_sc_hd__edfxtp_1
*I *680:CLK I *D sky130_fd_sc_hd__edfxtp_1
*I *701:CLK I *D sky130_fd_sc_hd__edfxtp_1
*I *693:CLK I *D sky130_fd_sc_hd__edfxtp_1
*I *685:CLK I *D sky130_fd_sc_hd__edfxtp_1
*I *971:A I *D sky130_fd_sc_hd__clkbuf_1
*I *968:X O *D sky130_fd_sc_hd__clkbuf_8
*CAP
1 *710:CLK 0.000147133
2 *694:CLK 0.000126551
3 *709:CLK 0.000526061
4 *696:CLK 0.000439809
5 *680:CLK 3.90968e-05
6 *701:CLK 4.89564e-05
7 *693:CLK 0.00155466
8 *685:CLK 0.00015043
9 *971:A 0
10 *968:X 0.000154198
11 *448:129 0.000991449
12 *448:112 0.00157499
13 *448:43 0.0019772
14 *448:35 0.00081152
15 *448:27 0.000568063
16 *448:23 0.000970681
17 *448:19 0.001239
18 *448:6 0.000569683
19 *448:35 *455:24 0.000116986
20 *516:A1 *693:CLK 4.31485e-06
21 *535:A *696:CLK 9.45098e-05
22 *538:C *448:112 0.000112672
23 *539:B *448:19 0.000571636
24 *540:A *696:CLK 0.000135706
25 *540:A *448:23 0.000436603
26 *542:B *710:CLK 0.000381086
27 *543:B *710:CLK 3.01683e-06
28 *543:B *448:129 3.82228e-05
29 *588:A1 *693:CLK 1.89355e-06
30 *588:A2 *448:27 1.27433e-05
31 *588:A2 *448:35 5.93269e-06
32 *588:B1 *448:43 0.000290785
33 *619:S *709:CLK 0.000144531
34 *627:B1 *680:CLK 2.41274e-06
35 *627:B1 *448:27 5.28189e-05
36 *627:B1 *448:35 7.07762e-05
37 *675:A1 *693:CLK 0.000184619
38 *693:D *693:CLK 9.12416e-06
39 *709:D *448:112 4.15008e-05
40 *721:A *448:19 6.50586e-05
41 *721:B *448:19 6.36607e-05
42 *721:B *448:112 0.000100209
43 *727:A *448:35 0.000200794
44 *727:A *448:43 1.55025e-05
45 *731:A2 *448:35 2.5628e-05
46 *733:B *448:35 2.26985e-05
47 *744:A *709:CLK 0.000148144
48 *745:A1 *693:CLK 0.00023402
49 *754:C1 *685:CLK 2.83896e-05
50 *893:A *693:CLK 2.27135e-05
51 *105:34 *693:CLK 0.000200322
52 *105:34 *448:23 0.000162119
53 *157:18 *701:CLK 2.65831e-05
54 *171:16 *448:112 0
55 *179:58 *448:43 0.000113199
56 *180:26 *448:23 4.55646e-06
57 *182:30 *448:23 0.000118242
58 *252:20 *448:43 1.74447e-05
59 *262:10 *448:19 8.94855e-05
60 *265:12 *448:112 7.52031e-05
61 *265:16 *709:CLK 1.03403e-05
62 *265:27 *448:112 2.38092e-05
63 *319:36 *693:CLK 5.65314e-05
64 *322:10 *448:19 0.000201184
65 *322:10 *448:112 0.000334926
66 *337:22 *685:CLK 1.25664e-05
67 *337:22 *448:43 6.97351e-05
68 *340:40 *693:CLK 2.90716e-05
69 *345:24 *693:CLK 3.3753e-05
70 *358:20 *448:19 1.75156e-05
71 *358:20 *448:112 7.69594e-06
72 *362:16 *685:CLK 1.55681e-05
73 *362:16 *448:43 1.92925e-05
74 *375:26 *693:CLK 0.000260321
75 *386:41 *694:CLK 0.000223471
76 *386:60 *696:CLK 0.000443822
77 *386:101 *693:CLK 0.000533715
78 *395:20 *696:CLK 0.00010762
79 *395:20 *710:CLK 6.08467e-05
80 *399:80 *694:CLK 0.000226425
81 *407:22 *685:CLK 8.36586e-06
82 *426:56 *696:CLK 6.86234e-05
83 *426:56 *448:23 0.000578524
84 *431:44 *709:CLK 0.000200794
85 *431:73 *709:CLK 0.000445704
86 *431:73 *710:CLK 0.00038802
87 *431:73 *448:129 0.00081866
88 *444:126 *696:CLK 9.04141e-05
89 *444:149 *448:35 6.96797e-05
90 *444:172 *693:CLK 0.000151062
*RES
1 *968:X *448:6 12.191 
2 *448:6 *971:A 9.24915 
3 *448:6 *448:19 16.4286 
4 *448:19 *448:23 4.94847 
5 *448:23 *448:27 4.5779 
6 *448:27 *448:35 15.5242 
7 *448:35 *448:43 13.3794 
8 *448:43 *685:CLK 16.8097 
9 *448:43 *693:CLK 25.2822 
10 *448:35 *701:CLK 10.5271 
11 *448:27 *680:CLK 14.4725 
12 *448:23 *696:CLK 23.3708 
13 *448:19 *448:112 15.6752 
14 *448:112 *709:CLK 29.0137 
15 *448:112 *448:129 11.8155 
16 *448:129 *694:CLK 22.5727 
17 *448:129 *710:CLK 16.2299 
*END

*D_NET *128 0.00346688
*CONN
*I *599:A I *D sky130_fd_sc_hd__nand2_1
*I *832:X O *D sky130_fd_sc_hd__clkdlybuf4s50_1
*CAP
1 *599:A 0
2 *832:X 0.000838093
3 *128:16 0.000838093
4 *128:16 *512:B 5.29993e-05
5 *128:16 *567:B 0.00058832
6 *128:16 *932:A 0.000111722
7 *128:16 *196:14 8.64186e-05
8 *128:16 *199:22 8.62625e-06
9 *128:16 *312:37 0.000162695
10 *128:16 *333:29 4.77834e-05
11 *984:A *128:16 0.000591861
12 *17:10 *128:16 0.000140264
*RES
1 *832:X *128:16 41.9134 
2 *128:16 *599:A 9.24915 
*END

*D_NET *129 0.00494755
*CONN
*I *602:A I *D sky130_fd_sc_hd__nand2_1
*I *833:X O *D sky130_fd_sc_hd__clkdlybuf4s50_1
*CAP
1 *602:A 0
2 *833:X 0.00155924
3 *129:14 0.00155924
4 *129:14 resp_msg[1] 0
5 *129:14 *504:A 0.000113837
6 *129:14 *504:B 0.000118166
7 *129:14 *562:B 0.0001036
8 *129:14 *601:S 7.8665e-05
9 *129:14 *644:A0 0.000911134
10 *129:14 *644:S 0.000104828
11 *129:14 *868:A 6.82304e-06
12 *129:14 *186:16 0.00035517
13 *129:14 *393:20 2.52287e-06
14 *603:A2 *129:14 2.01874e-05
15 *702:D *129:14 1.41291e-05
*RES
1 *833:X *129:14 48.4057 
2 *129:14 *602:A 9.24915 
*END

*D_NET *130 0.00036998
*CONN
*I *605:A I *D sky130_fd_sc_hd__nand2_1
*I *834:X O *D sky130_fd_sc_hd__clkdlybuf4s50_1
*CAP
1 *605:A 5.77893e-05
2 *834:X 5.77893e-05
3 *605:A *605:B 0.000227673
4 *605:A *663:B 7.92757e-06
5 *606:B1 *605:A 1.88014e-05
*RES
1 *834:X *605:A 20.9096 
*END

*D_NET *131 0.00261525
*CONN
*I *608:A I *D sky130_fd_sc_hd__nand2_1
*I *835:X O *D sky130_fd_sc_hd__clkdlybuf4s50_1
*CAP
1 *608:A 0
2 *835:X 0.000785729
3 *131:22 0.000785729
4 *131:22 *509:B 6.11447e-06
5 *131:22 *511:A 0.000325676
6 *131:22 *561:A 8.67924e-06
7 *131:22 *644:A1 3.50791e-05
8 *131:22 *194:10 8.29388e-05
9 *131:22 *427:44 0.000122714
10 *131:22 *427:104 0
11 *131:22 *438:74 4.15517e-05
12 *131:22 *449:20 9.46392e-05
13 *609:B1 *131:22 0.000129014
14 *687:D *131:22 0.000103428
15 *34:8 *131:22 7.16794e-05
16 *52:18 *131:22 2.22788e-05
*RES
1 *835:X *131:22 42.8419 
2 *131:22 *608:A 9.24915 
*END

*D_NET *132 0.00171296
*CONN
*I *644:A1 I *D sky130_fd_sc_hd__mux2_4
*I *836:X O *D sky130_fd_sc_hd__clkdlybuf4s50_1
*CAP
1 *644:A1 0.000524025
2 *836:X 0.000524025
3 *644:A1 *602:B 0
4 *644:A1 *163:10 5.3915e-05
5 *644:A1 *194:10 1.83992e-05
6 *644:A1 *309:19 0.000271763
7 *556:C *644:A1 0.000105851
8 *687:D *644:A1 0
9 *702:D *644:A1 0.000159185
10 *51:14 *644:A1 2.07212e-05
11 *131:22 *644:A1 3.50791e-05
*RES
1 *836:X *644:A1 42.514 
*END

*D_NET *430 0.0346144
*CONN
*I *707:DE I *D sky130_fd_sc_hd__edfxtp_1
*I *705:DE I *D sky130_fd_sc_hd__edfxtp_1
*I *697:DE I *D sky130_fd_sc_hd__edfxtp_1
*I *698:DE I *D sky130_fd_sc_hd__edfxtp_1
*I *699:DE I *D sky130_fd_sc_hd__edfxtp_1
*I *700:DE I *D sky130_fd_sc_hd__edfxtp_1
*I *703:DE I *D sky130_fd_sc_hd__edfxtp_1
*I *695:DE I *D sky130_fd_sc_hd__edfxtp_1
*I *702:DE I *D sky130_fd_sc_hd__edfxtp_1
*I *704:DE I *D sky130_fd_sc_hd__edfxtp_1
*I *706:DE I *D sky130_fd_sc_hd__edfxtp_1
*I *950:X O *D sky130_fd_sc_hd__buf_12
*CAP
1 *707:DE 0.00179252
2 *705:DE 0.000240957
3 *697:DE 0.000281405
4 *698:DE 0.000136743
5 *699:DE 7.24194e-05
6 *700:DE 0.000188574
7 *703:DE 0
8 *695:DE 0
9 *702:DE 0.000241099
10 *704:DE 0.000141272
11 *706:DE 0.0010143
12 *950:X 0.00125975
13 *430:137 0.00101161
14 *430:123 0.000965525
15 *430:117 0.00113449
16 *430:94 0.00120241
17 *430:79 0.00147062
18 *430:62 0.00184175
19 *430:45 0.00133232
20 *430:22 0.00186443
21 *430:20 0.00209221
22 *430:14 0.00468693
23 *697:DE *1000:A 7.03112e-06
24 *697:DE *446:40 0.000236807
25 *698:DE *698:CLK 6.08467e-05
26 *700:DE *471:28 2.99978e-05
27 *705:DE *506:A 0
28 *705:DE *451:22 2.82571e-05
29 *706:DE *445:18 9.46826e-05
30 *706:DE *464:80 7.41045e-05
31 *707:DE *659:A2 0.00010096
32 *707:DE *473:30 1.5714e-05
33 *430:14 *618:A1 1.03445e-05
34 *430:14 *431:36 3.61045e-05
35 *430:14 *464:34 2.12511e-05
36 *430:14 *464:45 1.43989e-05
37 *430:20 *659:A2 8.39897e-05
38 *430:20 *464:80 4.13955e-05
39 *430:22 *464:80 5.13467e-05
40 *430:45 *506:A 0.00011171
41 *430:45 *646:S 6.93171e-05
42 *430:62 *609:A1 0.000269151
43 *430:62 *445:50 7.48886e-05
44 *430:62 *445:59 0.000189244
45 *430:62 *449:20 0
46 *430:79 *604:S 0.000167076
47 *430:94 *605:B 0.00044536
48 *430:94 *663:C 0.000111097
49 *430:117 *654:S 2.65667e-05
50 *430:117 *474:90 1.5613e-05
51 *430:123 *698:CLK 0.000266846
52 *430:123 *446:21 3.31882e-05
53 *430:123 *446:40 4.07907e-05
54 *430:137 *639:A2 7.84969e-05
55 *430:137 *477:14 0
56 req_rdy *707:DE 8.13812e-06
57 resp_val *707:DE 2.06526e-05
58 *500:A *430:94 3.82228e-05
59 *500:B *430:94 1.31867e-05
60 *503:A2 *430:20 0.000218272
61 *526:A *698:DE 9.75243e-05
62 *526:A *430:123 0.000317707
63 *552:B1 *430:45 7.12632e-06
64 *556:C *702:DE 0.000125274
65 *556:C *430:79 2.23124e-05
66 *568:B *704:DE 1.31764e-05
67 *575:A *430:14 0
68 *609:B1 *430:62 0.000486699
69 *632:A *430:94 2.65831e-05
70 *634:A0 *697:DE 7.11974e-05
71 *636:A1 *697:DE 1.32198e-05
72 *639:A1 *699:DE 5.35634e-05
73 *643:A1 *430:117 0.000160617
74 *647:A1 *706:DE 2.01503e-05
75 *655:A0 *430:137 0.000211492
76 *658:B *707:DE 0.000250908
77 *658:B *430:14 0
78 *659:C1 *430:20 7.50869e-05
79 *663:A *430:94 8.02736e-05
80 *663:B *430:94 2.61028e-05
81 *663:D *430:14 6.11992e-05
82 *663:D *430:20 3.42824e-05
83 *663:D *430:94 0.000114679
84 *671:A1 *707:DE 1.31864e-05
85 *679:DE *697:DE 0.000494694
86 *679:DE *430:123 7.75615e-05
87 *695:D *430:79 6.08467e-05
88 *695:D *430:94 8.41713e-05
89 *697:D *697:DE 3.39728e-05
90 *698:D *698:DE 4.14045e-05
91 *698:D *700:DE 6.50586e-05
92 *698:D *430:137 1.92336e-05
93 *699:D *699:DE 3.44641e-05
94 *703:D *430:94 3.14375e-05
95 *703:CLK *430:79 2.42886e-05
96 *704:D *704:DE 5.044e-05
97 *705:D *705:DE 0.000136279
98 *705:CLK *705:DE 6.64392e-05
99 *707:D *707:DE 3.44641e-05
100 *838:A *706:DE 0
101 *851:A *706:DE 0.000129493
102 *864:A *430:137 5.05252e-05
103 *872:A *430:45 1.5714e-05
104 *923:A *430:45 8.03699e-06
105 *923:A *430:62 7.92249e-05
106 *926:A *430:62 8.16827e-05
107 *936:A *430:14 3.70787e-05
108 *942:A *430:62 1.41629e-05
109 *1006:A *430:45 0.000140436
110 *1006:A *430:62 0.000101154
111 *13:26 *707:DE 2.82027e-05
112 *15:20 *705:DE 9.1894e-05
113 *16:6 *704:DE 1.99543e-06
114 *17:10 *430:117 0.000209624
115 *18:6 *430:79 5.4353e-05
116 *19:10 *430:117 0.000251669
117 *30:12 *430:45 0.000127164
118 *31:37 *430:45 0.000218887
119 *31:37 *430:62 6.42282e-05
120 *35:16 *430:137 0.000219883
121 *57:14 *706:DE 2.05821e-05
122 *60:12 *706:DE 0.000124882
123 *61:26 *430:14 1.66771e-05
124 *84:22 *699:DE 0.000123597
125 *84:22 *430:137 6.80985e-05
126 *93:24 *706:DE 8.37933e-05
127 *102:14 *700:DE 6.7319e-05
128 *109:20 *430:14 0
129 *120:32 *707:DE 0
130 *163:10 *430:62 0
131 *166:12 *430:45 5.65971e-05
132 *167:22 *430:20 0.000439854
133 *167:22 *430:22 0.000252003
134 *199:22 *430:117 0.000200806
135 *259:94 *430:45 0
136 *259:298 *430:117 0.000519364
137 *259:315 *430:117 0.000154145
138 *259:315 *430:123 1.65872e-05
139 *280:10 *698:DE 2.86204e-05
140 *365:16 *430:45 2.83564e-05
141 *404:68 *430:14 0.00016127
142 *404:68 *430:20 6.57246e-05
143 *405:22 *430:79 0.000151462
144 *420:18 *430:45 0.000411912
145 *427:18 *430:79 2.65667e-05
146 *427:112 *430:45 5.72538e-05
*RES
1 *950:X *430:14 20.5183 
2 *430:14 *430:20 3.90822 
3 *430:20 *430:22 0.508826 
4 *430:22 *706:DE 27.3563 
5 *430:22 *430:45 23.3375 
6 *430:45 *704:DE 16.5918 
7 *430:45 *430:62 22.8444 
8 *430:62 *702:DE 15.8984 
9 *430:62 *430:79 20.0984 
10 *430:79 *695:DE 9.24915 
11 *430:79 *430:94 21.4652 
12 *430:94 *703:DE 9.24915 
13 *430:94 *430:117 31.6531 
14 *430:117 *430:123 9.41316 
15 *430:123 *430:137 29.8104 
16 *430:137 *700:DE 14.3491 
17 *430:137 *699:DE 20.9003 
18 *430:123 *698:DE 13.1133 
19 *430:117 *697:DE 23.8748 
20 *430:20 *705:DE 23.8522 
21 *430:14 *707:DE 22.1207 
*END

*D_NET *431 0.0182965
*CONN
*I *708:DE I *D sky130_fd_sc_hd__edfxtp_1
*I *696:DE I *D sky130_fd_sc_hd__edfxtp_1
*I *701:DE I *D sky130_fd_sc_hd__edfxtp_1
*I *710:DE I *D sky130_fd_sc_hd__edfxtp_1
*I *709:DE I *D sky130_fd_sc_hd__edfxtp_1
*I *951:X O *D sky130_fd_sc_hd__buf_6
*CAP
1 *708:DE 0.000632513
2 *696:DE 1.65908e-05
3 *701:DE 0.000403707
4 *710:DE 0
5 *709:DE 0.00011087
6 *951:X 0.00118972
7 *431:84 0.00068307
8 *431:73 0.00101646
9 *431:44 0.00139443
10 *431:36 0.00201909
11 *431:22 0.00204642
12 *708:DE *946:A 0.000179533
13 *431:22 *665:A 0
14 *431:22 *736:D 0.000194099
15 *431:36 *616:S 0.000241998
16 *431:36 *665:A 0
17 *431:44 *709:CLK 0.000200794
18 *431:44 *433:32 6.08467e-05
19 *431:73 *709:CLK 0.000445704
20 *431:73 *710:CLK 0.00038802
21 *431:73 *448:129 0.00081866
22 resp_msg[6] *431:36 4.55536e-05
23 resp_msg[7] *708:DE 9.22701e-05
24 resp_msg[7] *431:36 0.000261479
25 *495:B *431:22 2.81147e-06
26 *535:A *701:DE 7.35986e-05
27 *535:A *431:84 4.10825e-05
28 *542:B *431:73 6.47764e-05
29 *542:B *431:84 1.69178e-06
30 *543:A *431:73 6.08467e-05
31 *543:B *431:73 3.6083e-05
32 *579:B *431:22 4.24629e-05
33 *581:A *431:22 0.00025175
34 *595:A0 *701:DE 0.000585287
35 *616:A1 *431:36 3.0281e-05
36 *621:A2 *708:DE 1.8764e-05
37 *621:A2 *431:36 2.81461e-05
38 *629:A *431:84 0
39 *650:A1 *431:36 5.01835e-05
40 *650:S *431:44 3.20295e-05
41 *651:A0 *431:73 4.77852e-05
42 *651:S *431:73 5.01797e-05
43 *696:D *696:DE 3.44641e-05
44 *701:D *701:DE 0.000596188
45 *709:D *709:DE 3.39728e-05
46 *709:D *431:73 0.000160617
47 *710:D *431:73 0.000147777
48 *591:A *431:36 0.000567547
49 *854:A *708:DE 0
50 *881:A *708:DE 1.50539e-05
51 *934:A *431:73 4.58003e-05
52 *938:A *431:22 9.81288e-06
53 *960:A *431:22 8.23171e-06
54 *985:A *431:22 2.20471e-05
55 *12:16 *708:DE 1.96152e-05
56 *12:16 *431:36 1.77537e-06
57 *28:22 *431:36 2.22705e-05
58 *33:33 *431:36 0
59 *36:8 *701:DE 9.87052e-06
60 *41:12 *708:DE 8.54933e-05
61 *41:20 *708:DE 1.84122e-06
62 *61:26 *431:22 0.000137198
63 *61:26 *431:36 5.81611e-05
64 *63:22 *431:22 3.26582e-06
65 *65:20 *431:44 0.000316843
66 *74:18 *431:84 0
67 *75:14 *701:DE 7.16357e-05
68 *75:14 *431:84 0.000156127
69 *95:26 *431:36 3.73178e-05
70 *120:32 *431:22 3.67267e-05
71 *169:18 *431:36 0.000169168
72 *170:51 *431:36 0
73 *182:30 *709:DE 7.34021e-05
74 *242:25 *431:22 0.000141071
75 *363:26 *431:22 4.40735e-05
76 *395:20 *431:73 6.08467e-05
77 *414:8 *431:73 1.05373e-05
78 *415:20 *709:DE 0.00018742
79 *418:14 *431:22 0.000254711
80 *426:42 *431:44 0.000711888
81 *426:42 *431:73 0.000117097
82 *429:19 *431:22 1.39253e-05
83 *429:29 *431:22 1.70226e-05
84 *430:14 *431:36 3.61045e-05
*RES
1 *951:X *431:22 37.5969 
2 *431:22 *431:36 27.4492 
3 *431:36 *431:44 20.2459 
4 *431:44 *709:DE 22.146 
5 *431:44 *431:73 28.9419 
6 *431:73 *710:DE 9.24915 
7 *431:73 *431:84 11.7189 
8 *431:84 *701:DE 29.7153 
9 *431:84 *696:DE 14.153 
10 *431:36 *708:DE 26.0558 
*END

*D_NET *359 0.00440966
*CONN
*I *640:A1 I *D sky130_fd_sc_hd__mux2i_1
*I *879:X O *D sky130_fd_sc_hd__buf_4
*CAP
1 *640:A1 0
2 *879:X 0.00132929
3 *359:26 0.00132929
4 *359:26 *515:A1 0
5 *359:26 *515:A2 0.000311339
6 *359:26 *640:A0 2.26985e-05
7 *359:26 *684:DE 0
8 *359:26 *379:20 2.02035e-05
9 *359:26 *426:66 0.000164818
10 *359:26 *436:31 8.72115e-06
11 *359:26 *444:172 1.51922e-05
12 resp_msg[13] *359:26 0.000160047
13 *530:B *359:26 2.85505e-05
14 *641:A *359:26 4.75571e-06
15 *657:A0 *359:26 0
16 *865:A *359:26 0.000478298
17 *20:23 *359:26 0
18 *256:14 *359:26 0.000373715
19 *274:10 *359:26 0.000162739
20 *278:16 *359:26 0
*RES
1 *879:X *359:26 49.964 
2 *359:26 *640:A1 9.24915 
*END

*D_NET *433 0.00460015
*CONN
*I *616:S I *D sky130_fd_sc_hd__mux2i_1
*I *953:X O *D sky130_fd_sc_hd__buf_4
*CAP
1 *616:S 0.000323482
2 *953:X 0.000703885
3 *433:32 0.00102737
4 *616:S *619:A1 0.000333264
5 *616:S *691:DE 1.09101e-05
6 *433:32 *596:B 0.000103139
7 *433:32 *619:A1 5.22483e-05
8 *433:32 *946:A 8.33074e-05
9 *433:32 *447:88 0.000111677
10 resp_msg[7] *616:S 0.000109163
11 *596:A *433:32 0.00020502
12 *621:A2 *433:32 0.000165731
13 *650:A0 *616:S 0.000141537
14 *650:S *433:32 0.000200794
15 *952:A *433:32 4.42462e-05
16 *65:20 *433:32 0.000298303
17 *66:14 *433:32 1.88152e-05
18 *113:10 *433:32 0.000110458
19 *170:51 *616:S 5.23577e-05
20 *355:26 *616:S 0.000129063
21 *374:20 *433:32 4.59646e-05
22 *431:36 *616:S 0.000241998
23 *431:44 *433:32 6.08467e-05
24 *432:18 *433:32 2.65667e-05
*RES
1 *953:X *433:32 46.0713 
2 *433:32 *616:S 24.7489 
*END

*D_NET *434 0.00733107
*CONN
*I *625:S I *D sky130_fd_sc_hd__mux2i_1
*I *622:S I *D sky130_fd_sc_hd__mux2i_1
*I *619:S I *D sky130_fd_sc_hd__mux2i_1
*I *954:X O *D sky130_fd_sc_hd__buf_6
*CAP
1 *625:S 0.00114211
2 *622:S 0.00123239
3 *619:S 0.000722431
4 *954:X 3.64453e-05
5 *434:6 0.000849164
6 *619:S *620:B 0.000142128
7 *619:S *709:CLK 0.000144531
8 *619:S *443:18 0.000464143
9 *619:S *444:63 1.67988e-05
10 *619:S *475:18 0.000545083
11 *625:S *630:A1 2.02035e-05
12 *744:A *619:S 8.69732e-05
13 *855:A *622:S 0.000195438
14 *855:A *434:6 0.000112361
15 *937:A *619:S 9.95922e-06
16 *998:A *619:S 5.1674e-06
17 *27:24 *625:S 0
18 *28:14 *619:S 2.99711e-05
19 *28:22 *619:S 2.57847e-05
20 *65:20 *619:S 6.78364e-06
21 *105:34 *619:S 5.78282e-05
22 *136:24 *619:S 2.99287e-05
23 *170:51 *622:S 3.91078e-05
24 *170:51 *434:6 6.88798e-05
25 *386:16 *622:S 0.00065493
26 *386:16 *434:6 0.000264707
27 *398:12 *625:S 0
28 *398:16 *625:S 0
29 *399:80 *622:S 0.000362216
30 *415:20 *619:S 1.31872e-05
31 *417:14 *619:S 5.24138e-05
*RES
1 *954:X *434:6 12.191 
2 *434:6 *619:S 42.2375 
3 *434:6 *622:S 16.6278 
4 *622:S *625:S 37.0317 
*END

*D_NET *133 0.00257764
*CONN
*I *611:A I *D sky130_fd_sc_hd__nand2_1
*I *837:X O *D sky130_fd_sc_hd__clkdlybuf4s50_1
*CAP
1 *611:A 0.000752028
2 *837:X 0.000752028
3 *611:A *611:B 0.000142927
4 *611:A *647:S 8.36586e-06
5 *611:A *165:20 0
6 *611:A *166:33 0.000187118
7 *611:A *404:14 0.000258216
8 *923:A *611:A 5.21276e-05
9 *15:22 *611:A 0.000182869
10 *52:18 *611:A 0.000140207
11 *57:14 *611:A 0.000101756
*RES
1 *837:X *611:A 49.2974 
*END

*D_NET *435 0.0160975
*CONN
*I *607:S I *D sky130_fd_sc_hd__mux2i_1
*I *604:S I *D sky130_fd_sc_hd__mux2i_1
*I *598:S I *D sky130_fd_sc_hd__mux2i_1
*I *601:S I *D sky130_fd_sc_hd__mux2i_1
*I *955:X O *D sky130_fd_sc_hd__buf_6
*CAP
1 *607:S 0
2 *604:S 2.08357e-05
3 *598:S 0.00064928
4 *601:S 0.000130799
5 *955:X 0.00134496
6 *435:71 0.00082385
7 *435:18 0.000986221
8 *435:16 0.000717025
9 *435:14 0.00265886
10 *598:S *644:S 0.00100978
11 *598:S *474:90 0.00128303
12 *435:16 *510:A 0.00020074
13 *435:16 *438:34 0.000100487
14 *435:71 *445:20 6.71656e-05
15 *435:71 *449:20 9.14834e-05
16 *499:B *598:S 2.26772e-05
17 *505:B *435:71 0.000104623
18 *512:B *435:14 1.03403e-05
19 *555:A1 *435:71 5.68225e-06
20 *556:B *598:S 5.49244e-05
21 *556:B *435:16 0.000408351
22 *556:B *435:18 8.11083e-05
23 *566:A *435:14 0.000113478
24 *569:A *435:71 0.000111722
25 *569:B *435:71 0.000150423
26 *647:A1 *435:71 0.000138696
27 *663:A *598:S 0.000324234
28 *834:A *435:18 0.000212491
29 *871:A *435:71 5.80004e-05
30 *890:A *435:16 0.000209424
31 *890:A *435:71 0.000158917
32 *902:A *435:16 0.000166334
33 *902:A *435:71 0.000262507
34 *16:6 *435:14 7.60121e-05
35 *32:22 *435:16 3.91205e-05
36 *32:22 *435:18 3.74182e-05
37 *90:16 *435:14 0.000841137
38 *107:26 *598:S 1.75765e-05
39 *129:14 *601:S 7.8665e-05
40 *165:20 *435:71 8.36586e-06
41 *166:12 *435:71 1.56e-05
42 *199:22 *598:S 6.24258e-05
43 *202:14 *435:16 0.000141634
44 *204:12 *435:18 0
45 *204:22 *435:18 9.90599e-06
46 *214:8 *435:71 0.00117142
47 *259:267 *598:S 6.61551e-05
48 *380:22 *598:S 0.000113968
49 *382:14 *435:71 6.08467e-05
50 *405:22 *604:S 0.000167076
51 *412:14 *598:S 0.000283542
52 *422:42 *435:16 6.1128e-05
53 *430:79 *604:S 0.000167076
*RES
1 *955:X *435:14 37.5489 
2 *435:14 *435:16 17.6116 
3 *435:16 *435:18 5.98452 
4 *435:18 *601:S 17.2456 
5 *435:18 *598:S 25.5151 
6 *435:16 *604:S 15.5817 
7 *435:14 *435:71 43.5752 
8 *435:71 *607:S 9.24915 
*END

*D_NET *436 0.0118617
*CONN
*I *634:S I *D sky130_fd_sc_hd__mux2i_1
*I *637:S I *D sky130_fd_sc_hd__mux2i_1
*I *631:S I *D sky130_fd_sc_hd__mux2i_4
*I *628:S I *D sky130_fd_sc_hd__mux2i_2
*I *673:S I *D sky130_fd_sc_hd__mux2i_1
*I *640:S I *D sky130_fd_sc_hd__mux2i_1
*I *956:X O *D sky130_fd_sc_hd__buf_12
*CAP
1 *634:S 0.000229145
2 *637:S 0.000196156
3 *631:S 0.00045132
4 *628:S 0.000170612
5 *673:S 0.000319296
6 *640:S 0.000573811
7 *956:X 0.000464593
8 *436:62 0.000664861
9 *436:31 0.00115296
10 *436:8 0.00145492
11 *637:S *684:CLK 0.000229914
12 *436:8 *536:B 6.0406e-05
13 *436:8 *863:A 3.02384e-05
14 *436:8 *459:22 0.00060469
15 *436:31 *866:A 0
16 *436:62 *684:CLK 2.35487e-05
17 *515:A2 *436:31 0.000469425
18 *515:B1 *436:31 2.58616e-05
19 *515:B2 *436:31 4.34034e-05
20 *519:B1 *436:31 1.63535e-05
21 *523:B *673:S 3.99086e-06
22 *529:B *637:S 5.91179e-05
23 *533:B *637:S 6.08467e-05
24 *534:A *436:31 0
25 *550:B *631:S 5.37077e-05
26 *550:B *637:S 0.000124342
27 *550:B *436:62 0.000138334
28 *595:A0 *628:S 0.000123523
29 *595:A0 *436:31 3.33981e-05
30 *633:A1 *634:S 0.000160942
31 *637:A0 *436:62 0
32 *640:A0 *436:62 3.87022e-06
33 *641:A *436:62 3.57931e-05
34 *642:A2 *436:62 6.27782e-05
35 *642:B1 *436:62 0.000120749
36 *657:A1 *640:S 1.55025e-05
37 *961:A *673:S 2.68139e-05
38 *982:A *436:8 7.50991e-05
39 *993:A *436:31 8.92483e-05
40 *1010:A *436:31 0.000200221
41 *158:22 *436:8 2.08274e-05
42 *159:18 *634:S 0.000112361
43 *253:8 *673:S 0.000308582
44 *257:22 *640:S 0.000211263
45 *257:22 *436:31 8.72115e-06
46 *258:12 *436:8 0.00121777
47 *258:12 *436:31 0.000196656
48 *259:315 *631:S 3.64168e-05
49 *259:315 *634:S 0.000108207
50 *259:326 *631:S 8.27643e-05
51 *259:326 *637:S 1.83294e-06
52 *272:12 *640:S 0.000507057
53 *272:12 *436:8 1.03403e-05
54 *272:12 *436:31 3.17509e-05
55 *274:10 *436:31 0.00029294
56 *278:31 *436:31 8.13615e-05
57 *359:26 *436:31 8.72115e-06
58 *379:20 *436:62 8.36586e-06
59 *386:60 *628:S 3.6928e-05
60 *386:70 *628:S 9.03462e-06
*RES
1 *956:X *436:8 27.1894 
2 *436:8 *640:S 29.3883 
3 *436:8 *436:31 26.7949 
4 *436:31 *673:S 19.3434 
5 *436:31 *628:S 18.9032 
6 *640:S *436:62 20.7358 
7 *436:62 *631:S 19.9109 
8 *436:62 *637:S 28.8392 
9 *631:S *634:S 25.3464 
*END

*D_NET *361 0.00302946
*CONN
*I *616:A1 I *D sky130_fd_sc_hd__mux2i_1
*I *881:X O *D sky130_fd_sc_hd__buf_4
*CAP
1 *616:A1 0.000658297
2 *881:X 0.000658297
3 *616:A1 *650:A0 0.000138453
4 *616:A1 *650:S 0.000304405
5 *616:A1 *691:CLK 6.38219e-05
6 *616:A1 *946:A 1.91246e-05
7 *616:A1 *431:36 3.0281e-05
8 resp_msg[6] *616:A1 4.57052e-05
9 resp_msg[7] *616:A1 0.000492517
10 *840:A *616:A1 6.73023e-05
11 *954:A *616:A1 0.000551253
*RES
1 *881:X *616:A1 49.7183 
*END

*D_NET *134 0.00102656
*CONN
*I *614:A I *D sky130_fd_sc_hd__nand2_1
*I *838:X O *D sky130_fd_sc_hd__clkdlybuf4s50_1
*CAP
1 *614:A 0.000433749
2 *838:X 0.000433749
3 *614:A *614:B 5.55377e-05
4 *614:A *838:A 2.58757e-05
5 *614:A *872:A 3.75603e-05
6 *614:A *445:18 2.39228e-05
7 *615:B1 *614:A 1.61631e-05
*RES
1 *838:X *614:A 27.3237 
*END

*D_NET *374 0.00681115
*CONN
*I *659:B1 I *D sky130_fd_sc_hd__a221o_1
*I *894:X O *D sky130_fd_sc_hd__buf_6
*CAP
1 *659:B1 0.000907402
2 *894:X 0.0011955
3 *374:20 0.0021029
4 *659:B1 *492:C1 0.000182869
5 *659:B1 *594:A2 0.000134603
6 *659:B1 *618:A1 0.0001438
7 *659:B1 *621:A1 0.000275203
8 *374:20 *596:B 0.000108054
9 *374:20 *946:A 2.16355e-05
10 *374:20 *432:18 0.000110684
11 *374:20 *433:32 4.59646e-05
12 *374:20 *473:30 0.000273062
13 *492:A2 *659:B1 9.42344e-05
14 *495:B *659:B1 5.98634e-05
15 *596:A *374:20 9.80242e-07
16 *658:A *374:20 0
17 *668:A1 *374:20 0
18 *881:A *659:B1 0.000139435
19 *981:A *659:B1 2.53145e-06
20 *996:A *374:20 5.51483e-06
21 *42:12 *374:20 0.000185918
22 *62:22 *659:B1 2.99293e-05
23 *63:22 *659:B1 0
24 *111:12 *374:20 2.57986e-05
25 *113:10 *659:B1 1.3813e-05
26 *113:10 *374:20 6.36617e-05
27 *168:30 *659:B1 0.000399467
28 *168:32 *659:B1 0.000180834
29 *230:23 *374:20 0.000107496
*RES
1 *894:X *374:20 43.9823 
2 *374:20 *659:B1 48.9043 
*END

*D_NET *135 0.00236079
*CONN
*I *617:A I *D sky130_fd_sc_hd__nand2_1
*I *839:X O *D sky130_fd_sc_hd__clkdlybuf4s50_1
*CAP
1 *617:A 0.000455822
2 *839:X 0.000455822
3 *617:A *618:A1 3.00082e-05
4 *617:A *659:A2 0.000151144
5 *617:A *858:A 1.10925e-05
6 *617:A *444:48 6.50586e-05
7 *617:A *447:18 7.14746e-05
8 *617:A *447:88 0.0004337
9 *596:A *617:A 6.24914e-06
10 *954:A *617:A 0.000208606
11 *113:10 *617:A 0.000471814
*RES
1 *839:X *617:A 42.8222 
*END

*D_NET *136 0.00236078
*CONN
*I *620:A I *D sky130_fd_sc_hd__nand2_1
*I *840:X O *D sky130_fd_sc_hd__clkdlybuf4s50_1
*CAP
1 *620:A 0
2 *840:X 0.000837527
3 *136:24 0.000837527
4 *136:24 *619:S 2.99287e-05
5 *136:24 *650:A0 3.99086e-06
6 *136:24 *729:B 2.41274e-06
7 *136:24 *841:A 0.000119265
8 *136:24 *878:A 1.03403e-05
9 *136:24 *169:18 0.000104847
10 *136:24 *170:51 0.000157705
11 *136:24 *415:20 3.39216e-05
12 *136:24 *417:14 2.02354e-05
13 *136:24 *444:80 0.000104586
14 *28:14 *136:24 9.34404e-05
15 *65:20 *136:24 5.04829e-06
*RES
1 *840:X *136:24 46.4252 
2 *136:24 *620:A 9.24915 
*END

*D_NET *384 0.0040869
*CONN
*I *665:B I *D sky130_fd_sc_hd__and4_1
*I *904:X O *D sky130_fd_sc_hd__buf_4
*CAP
1 *665:B 4.51842e-05
2 *904:X 0.000811763
3 *384:18 0.000856948
4 *384:18 *437:10 0.000240294
5 *384:18 *437:33 0.000204938
6 *384:18 *438:16 0.00030292
7 *384:18 *456:16 2.16355e-05
8 *384:18 *485:26 6.66272e-05
9 *490:A2 *384:18 2.16355e-05
10 *490:B1 *384:18 4.7035e-05
11 *490:B2 *384:18 4.87301e-05
12 *494:A *384:18 6.47496e-05
13 *551:A2 *384:18 2.57465e-06
14 *571:A *384:18 0.000132433
15 *665:D *665:B 6.08467e-05
16 *719:A2 *384:18 0.000175372
17 *736:A *384:18 0.000356261
18 *979:A *384:18 6.46815e-05
19 *106:20 *384:18 0.000107496
20 *107:26 *384:18 5.1493e-06
21 *251:24 *384:18 0.00036544
22 *305:43 *384:18 1.91246e-05
23 *347:20 *384:18 6.50586e-05
*RES
1 *904:X *384:18 49.8907 
2 *384:18 *665:B 14.4725 
*END

*D_NET *443 0.00610654
*CONN
*I *665:A I *D sky130_fd_sc_hd__and4_1
*I *963:X O *D sky130_fd_sc_hd__buf_4
*CAP
1 *665:A 0.000396678
2 *963:X 0.00124127
3 *443:18 0.00163795
4 *665:A *898:A 6.08467e-05
5 *585:B *443:18 0.000339101
6 *619:A0 *443:18 0.000163492
7 *619:S *443:18 0.000464143
8 *663:D *443:18 0.00036742
9 *714:A1 *443:18 4.05936e-05
10 *714:A2 *665:A 0.000156955
11 *724:B *443:18 0.000164829
12 *736:A *665:A 0.000340623
13 *28:22 *443:18 1.97501e-05
14 *33:33 *665:A 0.000538479
15 *109:20 *443:18 4.2273e-06
16 *170:12 *443:18 3.58208e-05
17 *170:51 *443:18 6.93171e-05
18 *415:20 *443:18 2.26179e-06
19 *417:14 *443:18 6.27718e-05
20 *431:22 *665:A 0
21 *431:36 *665:A 0
*RES
1 *963:X *443:18 49.3233 
2 *443:18 *665:A 26.134 
*END

*D_NET *444 0.0306349
*CONN
*I *630:A1 I *D sky130_fd_sc_hd__o21ai_1
*I *629:B I *D sky130_fd_sc_hd__nand2_1
*I *674:B I *D sky130_fd_sc_hd__nand2_1
*I *642:A1 I *D sky130_fd_sc_hd__o21ai_0
*I *641:B I *D sky130_fd_sc_hd__nand2_1
*I *675:A1 I *D sky130_fd_sc_hd__o21ai_1
*I *626:B I *D sky130_fd_sc_hd__nand2_1
*I *627:A1 I *D sky130_fd_sc_hd__o21ai_1
*I *623:B I *D sky130_fd_sc_hd__nand2_1
*I *624:A2 I *D sky130_fd_sc_hd__o21ai_1
*I *620:B I *D sky130_fd_sc_hd__nand2_1
*I *621:A1 I *D sky130_fd_sc_hd__o21ai_1
*I *618:A1 I *D sky130_fd_sc_hd__o21ai_0
*I *617:B I *D sky130_fd_sc_hd__nand2_1
*I *964:X O *D sky130_fd_sc_hd__buf_4
*CAP
1 *630:A1 0.00030845
2 *629:B 0
3 *674:B 0
4 *642:A1 8.56573e-05
5 *641:B 0.00045482
6 *675:A1 0.000105618
7 *626:B 0.000377344
8 *627:A1 5.58996e-05
9 *623:B 0
10 *624:A2 0.00135115
11 *620:B 8.58818e-05
12 *621:A1 0.000209283
13 *618:A1 0.000850464
14 *617:B 0
15 *964:X 7.29544e-05
16 *444:199 9.95167e-05
17 *444:172 0.0019156
18 *444:149 0.00186779
19 *444:126 0.00110728
20 *444:120 0.000740512
21 *444:118 0.00111784
22 *444:103 0.00175764
23 *444:80 0.000375828
24 *444:63 0.00130278
25 *444:48 0.0014692
26 *444:13 0.00115299
27 *444:6 8.96112e-05
28 *618:A1 *659:A2 2.42482e-05
29 *618:A1 *474:47 0.000160617
30 *621:A1 *946:A 1.07248e-05
31 *624:A2 *692:CLK 1.00901e-05
32 *642:A1 *684:CLK 0
33 *675:A1 *693:CLK 0.000184619
34 *675:A1 *863:A 7.24978e-06
35 *675:A1 *455:24 1.91246e-05
36 *444:48 *447:18 0.000398075
37 *444:103 *692:CLK 0.000760938
38 *444:126 *696:CLK 9.04141e-05
39 *444:149 *863:A 1.5714e-05
40 *444:149 *448:35 6.96797e-05
41 *444:149 *455:24 0.000309928
42 *444:172 *693:CLK 0.000151062
43 *444:172 *863:A 0.000997353
44 resp_msg[7] *444:48 3.90024e-05
45 resp_msg[7] *444:63 1.26675e-05
46 *492:C1 *618:A1 4.54693e-05
47 *495:A *618:A1 0.000188758
48 *517:A2 *444:172 0
49 *518:B1 *626:B 4.45999e-05
50 *540:A *626:B 0.000447383
51 *540:A *444:126 5.60804e-05
52 *544:A *675:A1 1.03594e-05
53 *588:A2 *444:149 0.000154902
54 *588:B1 *444:149 1.90335e-05
55 *617:A *618:A1 3.00082e-05
56 *617:A *444:48 6.50586e-05
57 *619:S *620:B 0.000142128
58 *619:S *444:63 1.67988e-05
59 *623:A *444:80 5.3209e-05
60 *624:B1 *624:A2 6.95572e-05
61 *625:S *630:A1 2.02035e-05
62 *626:A *626:B 7.84455e-05
63 *659:B1 *618:A1 0.0001438
64 *659:B1 *621:A1 0.000275203
65 *661:B *444:172 1.15487e-05
66 *661:C *444:172 0.000960347
67 *662:A *641:B 0.000126583
68 *662:B *641:B 9.08436e-06
69 *663:D *618:A1 7.40684e-06
70 *674:A *642:A1 6.08467e-05
71 *683:DE *444:172 0.00011888
72 *684:DE *444:172 3.83618e-05
73 *692:DE *444:103 3.39878e-06
74 *694:D *444:118 5.49029e-06
75 *694:DE *444:118 3.3403e-05
76 *710:D *630:A1 6.49694e-05
77 *732:B *444:120 2.00611e-05
78 *732:B *444:126 2.42501e-05
79 *733:B *626:B 1.91246e-05
80 *841:A *444:80 0.000165985
81 *854:A *621:A1 2.32531e-05
82 *856:A *630:A1 6.27782e-05
83 *874:A *618:A1 2.16355e-05
84 *874:A *444:48 0.000160617
85 *880:A *626:B 3.49082e-07
86 *881:A *621:A1 3.1741e-05
87 *899:A *641:B 3.13215e-05
88 *899:A *444:199 9.12416e-06
89 *903:A *618:A1 2.71757e-05
90 *915:A *444:120 7.70074e-05
91 *937:A *620:B 4.31603e-06
92 *980:A *621:A1 3.43708e-05
93 *987:A *444:48 2.16355e-05
94 *1:10 *444:120 0
95 *1:28 *626:B 2.77564e-05
96 *1:39 *626:B 0
97 *27:24 *444:103 2.57684e-05
98 *28:14 *444:63 6.08467e-05
99 *28:14 *444:80 7.14746e-05
100 *28:22 *444:63 0.000930613
101 *61:26 *618:A1 3.75603e-05
102 *62:22 *618:A1 0.000110458
103 *65:20 *620:B 0.000165455
104 *65:20 *621:A1 5.68225e-06
105 *65:20 *444:80 0.000340977
106 *66:14 *444:103 2.99585e-05
107 *74:18 *630:A1 3.00174e-06
108 *74:18 *444:120 0.00011008
109 *75:14 *630:A1 5.04829e-06
110 *103:12 *618:A1 0.000456818
111 *109:20 *618:A1 1.87091e-06
112 *113:10 *618:A1 0.000569768
113 *118:12 *642:A1 1.43848e-05
114 *136:24 *444:80 0.000104586
115 *168:30 *444:48 3.82228e-05
116 *174:10 *627:A1 0.000142165
117 *174:10 *630:A1 8.25006e-05
118 *179:33 *444:149 3.89332e-06
119 *179:58 *626:B 0
120 *179:58 *675:A1 2.57073e-05
121 *179:58 *444:126 0
122 *184:42 *641:B 3.27606e-06
123 *184:42 *444:199 2.02035e-05
124 *198:18 *641:B 0.000501118
125 *230:23 *444:6 5.97576e-05
126 *230:23 *444:13 2.15184e-05
127 *230:23 *444:48 1.41976e-05
128 *254:20 *641:B 0.000204088
129 *254:20 *444:172 3.52699e-05
130 *255:18 *641:B 1.79542e-05
131 *256:36 *641:B 2.41483e-05
132 *257:22 *641:B 8.03393e-06
133 *259:180 *626:B 0
134 *337:22 *444:126 0.000310387
135 *337:22 *444:172 3.33431e-05
136 *343:12 *642:A1 6.9865e-05
137 *343:12 *444:199 2.02035e-05
138 *343:46 *444:149 0.00014966
139 *359:26 *444:172 1.51922e-05
140 *362:16 *444:149 0.000454569
141 *386:16 *627:A1 0.000139859
142 *386:20 *444:103 2.41274e-06
143 *386:20 *444:118 3.17103e-05
144 *395:20 *444:120 0.000362156
145 *395:20 *444:126 0.000355612
146 *396:8 *618:A1 0.000107496
147 *399:80 *630:A1 0
148 *399:80 *444:120 0
149 *418:14 *618:A1 4.6218e-05
150 *430:14 *618:A1 1.03445e-05
*RES
1 *964:X *444:6 11.0817 
2 *444:6 *617:B 9.24915 
3 *444:6 *444:13 0.723396 
4 *444:13 *618:A1 48.2838 
5 *444:13 *444:48 9.06656 
6 *444:48 *621:A1 24.6489 
7 *444:48 *444:63 15.7218 
8 *444:63 *620:B 12.7938 
9 *444:63 *444:80 17.8913 
10 *444:80 *624:A2 12.7938 
11 *444:80 *623:B 9.24915 
12 *624:A2 *444:103 28.2745 
13 *444:103 *627:A1 20.9116 
14 *444:103 *444:118 11.324 
15 *444:118 *444:120 10.9675 
16 *444:120 *444:126 11.3155 
17 *444:126 *626:B 20.8456 
18 *444:126 *444:149 19.3661 
19 *444:149 *675:A1 17.7759 
20 *444:149 *444:172 5.09662 
21 *444:172 *641:B 35.2898 
22 *444:172 *444:199 8.2474 
23 *444:199 *642:A1 11.6605 
24 *444:199 *674:B 9.24915 
25 *444:120 *629:B 13.7491 
26 *444:118 *630:A1 22.2899 
*END

*D_NET *445 0.0325891
*CONN
*I *638:B I *D sky130_fd_sc_hd__nand2_1
*I *635:B I *D sky130_fd_sc_hd__nand2_1
*I *612:A1 I *D sky130_fd_sc_hd__o21ai_1
*I *615:A1 I *D sky130_fd_sc_hd__o21ai_1
*I *611:B I *D sky130_fd_sc_hd__nand2_1
*I *614:B I *D sky130_fd_sc_hd__nand2_1
*I *609:A1 I *D sky130_fd_sc_hd__o21ai_1
*I *636:A2 I *D sky130_fd_sc_hd__o21ai_1
*I *639:A2 I *D sky130_fd_sc_hd__o21ai_1
*I *633:A2 I *D sky130_fd_sc_hd__o21ai_1
*I *599:B I *D sky130_fd_sc_hd__nand2_1
*I *605:B I *D sky130_fd_sc_hd__nand2_1
*I *632:B I *D sky130_fd_sc_hd__nand2_1
*I *600:A2 I *D sky130_fd_sc_hd__o21ai_1
*I *606:A1 I *D sky130_fd_sc_hd__o21ai_1
*I *608:B I *D sky130_fd_sc_hd__nand2_1
*I *603:A1 I *D sky130_fd_sc_hd__o21ai_1
*I *602:B I *D sky130_fd_sc_hd__nand2_1
*I *965:X O *D sky130_fd_sc_hd__buf_4
*CAP
1 *638:B 0.00010358
2 *635:B 1.6785e-05
3 *612:A1 5.50211e-05
4 *615:A1 0.000275626
5 *611:B 0.000135884
6 *614:B 6.14927e-05
7 *609:A1 0.000297767
8 *636:A2 0.000528002
9 *639:A2 0.0012298
10 *633:A2 2.29549e-05
11 *599:B 0
12 *605:B 0.000573642
13 *632:B 0
14 *600:A2 0.000264599
15 *606:A1 9.29354e-05
16 *608:B 0
17 *603:A1 0.000112881
18 *602:B 0.00015723
19 *965:X 0
20 *445:247 0.000308298
21 *445:149 0.0020546
22 *445:134 0.00113867
23 *445:92 0.000291495
24 *445:90 0.000785804
25 *445:84 0.000346554
26 *445:76 0.0017773
27 *445:63 0.00167676
28 *445:59 0.000984508
29 *445:50 0.000794946
30 *445:22 0.000362687
31 *445:20 0.00182117
32 *445:18 0.00141371
33 *445:12 0.00061099
34 *445:10 0.000599267
35 *445:4 0.000234175
36 *609:A1 *976:A 9.81288e-06
37 *636:A2 *654:S 6.45482e-05
38 *636:A2 *1000:A 0.000272927
39 *639:A2 *654:S 1.27831e-06
40 *639:A2 *928:A 7.02172e-06
41 *639:A2 *1000:A 0.000207018
42 *639:A2 *446:12 0.000332039
43 *639:A2 *446:21 3.04837e-05
44 *639:A2 *446:40 3.36608e-05
45 *639:A2 *446:114 0.000436811
46 *639:A2 *477:14 0
47 *445:20 *511:A 8.89134e-05
48 *445:76 *474:65 6.03237e-05
49 *445:134 *654:S 0
50 *445:149 *654:S 0
51 *445:149 *1000:A 0
52 *445:247 *928:A 6.50586e-05
53 resp_msg[3] *445:20 7.13655e-06
54 resp_msg[4] *445:20 0.000506627
55 resp_msg[5] *614:B 9.40969e-05
56 resp_msg[5] *445:18 0
57 resp_msg[5] *445:20 0
58 *500:A *600:A2 3.31882e-05
59 *500:A *445:92 2.26985e-05
60 *500:B *600:A2 7.77309e-06
61 *500:B *445:84 0.000183763
62 *500:B *445:92 7.70172e-06
63 *509:B *445:50 0
64 *509:B *445:63 7.57674e-05
65 *529:B *638:B 0
66 *555:A1 *445:20 0
67 *556:A *445:50 2.1818e-05
68 *556:A *445:59 0.000163084
69 *557:B *445:50 0.000190881
70 *557:B *445:63 2.43726e-05
71 *586:A *615:A1 1.88422e-05
72 *586:A *445:12 6.97525e-05
73 *586:B *615:A1 0.000187307
74 *598:A0 *600:A2 1.45248e-05
75 *600:A1 *600:A2 6.92705e-05
76 *600:B1 *600:A2 0.00017954
77 *600:B1 *445:90 0.000238301
78 *600:B1 *445:92 4.07907e-05
79 *603:A2 *602:B 4.7294e-05
80 *603:A2 *603:A1 0.000164815
81 *603:B1 *602:B 0.000295725
82 *603:B1 *445:22 4.55115e-05
83 *605:A *605:B 0.000227673
84 *606:A2 *606:A1 0.000105175
85 *606:B1 *605:B 0.000114594
86 *606:B1 *606:A1 1.67286e-05
87 *611:A *611:B 0.000142927
88 *612:B1 *612:A1 9.50664e-05
89 *614:A *614:B 5.55377e-05
90 *614:A *445:18 2.39228e-05
91 *615:A2 *615:A1 0.00031169
92 *615:B1 *614:B 9.82896e-06
93 *632:A *600:A2 1.1095e-05
94 *634:A0 *445:149 2.6632e-05
95 *635:A *635:B 9.95922e-06
96 *635:A *638:B 6.94436e-05
97 *636:A1 *636:A2 0.000482859
98 *636:B1 *636:A2 1.63255e-05
99 *639:A1 *639:A2 6.92705e-05
100 *639:A1 *445:247 4.0752e-05
101 *639:B1 *638:B 9.65932e-05
102 *639:B1 *445:247 0.000213976
103 *643:A1 *600:A2 9.78551e-06
104 *644:A1 *602:B 0
105 *647:A1 *445:18 8.62625e-06
106 *647:A1 *445:20 0.00069976
107 *655:A1 *445:247 0.000171288
108 *663:B *605:B 8.90311e-06
109 *663:D *445:76 8.77801e-05
110 *687:D *602:B 9.2346e-06
111 *687:DE *602:B 0.000127179
112 *687:DE *445:20 0.000117332
113 *687:DE *445:22 0.000150556
114 *687:CLK *445:22 0
115 *688:D *609:A1 6.08467e-05
116 *690:DE *445:20 0
117 *702:D *602:B 0
118 *702:CLK *603:A1 1.00981e-05
119 *703:D *445:84 4.38232e-05
120 *706:DE *445:18 9.46826e-05
121 *734:A1 *445:134 0
122 *828:A *445:247 0.000118166
123 *834:A *605:B 0
124 *835:A *445:20 0
125 *838:A *445:18 1.6989e-05
126 *864:A *639:A2 0.000113611
127 *869:A *606:A1 0
128 *870:A *445:20 3.46206e-05
129 *872:A *614:B 2.65667e-05
130 *923:A *609:A1 0.000158002
131 *942:A *445:50 5.65463e-05
132 *31:37 *609:A1 0.000149428
133 *31:37 *445:63 1.69465e-05
134 *45:14 *600:A2 2.41274e-06
135 *52:18 *609:A1 2.58757e-05
136 *52:18 *445:20 0
137 *57:14 *611:B 0.000280818
138 *57:14 *612:A1 0.000211546
139 *60:12 *611:B 2.44579e-05
140 *60:12 *615:A1 5.04423e-06
141 *60:12 *445:12 2.17621e-05
142 *60:12 *445:18 1.34372e-05
143 *77:22 *445:90 0.000313357
144 *77:22 *445:92 7.09666e-06
145 *156:10 *633:A2 2.33103e-06
146 *166:33 *445:10 0.000301135
147 *196:14 *445:84 4.94594e-05
148 *196:14 *445:90 0.000107496
149 *198:18 *636:A2 6.24474e-06
150 *202:14 *606:A1 7.1515e-05
151 *204:22 *445:63 1.40862e-05
152 *242:19 *615:A1 6.29513e-05
153 *259:315 *639:A2 0.000109115
154 *260:26 *445:134 2.72463e-05
155 *312:37 *633:A2 1.91246e-05
156 *312:37 *445:149 0.000215614
157 *333:29 *445:76 0.000552178
158 *333:29 *445:134 0.000482727
159 *393:20 *600:A2 4.30017e-06
160 *393:20 *445:90 3.31736e-05
161 *403:24 *609:A1 1.0759e-05
162 *408:16 *445:247 5.25148e-05
163 *422:42 *609:A1 0
164 *422:42 *445:59 0
165 *427:68 *445:20 0
166 *427:85 *445:20 0
167 *429:29 *445:76 2.87956e-05
168 *429:65 *445:76 4.51854e-05
169 *429:65 *445:134 8.11493e-05
170 *430:62 *609:A1 0.000269151
171 *430:62 *445:50 7.48886e-05
172 *430:62 *445:59 0.000189244
173 *430:94 *605:B 0.00044536
174 *430:137 *639:A2 7.84969e-05
175 *435:71 *445:20 6.71656e-05
176 *438:34 *445:76 0
177 *438:34 *445:134 0
178 *438:46 *445:20 0
179 *438:74 *445:20 0.000401465
*RES
1 *965:X *445:4 9.24915 
2 *445:4 *445:10 14.5693 
3 *445:10 *445:12 3.49641 
4 *445:12 *445:18 12.3199 
5 *445:18 *445:20 34.4293 
6 *445:20 *445:22 2.87013 
7 *445:22 *602:B 20.1489 
8 *445:22 *603:A1 16.7151 
9 *445:20 *445:50 9.94163 
10 *445:50 *608:B 13.7491 
11 *445:50 *445:59 3.70063 
12 *445:59 *445:63 4.56602 
13 *445:63 *606:A1 20.4033 
14 *445:63 *445:76 2.2681 
15 *445:76 *445:84 12.2928 
16 *445:84 *445:90 11.7625 
17 *445:90 *445:92 1.00149 
18 *445:92 *600:A2 20.2616 
19 *445:92 *632:B 13.7491 
20 *445:90 *605:B 24.5036 
21 *445:84 *599:B 9.24915 
22 *445:76 *445:134 1.5032 
23 *445:134 *633:A2 17.4965 
24 *445:134 *445:149 4.41304 
25 *445:149 *639:A2 37.9972 
26 *445:149 *636:A2 25.8143 
27 *445:59 *609:A1 23.21 
28 *445:18 *614:B 16.7151 
29 *445:12 *611:B 24.2337 
30 *445:10 *615:A1 18.7256 
31 *445:4 *612:A1 12.2151 
32 *639:A2 *445:247 16.8207 
33 *445:247 *635:B 9.82786 
34 *445:247 *638:B 12.7697 
*END

*D_NET *386 0.0318262
*CONN
*I *685:DE I *D sky130_fd_sc_hd__edfxtp_1
*I *693:DE I *D sky130_fd_sc_hd__edfxtp_1
*I *682:DE I *D sky130_fd_sc_hd__edfxtp_1
*I *681:DE I *D sky130_fd_sc_hd__edfxtp_1
*I *679:DE I *D sky130_fd_sc_hd__edfxtp_1
*I *683:DE I *D sky130_fd_sc_hd__edfxtp_1
*I *680:DE I *D sky130_fd_sc_hd__edfxtp_1
*I *694:DE I *D sky130_fd_sc_hd__edfxtp_1
*I *906:X O *D sky130_fd_sc_hd__buf_12
*CAP
1 *685:DE 0.000150834
2 *693:DE 0.000225439
3 *682:DE 1.65908e-05
4 *681:DE 0.000783391
5 *679:DE 0.000694274
6 *683:DE 0.00176481
7 *680:DE 6.36496e-05
8 *694:DE 0.000160702
9 *906:X 0.00175528
10 *386:103 0.00161883
11 *386:101 0.00106693
12 *386:93 0.00205856
13 *386:70 0.00313372
14 *386:60 0.00107044
15 *386:41 0.00104055
16 *386:20 0.000752472
17 *386:16 0.00184479
18 *679:DE *682:CLK 2.34593e-05
19 *679:DE *697:DE 0.000494694
20 *679:DE *430:123 7.75615e-05
21 *679:DE *446:21 5.30345e-05
22 *681:DE *502:C 3.12734e-06
23 *681:DE *508:C 0.000104635
24 *681:DE *655:S 0.000297527
25 *681:DE *977:A 4.04201e-05
26 *681:DE *438:34 4.62889e-05
27 *683:DE *655:S 0
28 *683:DE *684:CLK 0.000121756
29 *683:DE *863:A 0.000127191
30 *683:DE *426:66 0.000471804
31 *683:DE *444:172 0.00011888
32 *683:DE *471:28 9.54515e-06
33 *685:DE *407:22 1.31166e-05
34 *694:DE *444:118 3.3403e-05
35 *386:16 *622:S 0.00065493
36 *386:16 *627:A1 0.000139859
37 *386:16 *652:S 0
38 *386:16 *399:80 0.000255683
39 *386:16 *434:6 0.000264707
40 *386:20 *444:103 2.41274e-06
41 *386:20 *444:118 3.17103e-05
42 *386:41 *694:CLK 0.000223471
43 *386:41 *398:16 0
44 *386:41 *399:24 0.000196809
45 *386:41 *399:80 4.69517e-05
46 *386:60 *628:S 3.6928e-05
47 *386:60 *696:CLK 0.000443822
48 *386:60 *395:20 0.000605929
49 *386:60 *407:22 0.000131452
50 *386:60 *426:56 0.000446903
51 *386:70 *628:S 9.03462e-06
52 *386:70 *863:A 0.000241443
53 *386:70 *407:22 4.46057e-05
54 *386:70 *426:66 0.000255609
55 *386:93 *661:D 0
56 *386:101 *693:CLK 0.000533715
57 *386:101 *737:A1 0.000196978
58 *386:101 *485:26 0.000158186
59 *386:103 *549:A 0
60 *386:103 *682:CLK 0
61 *513:A1 *386:101 3.99168e-05
62 *535:A *386:60 0.000324764
63 *535:B *386:60 0.000106958
64 *547:A *386:41 0.000232674
65 *558:B *679:DE 0.000163507
66 *587:B *386:60 1.31832e-05
67 *588:A2 *680:DE 7.94956e-05
68 *588:A2 *386:41 0.000175666
69 *627:B1 *386:41 0.000558339
70 *636:A1 *679:DE 0
71 *637:A1 *683:DE 1.32822e-05
72 *681:D *681:DE 3.42041e-05
73 *682:D *682:DE 3.44641e-05
74 *683:D *683:DE 0.00013556
75 *694:D *694:DE 3.34188e-05
76 *710:D *386:16 6.08467e-05
77 *730:B1 *386:41 1.91391e-05
78 *732:B *386:41 5.09774e-05
79 *734:A1 *681:DE 0.000787401
80 *734:A1 *386:93 0.000177133
81 *734:A1 *386:101 0.000699705
82 *745:A1 *386:101 0
83 *754:C1 *685:DE 8.06219e-05
84 *864:A *679:DE 0.000164843
85 *880:A *681:DE 7.35292e-05
86 *912:A *679:DE 4.34694e-05
87 *927:A *386:60 6.28558e-05
88 *954:A *386:16 7.62744e-05
89 *1:10 *386:41 7.8756e-07
90 *1:28 *386:41 2.15093e-05
91 *23:33 *679:DE 2.70226e-05
92 *23:33 *386:101 0
93 *23:33 *386:103 9.40407e-06
94 *27:24 *386:20 6.73297e-05
95 *35:16 *679:DE 9.54515e-06
96 *45:14 *679:DE 0.000288438
97 *75:14 *680:DE 3.6783e-05
98 *102:14 *683:DE 5.58872e-05
99 *106:20 *386:101 3.99658e-05
100 *170:51 *386:16 7.10724e-05
101 *174:10 *386:16 7.21203e-05
102 *178:10 *693:DE 2.01503e-05
103 *179:33 *680:DE 7.44696e-05
104 *179:33 *386:41 8.28201e-05
105 *191:10 *681:DE 1.9101e-05
106 *284:43 *693:DE 8.58027e-05
107 *292:22 *386:93 8.47735e-05
108 *293:12 *386:101 0.000671243
109 *304:20 *681:DE 0.000300046
110 *312:37 *679:DE 0.000259033
111 *325:8 *386:101 8.91304e-05
112 *340:40 *386:101 0
113 *375:26 *386:101 1.14939e-05
114 *380:22 *679:DE 2.72196e-05
*RES
1 *906:X *386:16 45.651 
2 *386:16 *386:20 6.88721 
3 *386:20 *694:DE 12.9445 
4 *386:20 *386:41 26.2616 
5 *386:41 *680:DE 15.7774 
6 *386:41 *386:60 22.7271 
7 *386:60 *386:70 6.04949 
8 *386:70 *683:DE 25.7531 
9 *386:70 *386:93 2.22404 
10 *386:93 *386:101 19.9474 
11 *386:101 *386:103 2.87013 
12 *386:103 *679:DE 35.5571 
13 *386:103 *681:DE 25.2748 
14 *386:101 *682:DE 14.153 
15 *386:93 *693:DE 21.9273 
16 *386:60 *685:DE 17.119 
*END

*D_NET *387 0.00509303
*CONN
*I *668:B1 I *D sky130_fd_sc_hd__o22ai_1
*I *907:X O *D sky130_fd_sc_hd__buf_4
*CAP
1 *668:B1 2.42623e-05
2 *907:X 0.00136958
3 *387:20 0.00139385
4 *387:20 *593:A 0.00055738
5 *387:20 *610:A0 0
6 *387:20 *610:A1 1.75504e-05
7 *387:20 *664:A 3.88213e-05
8 *387:20 *664:C 0.000106018
9 *387:20 *664:D 1.24894e-05
10 resp_val *387:20 0.000351366
11 *658:A *387:20 0.000314802
12 *668:A1 *668:B1 6.08467e-05
13 *668:A1 *387:20 0.000105589
14 *907:A *387:20 3.31745e-05
15 *951:A *387:20 9.13913e-05
16 *29:40 *387:20 3.39313e-06
17 *33:73 *387:20 3.17009e-05
18 *39:8 *387:20 0.000148614
19 *108:18 *387:20 8.9803e-05
20 *111:12 *668:B1 2.07365e-05
21 *113:10 *668:B1 0.000110042
22 *230:23 *387:20 0.000184749
23 *357:26 *387:20 2.68764e-05
*RES
1 *907:X *387:20 45.7034 
2 *387:20 *668:B1 15.0271 
*END

*D_NET *137 0.000747461
*CONN
*I *623:A I *D sky130_fd_sc_hd__nand2_1
*I *841:X O *D sky130_fd_sc_hd__clkdlybuf4s50_1
*CAP
1 *623:A 0.000143309
2 *841:X 0.000143309
3 *623:A *426:42 0.00012171
4 *623:A *444:80 5.3209e-05
5 *624:A1 *623:A 9.89388e-06
6 *65:20 *623:A 8.62625e-06
7 *66:14 *623:A 0.000267404
*RES
1 *841:X *623:A 33.1026 
*END

*D_NET *398 0.011069
*CONN
*I *661:C I *D sky130_fd_sc_hd__nor4_1
*I *625:A0 I *D sky130_fd_sc_hd__mux2i_1
*I *543:A I *D sky130_fd_sc_hd__xor2_1
*I *918:X O *D sky130_fd_sc_hd__buf_4
*CAP
1 *661:C 0.00189964
2 *625:A0 0.000186098
3 *543:A 2.18413e-05
4 *918:X 0.00101389
5 *398:16 0.000488229
6 *398:12 0.00319381
7 *543:A *431:73 6.08467e-05
8 *625:A0 *399:80 0
9 *661:C *661:B 0.00180138
10 *661:C *863:A 5.91855e-05
11 *661:C *399:24 0.000354064
12 *661:C *426:66 0
13 *661:C *444:172 0.000960347
14 *398:12 *625:S 0
15 *398:16 *625:S 0
16 *543:B *543:A 6.50586e-05
17 *627:A2 *625:A0 4.21881e-05
18 *627:B1 *543:A 1.5714e-05
19 *627:B1 *625:A0 0.000318089
20 *661:D *661:C 1.09381e-05
21 *710:D *625:A0 0.000115428
22 *915:A *398:12 0
23 *9:14 *398:12 0
24 *73:12 *398:12 5.82969e-05
25 *118:12 *661:C 1.91246e-05
26 *174:10 *543:A 2.26985e-05
27 *174:10 *625:A0 0.000342987
28 *254:20 *661:C 1.91246e-05
29 *386:41 *398:16 0
*RES
1 *918:X *398:12 21.4967 
2 *398:12 *398:16 3.91586 
3 *398:16 *543:A 14.8512 
4 *398:16 *625:A0 22.3459 
5 *398:12 *661:C 24.2944 
*END

*D_NET *399 0.0135166
*CONN
*I *622:A0 I *D sky130_fd_sc_hd__mux2i_1
*I *540:A I *D sky130_fd_sc_hd__xor2_1
*I *661:B I *D sky130_fd_sc_hd__nor4_1
*I *919:X O *D sky130_fd_sc_hd__buf_4
*CAP
1 *622:A0 0
2 *540:A 0.000396396
3 *661:B 0.0010866
4 *919:X 2.9804e-05
5 *399:80 0.00117091
6 *399:24 0.00198078
7 *399:8 0.0016985
8 *540:A *626:B 0.000447383
9 *540:A *696:CLK 0.000135706
10 *540:A *444:126 5.60804e-05
11 *540:A *448:23 0.000436603
12 *661:B *661:A 6.27718e-05
13 *661:B *749:B1 6.08467e-05
14 *661:B *444:172 1.15487e-05
15 *399:80 *622:S 0.000362216
16 *399:80 *630:A1 0
17 *399:80 *652:S 0
18 *399:80 *694:CLK 0.000226425
19 *399:80 *413:26 0.000407993
20 *399:80 *444:120 0
21 *517:A2 *661:B 7.24279e-06
22 *518:A2 *540:A 2.29454e-05
23 *625:A0 *399:80 0
24 *625:A1 *399:80 0.000154979
25 *627:B1 *399:80 3.95587e-05
26 *651:A1 *399:80 3.82887e-05
27 *661:C *661:B 0.00180138
28 *661:C *399:24 0.000354064
29 *661:D *661:B 1.09113e-05
30 *694:D *399:80 6.00698e-05
31 *710:D *399:80 2.41274e-06
32 *887:A *540:A 1.26207e-05
33 *888:A *661:B 1.98531e-06
34 *915:A *399:24 1.45944e-05
35 *915:A *399:80 5.07906e-05
36 *1:10 *399:24 8.56081e-05
37 *1:28 *540:A 3.09374e-06
38 *1:28 *399:24 6.67835e-06
39 *1:39 *540:A 0.000203756
40 *26:26 *661:B 2.45955e-06
41 *26:26 *399:24 7.02044e-06
42 *105:34 *661:B 0.000725473
43 *118:12 *661:B 1.85244e-05
44 *170:51 *399:80 0.000114271
45 *254:20 *661:B 1.5714e-05
46 *259:169 *540:A 6.27782e-05
47 *259:180 *540:A 0.000127945
48 *259:216 *399:8 1.43848e-05
49 *319:36 *661:B 0.000396649
50 *319:36 *399:24 9.03492e-05
51 *386:16 *399:80 0.000255683
52 *386:41 *399:24 0.000196809
53 *386:41 *399:80 4.69517e-05
*RES
1 *919:X *399:8 14.4725 
2 *399:8 *399:24 9.72037 
3 *399:24 *661:B 22.8501 
4 *399:24 *540:A 22.408 
5 *399:8 *399:80 45.815 
6 *399:80 *622:A0 9.24915 
*END

*D_NET *400 0.0130854
*CONN
*I *619:A0 I *D sky130_fd_sc_hd__mux2i_1
*I *663:D I *D sky130_fd_sc_hd__nor4_1
*I *920:X O *D sky130_fd_sc_hd__buf_4
*CAP
1 *619:A0 0.000161502
2 *663:D 0.00453251
3 *920:X 2.3451e-05
4 *400:8 0.00471746
5 *619:A0 *619:A1 0.000109421
6 *619:A0 *443:18 0.000163492
7 *663:D *618:A1 7.40684e-06
8 *663:D *659:A2 0.000178921
9 *663:D *663:C 0.000112833
10 *663:D *429:19 0.000175437
11 *663:D *429:29 0.000951979
12 *663:D *430:14 6.11992e-05
13 *663:D *430:20 3.42824e-05
14 *663:D *430:94 0.000114679
15 *663:D *443:18 0.00036742
16 *663:D *445:76 8.77801e-05
17 *663:D *474:65 2.87852e-05
18 *400:8 *650:A0 1.03403e-05
19 resp_msg[8] *619:A0 1.66626e-05
20 *503:A2 *663:D 0.000196508
21 *504:B *663:D 1.62832e-05
22 *575:A *400:8 6.08467e-05
23 *714:A1 *663:D 0.000160493
24 *724:B *619:A0 7.1935e-06
25 *724:B *663:D 9.51861e-05
26 *847:A *663:D 0.000341007
27 *12:16 *619:A0 0.000178614
28 *28:22 *619:A0 5.9036e-05
29 *95:26 *619:A0 1.5562e-05
30 *109:20 *663:D 1.12135e-05
31 *170:51 *619:A0 1.04511e-05
32 *196:14 *663:D 7.74848e-05
33 *259:267 *663:D 0
*RES
1 *920:X *400:8 14.4725 
2 *400:8 *663:D 45.1247 
3 *400:8 *619:A0 20.0687 
*END

*D_NET *401 0.00592395
*CONN
*I *616:A0 I *D sky130_fd_sc_hd__mux2i_1
*I *664:D I *D sky130_fd_sc_hd__nor4_1
*I *921:X O *D sky130_fd_sc_hd__buf_4
*CAP
1 *616:A0 0.000536758
2 *664:D 0.00019565
3 *921:X 0.00030676
4 *401:8 0.00103917
5 *616:A0 *594:A2 0.000210672
6 *616:A0 *432:18 0.000208048
7 *616:A0 *464:34 0.000182444
8 *664:D *610:A1 1.05599e-05
9 *664:D *404:68 0.000192252
10 *401:8 *671:A1 2.02035e-05
11 *401:8 *403:37 0.000111901
12 *594:A1 *616:A0 0.000250405
13 *659:B2 *401:8 1.91391e-05
14 *875:A *616:A0 0.000179051
15 *936:A *664:D 0.000286997
16 *951:A *616:A0 7.2306e-05
17 *951:A *401:8 0.0004676
18 *981:A *616:A0 5.36085e-05
19 *981:A *401:8 0.000120121
20 *33:73 *616:A0 0.00014748
21 *39:8 *616:A0 0.000138334
22 *155:10 *664:D 6.36477e-05
23 *355:26 *616:A0 0.000144916
24 *385:16 *616:A0 0.000697153
25 *387:20 *664:D 1.24894e-05
26 *391:10 *616:A0 0.000256285
*RES
1 *921:X *401:8 23.2633 
2 *401:8 *664:D 22.4363 
3 *401:8 *616:A0 36.3599 
*END

*D_NET *138 0.00169825
*CONN
*I *626:A I *D sky130_fd_sc_hd__nand2_1
*I *842:X O *D sky130_fd_sc_hd__clkdlybuf4s50_1
*CAP
1 *626:A 0.000575835
2 *842:X 0.000575835
3 *626:A *518:B1 7.92757e-06
4 *626:A *626:B 7.84455e-05
5 *626:A *733:B 0.0002837
6 *626:A *174:10 3.01846e-05
7 *626:A *182:30 1.66771e-05
8 *626:A *259:189 0
9 *626:A *319:36 5.59402e-05
10 *627:B1 *626:A 2.74306e-06
11 *919:A *626:A 2.44829e-05
12 *934:A *626:A 2.64787e-05
13 *1:28 *626:A 1.99996e-05
*RES
1 *842:X *626:A 39.6583 
*END

*D_NET *402 0.00369036
*CONN
*I *613:A0 I *D sky130_fd_sc_hd__mux2i_1
*I *664:C I *D sky130_fd_sc_hd__nor4_1
*I *922:X O *D sky130_fd_sc_hd__buf_4
*CAP
1 *613:A0 0.000390487
2 *664:C 0.000602822
3 *922:X 2.2502e-05
4 *402:6 0.00101581
5 *613:A0 *613:S 0.000237703
6 *613:A0 *403:37 4.35449e-05
7 *664:C *458:12 4.6535e-05
8 *582:B *613:A0 1.99195e-05
9 *921:A *613:A0 6.08467e-05
10 *921:A *402:6 0.000165521
11 *922:A *613:A0 1.65872e-05
12 *951:A *613:A0 0.000119367
13 *951:A *664:C 0.000209774
14 *13:26 *664:C 0
15 *14:6 *613:A0 5.99529e-06
16 *29:40 *613:A0 1.58551e-05
17 *29:40 *664:C 6.13844e-05
18 *93:24 *613:A0 0.000117626
19 *93:24 *664:C 0.000183504
20 *93:24 *402:6 0.000164697
21 *108:18 *664:C 6.22259e-05
22 *155:10 *664:C 2.16355e-05
23 *387:20 *664:C 0.000106018
*RES
1 *922:X *402:6 11.0817 
2 *402:6 *664:C 41.3417 
3 *402:6 *613:A0 29.3459 
*END

*D_NET *403 0.0117797
*CONN
*I *610:A0 I *D sky130_fd_sc_hd__mux2i_2
*I *664:B I *D sky130_fd_sc_hd__nor4_1
*I *580:A I *D sky130_fd_sc_hd__xor2_1
*I *923:X O *D sky130_fd_sc_hd__buf_4
*CAP
1 *610:A0 0.000483214
2 *664:B 0.000138547
3 *580:A 0.000179058
4 *923:X 0.00131453
5 *403:37 0.00119768
6 *403:24 0.00206951
7 *610:A0 *610:A1 0.000187551
8 *610:A0 *610:S 2.7383e-05
9 *610:A0 *997:A 0.000212198
10 *610:A0 *432:18 0.000234742
11 *403:24 *563:A 6.55459e-05
12 *403:24 *609:A1 1.0759e-05
13 *403:24 *976:A 3.43656e-05
14 *403:24 *404:68 9.14571e-05
15 *403:24 *450:10 1.58588e-05
16 *403:24 *451:22 2.33103e-06
17 *403:37 *671:A1 2.02035e-05
18 *496:B1 *403:24 6.09432e-05
19 *503:A2 *403:24 0.000171678
20 *509:B *403:24 0.000403341
21 *552:A1 *403:24 0
22 *553:B1 *403:24 0.000284304
23 *555:A2 *403:24 1.3675e-05
24 *579:B *580:A 0.000568071
25 *579:B *403:24 2.43314e-05
26 *579:B *403:37 0.000338765
27 *580:B *580:A 2.65667e-05
28 *582:B *403:24 2.77419e-05
29 *582:B *403:37 0.00027052
30 *613:A0 *403:37 4.35449e-05
31 *615:B1 *580:A 0.000888883
32 *658:A *610:A0 2.57847e-05
33 *659:B2 *403:37 1.5714e-05
34 *659:C1 *403:37 8.59412e-05
35 *872:A *580:A 7.3504e-05
36 *885:A *403:24 0.000233286
37 *948:A *610:A0 5.47529e-05
38 *948:A *403:37 8.15629e-05
39 *951:A *403:37 1.46012e-05
40 *964:A *610:A0 6.36477e-05
41 *981:A *610:A0 5.17042e-05
42 *981:A *403:37 0.000111504
43 *1002:A *403:24 0.000286958
44 *29:48 *403:37 0.000239027
45 *33:73 *610:A0 0.000112509
46 *42:12 *610:A0 1.12533e-05
47 *108:18 *403:37 3.8539e-05
48 *155:10 *664:B 0.000254532
49 *190:10 *403:24 6.00956e-05
50 *202:14 *403:24 7.8129e-05
51 *220:14 *403:24 0
52 *305:16 *403:24 0.00033428
53 *357:26 *610:A0 3.32036e-05
54 *387:20 *610:A0 0
55 *401:8 *403:37 0.000111901
*RES
1 *923:X *403:24 48.9494 
2 *403:24 *580:A 25.0341 
3 *403:24 *403:37 18.8573 
4 *403:37 *664:B 17.2697 
5 *403:37 *610:A0 36.4493 
*END

*D_NET *404 0.0114556
*CONN
*I *664:A I *D sky130_fd_sc_hd__nor4_1
*I *607:A0 I *D sky130_fd_sc_hd__mux2i_1
*I *570:A I *D sky130_fd_sc_hd__xor2_1
*I *924:X O *D sky130_fd_sc_hd__buf_4
*CAP
1 *664:A 9.66565e-05
2 *607:A0 6.73369e-05
3 *570:A 0.000414746
4 *924:X 0
5 *404:68 0.00133311
6 *404:14 0.00108463
7 *404:4 0.001839
8 *570:A *647:A0 0.00015607
9 *570:A *647:S 0.000241867
10 *570:A *438:46 7.33737e-05
11 *607:A0 *438:46 3.74158e-05
12 *404:14 *506:A 0.000207026
13 *404:14 *569:A 2.37827e-05
14 *404:14 *646:S 0.000283887
15 *404:14 *647:A0 3.27435e-05
16 *404:14 *647:S 0.000255255
17 *404:14 *924:A 2.98302e-05
18 *404:14 *420:18 5.51483e-06
19 *404:14 *481:32 0.000394659
20 *404:68 *492:C1 0.000414382
21 *404:68 *563:A 1.07248e-05
22 *404:68 *579:A 9.03762e-06
23 *404:68 *418:14 0.000156579
24 *404:68 *430:14 0.00016127
25 *404:68 *430:20 6.57246e-05
26 *404:68 *451:22 9.14922e-05
27 *404:68 *464:80 0.000312004
28 resp_msg[4] *607:A0 6.14474e-06
29 *563:B *404:68 5.19931e-05
30 *569:B *570:A 1.00766e-05
31 *578:B *404:68 0.000437992
32 *594:A1 *404:68 9.4385e-05
33 *611:A *404:14 0.000258216
34 *646:A1 *404:14 0.000256285
35 *647:A1 *570:A 6.08467e-05
36 *658:B *404:68 0
37 *664:D *404:68 0.000192252
38 *704:D *404:14 9.54357e-06
39 *705:D *570:A 0.000154145
40 *705:D *404:14 5.47628e-05
41 *837:A *570:A 5.71992e-05
42 *837:A *607:A0 8.444e-05
43 *837:A *404:14 5.04829e-06
44 *850:A *570:A 0.000139684
45 *850:A *404:14 0.000131894
46 *870:A *570:A 1.94615e-05
47 *870:A *607:A0 6.49659e-05
48 *936:A *404:68 0.000278502
49 *948:A *404:68 1.99304e-05
50 *973:A *404:14 5.04829e-06
51 *981:A *404:68 2.02035e-05
52 *1004:A *404:68 0.000170107
53 *108:18 *404:68 0.000732496
54 *155:10 *664:A 1.41181e-05
55 *167:22 *404:68 5.41867e-05
56 *220:8 *404:68 6.88645e-05
57 *259:58 *404:14 4.69495e-06
58 *305:16 *404:68 6.96897e-05
59 *387:20 *664:A 3.88213e-05
60 *403:24 *404:68 9.14571e-05
*RES
1 *924:X *404:4 9.24915 
2 *404:4 *404:14 33.3847 
3 *404:14 *570:A 25.9229 
4 *404:14 *607:A0 16.8269 
5 *404:4 *404:68 49.9219 
6 *404:68 *664:A 15.8451 
*END

*D_NET *405 0.00449491
*CONN
*I *604:A0 I *D sky130_fd_sc_hd__mux2i_1
*I *925:X O *D sky130_fd_sc_hd__buf_4
*CAP
1 *604:A0 0
2 *925:X 0.00102139
3 *405:22 0.00102139
4 *405:22 *604:S 0.000167076
5 *405:22 *925:A 0.000404826
6 *405:22 *430:79 0.000151462
7 *504:A *405:22 0.000212491
8 *564:B *405:22 2.12958e-05
9 *604:A1 *405:22 0.000175197
10 *606:A2 *405:22 0.000211207
11 *827:A *405:22 6.64392e-05
12 *77:22 *405:22 0.000205666
13 *186:16 *405:22 0.000138607
14 *207:8 *405:22 0.000537554
15 *211:6 *405:22 6.04782e-05
16 *220:14 *405:22 9.98296e-05
*RES
1 *925:X *405:22 47.2806 
2 *405:22 *604:A0 9.24915 
*END

*D_NET *406 0.00416154
*CONN
*I *663:B I *D sky130_fd_sc_hd__nor4_1
*I *562:A I *D sky130_fd_sc_hd__xor2_2
*I *601:A0 I *D sky130_fd_sc_hd__mux2i_1
*I *926:X O *D sky130_fd_sc_hd__buf_4
*CAP
1 *663:B 0.00068745
2 *562:A 0.000102113
3 *601:A0 0.000172472
4 *926:X 0
5 *406:27 0.000894103
6 *406:4 0.000277012
7 *562:A *644:A0 0
8 *601:A0 *644:A0 0.00042262
9 *663:B *605:B 8.90311e-06
10 *663:B *430:94 2.61028e-05
11 *406:27 *644:A0 2.29454e-05
12 *601:A1 *601:A0 1.41291e-05
13 *603:A2 *601:A0 3.14978e-05
14 *605:A *663:B 7.92757e-06
15 *606:B1 *663:B 0.000559547
16 *834:A *562:A 5.53933e-05
17 *834:A *663:B 1.5613e-05
18 *834:A *406:27 2.01179e-05
19 *942:A *601:A0 6.08467e-05
20 *942:A *406:27 0.00016553
21 *32:22 *601:A0 6.08467e-05
22 *32:22 *663:B 0.000317707
23 *32:22 *406:27 0.000202269
24 *204:12 *663:B 3.63956e-05
*RES
1 *926:X *406:4 9.24915 
2 *406:4 *601:A0 24.8528 
3 *406:4 *406:27 8.6215 
4 *406:27 *562:A 16.4116 
5 *406:27 *663:B 29.0851 
*END

*D_NET *407 0.00451815
*CONN
*I *673:A0 I *D sky130_fd_sc_hd__mux2i_1
*I *661:A I *D sky130_fd_sc_hd__nor4_1
*I *927:X O *D sky130_fd_sc_hd__buf_4
*CAP
1 *673:A0 0
2 *661:A 0.000440592
3 *927:X 0.000531106
4 *407:22 0.000971698
5 *661:A *749:B1 0.000140853
6 *661:A *455:24 0.000117158
7 *407:22 *685:CLK 8.36586e-06
8 *523:B *407:22 6.3657e-05
9 *587:B *407:22 0.000205476
10 *661:B *661:A 6.27718e-05
11 *661:D *661:A 0.000109421
12 *673:A1 *407:22 0.000117788
13 *675:A2 *407:22 2.16355e-05
14 *685:DE *407:22 1.31166e-05
15 *734:A1 *661:A 0.00010562
16 *748:C1 *407:22 8.29362e-05
17 *754:C1 *407:22 2.61955e-05
18 *927:A *407:22 0.000107496
19 *105:34 *661:A 2.18679e-05
20 *118:12 *661:A 0.000148332
21 *210:12 *407:22 0.000107496
22 *283:23 *661:A 0.000568785
23 *337:22 *407:22 0.000144659
24 *343:46 *661:A 0.000198357
25 *362:16 *407:22 2.67096e-05
26 *386:60 *407:22 0.000131452
27 *386:70 *407:22 4.46057e-05
*RES
1 *927:X *407:22 41.5361 
2 *407:22 *661:A 34.65 
3 *407:22 *673:A0 9.24915 
*END

*D_NET *408 0.00586929
*CONN
*I *662:D I *D sky130_fd_sc_hd__nor4_1
*I *640:A0 I *D sky130_fd_sc_hd__mux2i_1
*I *928:X O *D sky130_fd_sc_hd__buf_4
*CAP
1 *662:D 0.000244449
2 *640:A0 0.000406111
3 *928:X 0.000795579
4 *408:16 0.00144614
5 *640:A0 *410:8 6.08467e-05
6 *640:A0 *436:62 3.87022e-06
7 *662:D *662:B 6.75855e-05
8 *662:D *662:C 0.000291857
9 *408:16 *655:A0 0.000102603
10 *408:16 *662:C 3.97643e-05
11 *408:16 *928:A 0.000228098
12 *408:16 *445:247 5.25148e-05
13 *408:16 *471:28 1.61222e-05
14 *519:A1 *662:D 3.05511e-05
15 *550:A *640:A0 0.000203756
16 *641:A *640:A0 0
17 *641:A *662:D 0.000100809
18 *642:A2 *640:A0 5.04829e-06
19 *655:A1 *408:16 1.20327e-05
20 *828:A *408:16 2.08013e-05
21 *899:A *640:A0 8.79065e-05
22 *930:A *408:16 0.000352099
23 *7:10 *408:16 0.000165495
24 *80:18 *408:16 0.000799148
25 *84:22 *408:16 9.24241e-05
26 *106:20 *662:D 2.16355e-05
27 *255:18 *662:D 0
28 *256:36 *640:A0 9.69426e-05
29 *282:20 *662:D 3.26582e-06
30 *283:10 *640:A0 3.52082e-05
31 *283:10 *662:D 2.00611e-05
32 *283:10 *408:16 1.18339e-05
33 *359:26 *640:A0 2.26985e-05
34 *379:20 *640:A0 3.20285e-05
*RES
1 *928:X *408:16 37.8713 
2 *408:16 *640:A0 32.7841 
3 *408:16 *662:D 21.2876 
*END

*D_NET *409 0.00413748
*CONN
*I *662:C I *D sky130_fd_sc_hd__nor4_1
*I *637:A0 I *D sky130_fd_sc_hd__mux2i_1
*I *929:X O *D sky130_fd_sc_hd__buf_4
*CAP
1 *662:C 0.000311641
2 *637:A0 0.000276511
3 *929:X 0.000617646
4 *409:10 0.0012058
5 *637:A0 *655:S 6.52144e-05
6 *637:A0 *436:62 0
7 *662:C *655:S 0
8 *409:10 *929:A 3.82228e-05
9 *529:B *637:A0 0
10 *550:A *409:10 2.41274e-06
11 *641:A *662:C 0.000120038
12 *662:D *662:C 0.000291857
13 *746:A *409:10 0.000362627
14 *896:A *409:10 4.59704e-05
15 *84:22 *637:A0 0
16 *144:18 *409:10 0.000424672
17 *257:22 *409:10 1.55174e-05
18 *283:10 *637:A0 0
19 *283:10 *662:C 0.00031959
20 *408:16 *662:C 3.97643e-05
*RES
1 *929:X *409:10 29.471 
2 *409:10 *637:A0 19.9413 
3 *409:10 *662:C 27.5264 
*END

*D_NET *410 0.00370762
*CONN
*I *662:B I *D sky130_fd_sc_hd__nor4_1
*I *634:A0 I *D sky130_fd_sc_hd__mux2i_1
*I *930:X O *D sky130_fd_sc_hd__buf_4
*CAP
1 *662:B 0.000384657
2 *634:A0 0.000984019
3 *930:X 5.42547e-05
4 *410:8 0.00142293
5 *634:A0 *654:S 0
6 *634:A0 *662:A 4.69788e-06
7 *634:A0 *697:DE 7.11974e-05
8 *634:A0 *1000:A 2.17025e-05
9 *634:A0 *445:149 2.6632e-05
10 *662:B *641:B 9.08436e-06
11 *662:B *662:A 0.000184632
12 *550:A *410:8 3.31745e-05
13 *636:A1 *634:A0 0.00014561
14 *640:A0 *410:8 6.08467e-05
15 *641:A *662:B 0.000100222
16 *662:D *662:B 6.75855e-05
17 *734:A1 *634:A0 1.00102e-05
18 *739:B1 *662:B 5.04829e-06
19 *740:B *662:B 2.41274e-06
20 *930:A *634:A0 1.66626e-05
21 *930:A *662:B 2.91525e-05
22 *80:18 *634:A0 7.86825e-06
23 *80:18 *662:B 4.56208e-06
24 *80:18 *410:8 5.89592e-05
25 *106:20 *662:B 1.69394e-06
26 *282:20 *634:A0 0
*RES
1 *930:X *410:8 15.5817 
2 *410:8 *634:A0 25.9599 
3 *410:8 *662:B 22.1209 
*END

*D_NET *411 0.00308939
*CONN
*I *662:A I *D sky130_fd_sc_hd__nor4_1
*I *631:A0 I *D sky130_fd_sc_hd__mux2i_4
*I *931:X O *D sky130_fd_sc_hd__buf_4
*CAP
1 *662:A 0.000638436
2 *631:A0 0.00023675
3 *931:X 0.000875186
4 *631:A0 *459:22 0.000183413
5 *662:A *641:B 0.000126583
6 *662:A *655:S 6.37393e-06
7 *550:A *631:A0 4.36956e-05
8 *550:A *662:A 0.000110297
9 *634:A0 *662:A 4.69788e-06
10 *641:A *662:A 5.7582e-05
11 *662:B *662:A 0.000184632
12 *740:B *662:A 1.03403e-05
13 *899:A *662:A 0.000103304
14 *8:6 *631:A0 8.7133e-05
15 *80:18 *662:A 0.000122048
16 *198:18 *662:A 5.94319e-06
17 *199:40 *631:A0 0.000186954
18 *254:20 *662:A 1.75194e-05
19 *257:22 *662:A 1.2346e-05
20 *282:20 *662:A 5.98035e-06
21 *283:10 *662:A 1.27831e-06
22 *343:12 *662:A 3.06765e-05
23 *392:12 *631:A0 3.82228e-05
*RES
1 *931:X *631:A0 35.0423 
2 *931:X *662:A 44.1826 
*END

*D_NET *139 0.00286843
*CONN
*I *629:A I *D sky130_fd_sc_hd__nand2_1
*I *843:X O *D sky130_fd_sc_hd__clkdlybuf4s50_1
*CAP
1 *629:A 0.000900142
2 *843:X 0.000900142
3 *629:A *535:A 0.000175689
4 *629:A *843:A 9.91731e-05
5 *629:A *395:20 1.78514e-05
6 *629:A *431:84 0
7 *541:B *629:A 1.88014e-05
8 *541:C *629:A 0.000674412
9 *74:18 *629:A 8.22145e-05
*RES
1 *843:X *629:A 45.4699 
*END

*D_NET *395 0.00948224
*CONN
*I *628:A0 I *D sky130_fd_sc_hd__mux2i_2
*I *661:D I *D sky130_fd_sc_hd__nor4_1
*I *915:X O *D sky130_fd_sc_hd__buf_4
*CAP
1 *628:A0 0
2 *661:D 0.00167615
3 *915:X 0.000790678
4 *395:20 0.00246683
5 *661:D *595:A0 1.11499e-05
6 *661:D *661:A 0.000109421
7 *661:D *661:B 1.09113e-05
8 *661:D *661:C 1.09381e-05
9 *661:D *863:A 8.40176e-06
10 *661:D *426:66 0.00129177
11 *395:20 *696:CLK 0.00010762
12 *395:20 *710:CLK 6.08467e-05
13 *395:20 *431:73 6.08467e-05
14 *395:20 *444:120 0.000362156
15 *395:20 *444:126 0.000355612
16 *535:A *395:20 0
17 *587:B *395:20 0.000346303
18 *629:A *395:20 1.78514e-05
19 *865:A *661:D 1.92766e-05
20 *888:A *661:D 6.2753e-05
21 *927:A *395:20 0.000159032
22 *74:18 *395:20 0.000304983
23 *118:12 *661:D 4.35492e-05
24 *158:22 *661:D 0.00049311
25 *210:12 *395:20 5.71744e-05
26 *252:20 *395:20 8.92568e-06
27 *254:20 *661:D 4.00092e-05
28 *337:22 *395:20 0
29 *386:60 *395:20 0.000605929
30 *386:93 *661:D 0
*RES
1 *915:X *395:20 48.6323 
2 *395:20 *661:D 32.4221 
3 *395:20 *628:A0 9.24915 
*END

*D_NET *412 0.00428196
*CONN
*I *598:A0 I *D sky130_fd_sc_hd__mux2i_1
*I *663:A I *D sky130_fd_sc_hd__nor4_1
*I *932:X O *D sky130_fd_sc_hd__buf_4
*CAP
1 *598:A0 6.55499e-05
2 *663:A 0.000210614
3 *932:X 0.000447468
4 *412:14 0.000723631
5 *598:A0 *600:A2 1.45248e-05
6 *663:A *598:S 0.000324234
7 *663:A *430:94 8.02736e-05
8 *412:14 *598:S 0.000283542
9 *412:14 *932:A 0.000546661
10 *500:A *663:A 2.9526e-05
11 *500:B *663:A 6.08467e-05
12 *554:A *412:14 0.000122158
13 *600:B1 *663:A 0.000103557
14 *632:A *663:A 3.52699e-05
15 *632:A *412:14 0.000608932
16 *643:A0 *412:14 0.000160039
17 *643:A1 *598:A0 7.57527e-05
18 *196:14 *412:14 0.000107496
19 *199:22 *412:14 8.72285e-06
20 *259:267 *663:A 1.96926e-05
21 *333:29 *412:14 0.000145456
22 *393:20 *663:A 0.00010801
*RES
1 *932:X *412:14 27.8944 
2 *412:14 *663:A 21.9771 
3 *412:14 *598:A0 18.7423 
*END

*D_NET *413 0.00476321
*CONN
*I *542:A I *D sky130_fd_sc_hd__nand2_1
*I *652:A0 I *D sky130_fd_sc_hd__mux2_4
*I *933:X O *D sky130_fd_sc_hd__buf_4
*CAP
1 *542:A 2.13038e-05
2 *652:A0 0
3 *933:X 0.000123273
4 *413:26 0.000984419
5 *413:6 0.001129
6 *625:A1 *413:26 1.65872e-05
7 *630:A2 *413:6 1.76067e-05
8 *630:A2 *413:26 6.1454e-05
9 *933:A *413:6 6.27782e-05
10 *152:22 *413:26 0.00157916
11 *171:16 *413:26 0.000143175
12 *174:10 *413:26 0.000216467
13 *399:80 *413:26 0.000407993
*RES
1 *933:X *413:6 12.191 
2 *413:6 *413:26 44.6545 
3 *413:26 *652:A0 9.24915 
4 *413:6 *542:A 9.82786 
*END

*D_NET *414 0.00656247
*CONN
*I *539:A I *D sky130_fd_sc_hd__nand2_1
*I *715:A1 I *D sky130_fd_sc_hd__o211ai_1
*I *651:A0 I *D sky130_fd_sc_hd__mux2_4
*I *934:X O *D sky130_fd_sc_hd__buf_4
*CAP
1 *539:A 0.00020851
2 *715:A1 9.98442e-05
3 *651:A0 0.000301451
4 *934:X 0.000215898
5 *414:39 0.000934576
6 *414:8 0.00114357
7 *651:A0 *651:S 9.598e-05
8 *651:A0 *426:42 1.08574e-05
9 *651:A0 *431:73 4.77852e-05
10 *715:A1 *715:C1 0.000107496
11 *414:8 *651:S 1.65872e-05
12 *414:8 *431:73 1.05373e-05
13 *414:39 *426:46 9.58043e-06
14 *414:39 *426:56 0.000633049
15 *539:B *539:A 0.000254872
16 *693:D *715:A1 0.000167615
17 *693:D *414:39 3.03575e-05
18 *754:A1 *414:39 0.000135937
19 *842:A *414:39 1.04624e-05
20 *880:A *414:39 0.000525725
21 *934:A *414:8 4.58003e-05
22 *1:59 *715:A1 2.23124e-05
23 *105:34 *414:39 4.79809e-06
24 *171:16 *414:39 0.000398888
25 *180:26 *414:39 0.000501531
26 *321:10 *414:39 0.000392665
27 *322:10 *715:A1 0.000164017
28 *322:10 *414:39 3.29488e-05
29 *336:10 *414:39 3.88213e-05
*RES
1 *934:X *414:8 12.7697 
2 *414:8 *651:A0 15.3498 
3 *414:8 *414:39 31.0775 
4 *414:39 *715:A1 18.1049 
5 *414:39 *539:A 19.1264 
*END

*D_NET *415 0.00923226
*CONN
*I *998:A I *D sky130_fd_sc_hd__buf_4
*I *729:A I *D sky130_fd_sc_hd__nand2_1
*I *576:A1 I *D sky130_fd_sc_hd__o211ai_1
*I *650:A0 I *D sky130_fd_sc_hd__mux2_4
*I *935:X O *D sky130_fd_sc_hd__buf_6
*CAP
1 *998:A 0.000211911
2 *729:A 0
3 *576:A1 0
4 *650:A0 0.000383047
5 *935:X 0
6 *415:71 0.0011064
7 *415:41 0.00112236
8 *415:20 0.00103979
9 *415:6 0.000852692
10 *650:A0 *616:S 0.000141537
11 *998:A *619:S 5.1674e-06
12 *998:A *692:CLK 0.000111658
13 *998:A *475:18 4.02502e-05
14 *415:20 *619:S 1.31872e-05
15 *415:20 *709:DE 0.00018742
16 *415:20 *443:18 2.26179e-06
17 *415:20 *475:18 0.00030357
18 *415:71 *576:C1 0.000314399
19 *415:71 *585:A 0.000109421
20 *415:71 *429:15 0
21 *415:71 *442:8 0.000127602
22 *415:71 *442:26 1.48605e-05
23 resp_msg[7] *650:A0 4.9e-05
24 *575:A *650:A0 0.000189201
25 *616:A1 *650:A0 0.000138453
26 *650:A1 *650:A0 6.27782e-05
27 *722:A1 *650:A0 6.08467e-05
28 *722:A1 *415:20 0.000388444
29 *722:B1_N *415:71 7.93318e-06
30 *726:A2 *415:71 6.08467e-05
31 *729:B *650:A0 6.36477e-05
32 *729:B *415:71 0.000113295
33 *736:C *415:71 5.43663e-05
34 *744:A *415:20 0.000269012
35 *744:A *415:71 5.01737e-05
36 *878:A *415:20 6.08467e-05
37 *878:A *415:71 0.000113309
38 *962:A *415:71 5.88009e-05
39 *28:14 *415:20 0
40 *28:22 *650:A0 7.93063e-05
41 *66:14 *998:A 0.000151575
42 *69:16 *998:A 7.70513e-05
43 *95:26 *650:A0 0.00025527
44 *105:34 *415:71 2.23586e-05
45 *136:24 *650:A0 3.99086e-06
46 *136:24 *415:20 3.39216e-05
47 *169:18 *415:71 0
48 *170:51 *650:A0 0.000296024
49 *182:30 *998:A 6.4002e-05
50 *182:30 *415:20 2.76586e-05
51 *259:146 *415:71 3.24433e-05
52 *259:169 *415:71 0.000259071
53 *264:27 *415:20 1.61631e-05
54 *355:26 *650:A0 4.61271e-05
55 *358:20 *415:20 2.84661e-05
56 *400:8 *650:A0 1.03403e-05
*RES
1 *935:X *415:6 13.7491 
2 *415:6 *415:20 31.7707 
3 *415:20 *650:A0 32.7995 
4 *415:20 *415:41 0.578717 
5 *415:41 *415:71 43.7036 
6 *415:71 *576:A1 9.24915 
7 *415:41 *729:A 9.24915 
8 *415:6 *998:A 21.0877 
*END

*D_NET *416 0.0025243
*CONN
*I *649:A0 I *D sky130_fd_sc_hd__mux2_4
*I *936:X O *D sky130_fd_sc_hd__buf_4
*CAP
1 *649:A0 0.000613043
2 *936:X 0.000613043
3 *649:A0 *473:30 3.6928e-05
4 *649:A1 *649:A0 0.000154145
5 *660:B_N *649:A0 0.000111708
6 *667:A2 *649:A0 3.60437e-05
7 *936:A *649:A0 4.81015e-05
8 *3:14 *649:A0 0.00059301
9 *60:12 *649:A0 0.000263472
10 *173:10 *649:A0 5.481e-05
*RES
1 *936:X *649:A0 44.3736 
*END

*D_NET *418 0.00487169
*CONN
*I *581:A I *D sky130_fd_sc_hd__nand2_1
*I *492:C1 I *D sky130_fd_sc_hd__o211ai_1
*I *648:A0 I *D sky130_fd_sc_hd__mux2_4
*I *938:X O *D sky130_fd_sc_hd__buf_4
*CAP
1 *581:A 8.83475e-05
2 *492:C1 0.000257081
3 *648:A0 0.000747
4 *938:X 0
5 *418:14 0.00127552
6 *418:4 0.000359783
7 *492:C1 *618:A1 4.54693e-05
8 *581:A *431:22 0.00025175
9 *581:A *474:47 3.03541e-05
10 *648:A0 *474:14 1.75637e-06
11 *648:A0 *474:47 7.67963e-06
12 *418:14 *579:A 1.92481e-05
13 *418:14 *618:A1 4.6218e-05
14 *418:14 *431:22 0.000254711
15 *418:14 *474:47 2.57847e-05
16 *492:A2 *492:C1 4.0996e-05
17 *492:B1 *492:C1 6.08467e-05
18 *495:A *418:14 5.68225e-06
19 *577:B1 *581:A 2.77625e-06
20 *581:B *581:A 6.3657e-05
21 *648:A1 *648:A0 1.43848e-05
22 *659:B1 *492:C1 0.000182869
23 *659:B2 *648:A0 4.03424e-06
24 *659:C1 *648:A0 4.87301e-05
25 *916:A *418:14 5.08447e-05
26 *936:A *492:C1 1.91391e-05
27 *938:A *418:14 4.24488e-05
28 *948:A *648:A0 3.99532e-05
29 *985:A *581:A 2.63971e-05
30 *28:35 *492:C1 0.000156946
31 *29:40 *648:A0 7.04343e-05
32 *33:48 *492:C1 3.31745e-05
33 *113:10 *492:C1 2.67121e-05
34 *404:68 *492:C1 0.000414382
35 *404:68 *418:14 0.000156579
*RES
1 *938:X *418:4 9.24915 
2 *418:4 *418:14 13.4996 
3 *418:14 *648:A0 24.8894 
4 *418:14 *492:C1 24.6929 
5 *418:4 *581:A 12.7697 
*END

*D_NET *140 0.00264701
*CONN
*I *632:A I *D sky130_fd_sc_hd__nand2_1
*I *844:X O *D sky130_fd_sc_hd__clkdlybuf4s50_1
*CAP
1 *632:A 0.000609019
2 *844:X 0.000609019
3 *632:A *500:A 2.82987e-06
4 *632:A *500:B 2.28238e-05
5 *632:A *600:A2 1.1095e-05
6 *632:A *663:A 3.52699e-05
7 *632:A *205:24 1.17089e-05
8 *632:A *259:267 0.000155605
9 *632:A *333:29 7.54771e-05
10 *632:A *380:22 0.000165521
11 *632:A *412:14 0.000608932
12 *632:A *429:65 9.29563e-05
13 *632:A *430:94 2.65831e-05
14 *643:A1 *632:A 4.40531e-05
15 *695:D *632:A 1.33805e-05
16 *45:14 *632:A 0.000162739
*RES
1 *844:X *632:A 41.7942 
*END

*D_NET *420 0.00382455
*CONN
*I *646:A0 I *D sky130_fd_sc_hd__mux2_4
*I *569:A I *D sky130_fd_sc_hd__nand2_1
*I *940:X O *D sky130_fd_sc_hd__buf_4
*CAP
1 *646:A0 1.68472e-05
2 *569:A 0.000294478
3 *940:X 0.000488366
4 *420:18 0.000799691
5 *569:A *647:A0 0.000349583
6 *569:A *647:S 0.000155293
7 *569:A *435:71 0.000111722
8 *420:18 *646:S 1.41976e-05
9 *420:18 *647:A0 9.32983e-05
10 *420:18 *705:CLK 0.000240285
11 *420:18 *427:112 0.000148517
12 *420:18 *430:45 0.000411912
13 *420:18 *481:32 9.0612e-05
14 *646:A1 *569:A 9.0845e-05
15 *646:A1 *646:A0 1.02267e-05
16 *646:A1 *420:18 2.16355e-05
17 *871:A *569:A 3.82228e-05
18 *923:A *569:A 6.86533e-05
19 *15:20 *420:18 1.41976e-05
20 *52:18 *569:A 0.000331453
21 *259:94 *420:18 5.21758e-06
22 *404:14 *569:A 2.37827e-05
23 *404:14 *420:18 5.51483e-06
*RES
1 *940:X *420:18 32.657 
2 *420:18 *569:A 29.9779 
3 *420:18 *646:A0 9.82786 
*END

*D_NET *421 0.00486114
*CONN
*I *564:A I *D sky130_fd_sc_hd__xnor2_2
*I *566:A I *D sky130_fd_sc_hd__nand2_1
*I *645:A0 I *D sky130_fd_sc_hd__mux2_4
*I *941:X O *D sky130_fd_sc_hd__buf_4
*CAP
1 *564:A 0
2 *566:A 0.000182018
3 *645:A0 0
4 *941:X 0.000375757
5 *421:28 0.000544469
6 *421:18 0.000738209
7 *566:A *508:A 4.31603e-06
8 *566:A *645:S 6.08467e-05
9 *566:A *435:14 0.000113478
10 *421:28 *502:C 6.94925e-05
11 *504:B *421:18 0.00014554
12 *564:B *421:18 0.000107496
13 *565:A *421:18 6.36477e-05
14 *566:B *566:A 6.91876e-05
15 *645:A1 *566:A 6.3657e-05
16 *645:A1 *421:18 0.000509977
17 *847:A *421:18 0.000107496
18 *1007:A *421:18 1.03434e-05
19 *1007:A *421:28 0.000347
20 *32:22 *421:18 0.000344268
21 *90:16 *566:A 0.000358855
22 *186:16 *421:28 0.000145508
23 *196:14 *421:18 4.03362e-05
24 *207:8 *421:18 0.000139947
25 *207:8 *421:28 0.000109421
26 *207:21 *421:28 0.000174216
27 *209:14 *566:A 5.51483e-06
28 *304:20 *421:18 2.41909e-05
29 *304:20 *421:28 5.95249e-06
*RES
1 *941:X *421:18 31.8497 
2 *421:18 *421:28 21.1478 
3 *421:28 *645:A0 9.24915 
4 *421:28 *566:A 16.4349 
5 *421:18 *564:A 9.24915 
*END

*D_NET *422 0.0104851
*CONN
*I *508:A I *D sky130_fd_sc_hd__nand3_2
*I *557:A I *D sky130_fd_sc_hd__nor2_1
*I *561:A I *D sky130_fd_sc_hd__nand2_1
*I *644:A0 I *D sky130_fd_sc_hd__mux2_4
*I *942:X O *D sky130_fd_sc_hd__buf_4
*CAP
1 *508:A 0.00103156
2 *557:A 0.000889818
3 *561:A 0.000136107
4 *644:A0 0.000332294
5 *942:X 4.01458e-05
6 *422:42 0.00246541
7 *422:27 0.00101104
8 *422:6 0.000703339
9 *508:A *502:C 0.000547246
10 *508:A *977:A 0.000153589
11 *557:A *511:A 6.50727e-05
12 *561:A *449:20 1.37189e-05
13 *422:42 *609:A1 0
14 *422:42 *435:16 6.1128e-05
15 *422:42 *438:34 3.9313e-05
16 *422:42 *445:59 0
17 *509:B *508:A 0
18 *509:B *557:A 0
19 *552:A2 *508:A 0
20 *552:B1 *508:A 0
21 *553:B1 *508:A 3.84291e-05
22 *555:A1 *508:A 8.33339e-06
23 *555:A1 *557:A 8.02112e-05
24 *556:A *422:27 0
25 *556:A *422:42 0
26 *556:B *422:27 8.94009e-06
27 *556:B *422:42 5.81184e-05
28 *557:B *557:A 6.08467e-05
29 *562:A *644:A0 0
30 *565:A *508:A 2.55661e-06
31 *566:A *508:A 4.31603e-06
32 *566:B *508:A 6.83519e-05
33 *601:A0 *644:A0 0.00042262
34 *603:A2 *644:A0 5.22164e-05
35 *702:D *644:A0 0.000192991
36 *704:D *422:42 1.66771e-05
37 *902:A *422:42 5.76824e-05
38 *942:A *644:A0 0.000179992
39 *942:A *422:27 0
40 *972:A *561:A 0.00014873
41 *984:A *508:A 0
42 *31:37 *422:42 0
43 *32:22 *644:A0 9.94284e-06
44 *52:18 *557:A 1.9101e-05
45 *90:16 *508:A 5.99529e-06
46 *129:14 *644:A0 0.000911134
47 *131:22 *561:A 8.67924e-06
48 *204:22 *422:27 0.000316976
49 *304:20 *508:A 3.49497e-05
50 *309:19 *644:A0 0.000264612
51 *406:27 *644:A0 2.29454e-05
*RES
1 *942:X *422:6 10.2378 
2 *422:6 *644:A0 36.1055 
3 *422:6 *422:27 11.7303 
4 *422:27 *561:A 16.5704 
5 *422:27 *422:42 16.205 
6 *422:42 *557:A 19.7996 
7 *422:42 *508:A 22.2936 
*END

*D_NET *423 0.00741696
*CONN
*I *515:A1 I *D sky130_fd_sc_hd__a221oi_2
*I *595:A0 I *D sky130_fd_sc_hd__mux2_4
*I *943:X O *D sky130_fd_sc_hd__buf_4
*CAP
1 *515:A1 0.00191743
2 *595:A0 0.00102182
3 *943:X 1.86822e-05
4 *423:10 0.00295794
5 *595:A0 *628:S 0.000123523
6 *595:A0 *653:S 1.07403e-05
7 *595:A0 *701:DE 0.000585287
8 *595:A0 *436:31 3.33981e-05
9 *534:A *423:10 4.19401e-06
10 *535:B *595:A0 2.21765e-05
11 *628:A1 *595:A0 0
12 *661:D *595:A0 1.11499e-05
13 *701:D *595:A0 7.92757e-06
14 *849:A *515:A1 1.13978e-06
15 *865:A *515:A1 0.000133323
16 *927:A *595:A0 3.659e-05
17 *2:10 *595:A0 0
18 *73:12 *595:A0 0
19 *75:14 *595:A0 0.000199432
20 *127:16 *595:A0 2.44243e-05
21 *258:12 *515:A1 5.52874e-05
22 *269:12 *595:A0 0
23 *272:12 *515:A1 0.000213676
24 *278:16 *515:A1 3.88213e-05
25 *359:26 *515:A1 0
*RES
1 *943:X *423:10 17.4965 
2 *423:10 *595:A0 39.9936 
3 *423:10 *515:A1 24.1005 
*END

*D_NET *424 0.00206041
*CONN
*I *655:A0 I *D sky130_fd_sc_hd__mux2_4
*I *525:A I *D sky130_fd_sc_hd__nand2_1
*I *944:X O *D sky130_fd_sc_hd__buf_4
*CAP
1 *655:A0 0.000326977
2 *525:A 3.45202e-05
3 *944:X 0
4 *424:4 0.000361497
5 *655:A0 *430:137 0.000211492
6 *655:A0 *446:114 0
7 *655:A0 *471:28 1.65872e-05
8 *524:B *525:A 0.000171899
9 *524:B *655:A0 0.000200955
10 *525:B *655:A0 0
11 *524:A *525:A 0.000118792
12 *524:A *655:A0 0.000216458
13 *526:A *525:A 2.71651e-05
14 *7:10 *655:A0 0.000113096
15 *84:22 *655:A0 0.000158371
16 *260:26 *525:A 0
17 *280:10 *655:A0 0
18 *408:16 *655:A0 0.000102603
*RES
1 *944:X *424:4 9.24915 
2 *424:4 *525:A 11.6605 
3 *424:4 *655:A0 29.8386 
*END

*D_NET *394 0.00270578
*CONN
*I *549:A I *D sky130_fd_sc_hd__nand2_1
*I *654:A0 I *D sky130_fd_sc_hd__mux2_4
*I *914:X O *D sky130_fd_sc_hd__buf_4
*CAP
1 *549:A 0.000624763
2 *654:A0 0
3 *914:X 3.38975e-05
4 *394:6 0.00065866
5 *549:A *536:B 4.43331e-05
6 *549:A *684:DE 1.9101e-05
7 *512:A *549:A 0.000171149
8 *512:A *394:6 0.00033061
9 *522:A *549:A 8.36319e-05
10 *522:B *549:A 2.73981e-05
11 *549:B *549:A 5.20313e-05
12 *636:A1 *549:A 6.27332e-05
13 *697:D *549:A 8.62625e-06
14 *738:B *549:A 0
15 *23:33 *549:A 7.94048e-05
16 *106:20 *549:A 0
17 *123:18 *549:A 4.95892e-05
18 *123:18 *394:6 0.000310724
19 *159:18 *549:A 0.000111901
20 *198:18 *549:A 1.92172e-05
21 *199:40 *549:A 0
22 *251:24 *549:A 2.26713e-06
23 *324:20 *549:A 8.72115e-06
24 *375:26 *549:A 7.02269e-06
25 *386:103 *549:A 0
*RES
1 *914:X *394:6 12.7456 
2 *394:6 *654:A0 9.24915 
3 *394:6 *549:A 35.1163 
*END

*D_NET *425 0.00616543
*CONN
*I *597:B I *D sky130_fd_sc_hd__nand2b_1
*I *671:B2 I *D sky130_fd_sc_hd__a22oi_2
*I *593:A I *D sky130_fd_sc_hd__clkinv_1
*I *945:X O *D sky130_fd_sc_hd__buf_4
*CAP
1 *597:B 0.000212215
2 *671:B2 0
3 *593:A 0.00019229
4 *945:X 0.000331234
5 *425:33 0.000579215
6 *425:18 0.000890524
7 *593:A *458:12 0.000187546
8 *597:A_N *597:B 1.47046e-05
9 *659:B2 *425:18 0.000273413
10 *659:C1 *425:18 4.44087e-05
11 *669:A *597:B 0.000161994
12 *670:A *597:B 8.33257e-05
13 *671:B1 *597:B 1.07248e-05
14 *671:B1 *425:18 7.84444e-05
15 *671:B1 *425:33 0.000944273
16 *894:A *597:B 5.89643e-05
17 *894:A *425:33 3.1741e-05
18 *907:A *593:A 0.000111722
19 *936:A *425:18 1.6546e-05
20 *3:14 *425:18 0.000117382
21 *60:12 *425:18 8.19494e-05
22 *108:18 *593:A 0.000113107
23 *115:14 *425:18 8.11083e-05
24 *115:14 *425:33 0.000864089
25 *120:32 *425:18 5.02503e-06
26 *166:33 *593:A 9.31272e-05
27 *172:14 *597:B 2.89766e-05
28 *387:20 *593:A 0.00055738
*RES
1 *945:X *425:18 25.1207 
2 *425:18 *593:A 22.4299 
3 *425:18 *425:33 17.6116 
4 *425:33 *671:B2 13.7491 
5 *425:33 *597:B 20.739 
*END

*D_NET *426 0.0209605
*CONN
*I *652:S I *D sky130_fd_sc_hd__mux2_4
*I *651:S I *D sky130_fd_sc_hd__mux2_4
*I *595:S I *D sky130_fd_sc_hd__mux2_4
*I *653:S I *D sky130_fd_sc_hd__mux2_4
*I *657:S I *D sky130_fd_sc_hd__mux2_4
*I *656:S I *D sky130_fd_sc_hd__mux2_4
*I *650:S I *D sky130_fd_sc_hd__mux2_4
*I *946:X O *D sky130_fd_sc_hd__buf_12
*CAP
1 *652:S 0.000308917
2 *651:S 7.11965e-05
3 *595:S 1.15768e-05
4 *653:S 0.000335223
5 *657:S 0
6 *656:S 0.00025021
7 *650:S 0.000260849
8 *946:X 0.000773216
9 *426:90 0.000472844
10 *426:66 0.00268981
11 *426:56 0.00370211
12 *426:46 0.00121758
13 *426:42 0.000831206
14 *650:S *619:A1 0.000247443
15 *650:S *691:CLK 0.000131782
16 *650:S *431:44 3.20295e-05
17 *650:S *433:32 0.000200794
18 *651:S *431:73 5.01797e-05
19 *426:42 *692:DE 0.000282123
20 *426:42 *431:44 0.000711888
21 *426:42 *431:73 0.000117097
22 *426:56 *696:CLK 6.86234e-05
23 *426:56 *448:23 0.000578524
24 *426:66 *863:A 9.09268e-06
25 *538:B *426:56 0
26 *538:C *652:S 0
27 *538:C *426:42 0
28 *546:A *426:42 1.54769e-05
29 *547:A *426:56 5.54516e-05
30 *595:A0 *653:S 1.07403e-05
31 *616:A1 *650:S 0.000304405
32 *623:A *426:42 0.00012171
33 *637:A1 *656:S 0.00024932
34 *650:A1 *650:S 9.32704e-05
35 *651:A0 *651:S 9.598e-05
36 *651:A0 *426:42 1.08574e-05
37 *651:A1 *426:42 1.5714e-05
38 *653:A0 *653:S 0.000243843
39 *653:A1 *653:S 2.70724e-05
40 *661:C *426:66 0
41 *661:D *426:66 0.00129177
42 *683:DE *426:66 0.000471804
43 *709:D *651:S 0.000160617
44 *744:A *426:42 6.50727e-05
45 *754:A1 *426:56 0.000198745
46 *841:A *426:42 6.50586e-05
47 *842:A *652:S 0.000351882
48 *842:A *426:46 1.66771e-05
49 *842:A *426:56 0.000244594
50 *865:A *656:S 0.000108135
51 *896:A *656:S 0
52 *9:14 *426:56 5.42889e-05
53 *9:14 *426:90 1.15276e-05
54 *24:16 *653:S 3.05338e-05
55 *27:24 *652:S 3.52699e-05
56 *27:24 *426:42 0.00102459
57 *65:20 *426:42 5.65573e-05
58 *66:14 *426:42 1.50728e-05
59 *73:12 *653:S 0
60 *75:14 *595:S 1.10793e-05
61 *75:14 *653:S 0.000147165
62 *95:26 *650:S 0
63 *174:10 *652:S 0
64 *182:30 *426:56 0.00039289
65 *259:189 *426:56 6.91101e-05
66 *319:36 *426:56 1.33641e-05
67 *359:26 *426:66 0.000164818
68 *386:16 *652:S 0
69 *386:60 *426:56 0.000446903
70 *386:70 *426:66 0.000255609
71 *399:80 *652:S 0
72 *414:8 *651:S 1.65872e-05
73 *414:39 *426:46 9.58043e-06
74 *414:39 *426:56 0.000633049
*RES
1 *946:X *650:S 37.0033 
2 *946:X *426:42 33.0792 
3 *426:42 *426:46 3.7474 
4 *426:46 *426:56 17.4784 
5 *426:56 *426:66 10.8146 
6 *426:66 *656:S 20.5642 
7 *426:66 *657:S 13.7491 
8 *426:56 *426:90 3.6099 
9 *426:90 *653:S 23.3281 
10 *426:90 *595:S 14.1278 
11 *426:46 *651:S 16.9683 
12 *426:42 *652:S 23.9282 
*END

*D_NET *391 0.0065624
*CONN
*I *952:A I *D sky130_fd_sc_hd__buf_6
*I *597:A_N I *D sky130_fd_sc_hd__nand2b_1
*I *999:A I *D sky130_fd_sc_hd__buf_4
*I *987:A I *D sky130_fd_sc_hd__buf_8
*I *911:X O *D sky130_fd_sc_hd__buf_12
*CAP
1 *952:A 0.000223263
2 *597:A_N 0.000404213
3 *999:A 0
4 *987:A 4.71838e-05
5 *911:X 0.000192924
6 *391:40 0.000834123
7 *391:31 0.000808647
8 *391:10 0.000842108
9 *597:A_N *597:B 1.47046e-05
10 *597:A_N *476:20 0.00052721
11 *952:A *433:32 4.42462e-05
12 *952:A *447:88 2.43211e-05
13 *987:A *444:48 2.16355e-05
14 *391:10 *594:A2 0.00016195
15 *391:10 *616:A0 0.000256285
16 *391:10 *447:18 0.000178954
17 *391:31 *596:B 0
18 *391:31 *659:A2 0
19 *391:31 *447:18 5.74864e-05
20 *391:31 *476:6 0.000112361
21 *391:40 *476:6 8.8047e-05
22 *391:40 *476:20 3.26503e-05
23 resp_msg[7] *987:A 2.16355e-05
24 *669:A *597:A_N 3.99086e-06
25 *670:A *597:A_N 0.000261135
26 *677:D *597:A_N 0.000411806
27 *839:A *391:40 0.00016195
28 *881:A *391:31 0
29 *948:A *952:A 0.000307614
30 *954:A *952:A 3.87022e-06
31 *989:A *391:31 7.55409e-05
32 *95:26 *391:31 0.000306404
33 *168:32 *391:10 1.59362e-06
34 *168:32 *391:31 2.44385e-05
35 *385:16 *391:31 0.000110113
*RES
1 *911:X *391:10 20.184 
2 *391:10 *987:A 15.0513 
3 *391:10 *391:31 20.5561 
4 *391:31 *999:A 9.24915 
5 *391:31 *391:40 5.73894 
6 *391:40 *597:A_N 22.7525 
7 *391:40 *952:A 25.4794 
*END

*D_NET *141 0.00286671
*CONN
*I *635:A I *D sky130_fd_sc_hd__nand2_1
*I *845:X O *D sky130_fd_sc_hd__clkdlybuf4s50_1
*CAP
1 *635:A 0.00124161
2 *845:X 0.00124161
3 *635:A *635:B 9.95922e-06
4 *635:A *638:B 6.94436e-05
5 *635:A *845:A 0
6 *635:A *446:12 5.96542e-05
7 *635:A *477:14 1.59078e-05
8 *639:B1 *635:A 6.37152e-05
9 *698:D *635:A 0.000149086
10 *84:22 *635:A 1.5714e-05
*RES
1 *845:X *635:A 42.0285 
*END

*D_NET *428 0.00522333
*CONN
*I *671:A1 I *D sky130_fd_sc_hd__a22oi_2
*I *948:X O *D sky130_fd_sc_hd__buf_4
*CAP
1 *671:A1 0.0015244
2 *948:X 0.0015244
3 *671:A1 *707:DE 1.31864e-05
4 *671:A1 *476:30 4.0143e-05
5 *659:B2 *671:A1 0.000641066
6 *670:A *671:A1 1.24633e-05
7 *13:26 *671:A1 0.000790545
8 *109:20 *671:A1 0.000636716
9 *120:32 *671:A1 0
10 *401:8 *671:A1 2.02035e-05
11 *403:37 *671:A1 2.02035e-05
*RES
1 *948:X *671:A1 40.0495 
*END

*D_NET *452 0.00201141
*CONN
*I *932:A I *D sky130_fd_sc_hd__buf_4
*I *975:X O *D sky130_fd_sc_hd__buf_4
*CAP
1 *932:A 0.00042245
2 *975:X 0.00042245
3 *932:A *654:S 2.21536e-05
4 resp_msg[0] *932:A 0
5 *554:A *932:A 9.59051e-06
6 *19:10 *932:A 0.000144546
7 *128:16 *932:A 0.000111722
8 *196:14 *932:A 0.000142478
9 *199:22 *932:A 0.000160617
10 *259:267 *932:A 2.09687e-05
11 *333:29 *932:A 7.77309e-06
12 *412:14 *932:A 0.000546661
*RES
1 *975:X *932:A 41.1317 
*END

*D_NET *454 0.00341153
*CONN
*I *925:A I *D sky130_fd_sc_hd__buf_4
*I *663:C I *D sky130_fd_sc_hd__nor4_1
*I *977:X O *D sky130_fd_sc_hd__buf_4
*CAP
1 *925:A 6.72509e-05
2 *663:C 0.000594339
3 *977:X 0.000278569
4 *454:16 0.00094016
5 *663:C *456:28 0
6 *508:C *454:16 2.85637e-05
7 *564:B *925:A 0.000114594
8 *565:A *663:C 2.8298e-05
9 *565:A *454:16 0.000120573
10 *566:B *454:16 1.24189e-05
11 *663:D *663:C 0.000112833
12 *681:CLK *454:16 0.000207032
13 *695:D *663:C 7.26347e-06
14 *847:A *663:C 1.72818e-05
15 *107:26 *663:C 1.58706e-05
16 *196:14 *663:C 3.11173e-05
17 *196:14 *454:16 1.34979e-05
18 *211:6 *925:A 0.000290233
19 *333:29 *663:C 1.5714e-05
20 *393:20 *663:C 0
21 *405:22 *925:A 0.000404826
22 *430:94 *663:C 0.000111097
*RES
1 *977:X *454:16 28.8003 
2 *454:16 *663:C 27.6479 
3 *454:16 *925:A 18.3548 
*END

*D_NET *457 0.00213232
*CONN
*I *619:A1 I *D sky130_fd_sc_hd__mux2i_1
*I *980:X O *D sky130_fd_sc_hd__buf_4
*CAP
1 *619:A1 0.000582081
2 *980:X 0.000582081
3 *616:S *619:A1 0.000333264
4 *619:A0 *619:A1 0.000109421
5 *621:A2 *619:A1 5.98123e-05
6 *650:S *619:A1 0.000247443
7 *691:DE *619:A1 0.000138209
8 *12:16 *619:A1 7.39583e-06
9 *28:22 *619:A1 7.67734e-06
10 *95:26 *619:A1 5.04829e-06
11 *355:26 *619:A1 7.64213e-06
12 *433:32 *619:A1 5.22483e-05
*RES
1 *980:X *619:A1 41.3249 
*END

*D_NET *142 0.00282819
*CONN
*I *638:A I *D sky130_fd_sc_hd__nand2_1
*I *846:X O *D sky130_fd_sc_hd__clkdlybuf4s50_1
*CAP
1 *638:A 0.00107941
2 *846:X 0.00107941
3 *638:A *529:B 4.58003e-05
4 *638:A *700:CLK 3.77957e-05
5 *638:A *846:A 0.000156615
6 *638:A *446:144 3.20069e-06
7 *638:A *471:28 6.76857e-06
8 *656:A1 *638:A 0
9 *699:D *638:A 0.000138284
10 *6:8 *638:A 3.72574e-05
11 *102:14 *638:A 0.000243648
*RES
1 *846:X *638:A 48.6525 
*END

*D_NET *458 0.0049182
*CONN
*I *610:S I *D sky130_fd_sc_hd__mux2i_2
*I *613:S I *D sky130_fd_sc_hd__mux2i_1
*I *981:X O *D sky130_fd_sc_hd__buf_6
*CAP
1 *610:S 0.000286537
2 *613:S 0.000552171
3 *981:X 0.000344426
4 *458:12 0.00118313
5 *610:S *610:A1 2.27016e-05
6 *610:S *474:14 0.000254085
7 *610:S *476:30 0.000178159
8 *613:S *610:A1 1.58588e-05
9 *613:S *474:14 0.000179631
10 *586:B *613:S 4.47427e-05
11 *593:A *458:12 0.000187546
12 *610:A0 *610:S 2.7383e-05
13 *613:A0 *613:S 0.000237703
14 *613:A1 *613:S 6.08467e-05
15 *615:A2 *613:S 1.03594e-05
16 *658:A *610:S 4.31539e-05
17 *664:C *458:12 4.6535e-05
18 *965:A *610:S 0.000109421
19 *981:A *458:12 0.00013611
20 *13:26 *613:S 6.68864e-05
21 *14:6 *613:S 0.000126987
22 *29:40 *613:S 0.000119522
23 *38:8 *458:12 0.000118526
24 *42:12 *610:S 2.6524e-05
25 *55:22 *610:S 1.29948e-05
26 *55:22 *613:S 8.7625e-05
27 *93:24 *613:S 9.76996e-05
28 *108:18 *458:12 7.82353e-05
29 *166:33 *458:12 5.04829e-06
30 *357:26 *610:S 0.000257653
*RES
1 *981:X *458:12 22.8398 
2 *458:12 *613:S 30.1769 
3 *458:12 *610:S 24.3337 
*END

*D_NET *459 0.00370833
*CONN
*I *631:A1 I *D sky130_fd_sc_hd__mux2i_4
*I *982:X O *D sky130_fd_sc_hd__buf_4
*CAP
1 *631:A1 0
2 *982:X 0.000690753
3 *459:22 0.000690753
4 *522:A *459:22 0.000195342
5 *536:B *459:22 6.08467e-05
6 *631:A0 *459:22 0.000183413
7 *682:D *459:22 0.000147005
8 *982:A *459:22 0.00011372
9 *199:40 *459:22 0.000212343
10 *282:20 *459:22 5.70106e-05
11 *392:12 *459:22 0.000752454
12 *436:8 *459:22 0.00060469
*RES
1 *982:X *459:22 44.6367 
2 *459:22 *631:A1 9.24915 
*END

*D_NET *460 0.00502239
*CONN
*I *863:A I *D sky130_fd_sc_hd__buf_2
*I *983:X O *D sky130_fd_sc_hd__buf_4
*CAP
1 *863:A 0.00132311
2 *983:X 0.00132311
3 *519:A1 *863:A 0.000207316
4 *588:A1 *863:A 3.01683e-06
5 *661:C *863:A 5.91855e-05
6 *661:D *863:A 8.40176e-06
7 *675:A1 *863:A 7.24978e-06
8 *683:DE *863:A 0.000127191
9 *753:B *863:A 3.39714e-05
10 *179:58 *863:A 0.000289506
11 *256:36 *863:A 0.000210865
12 *337:22 *863:A 6.57447e-05
13 *343:55 *863:A 5.07728e-05
14 *386:70 *863:A 0.000241443
15 *426:66 *863:A 9.09268e-06
16 *436:8 *863:A 3.02384e-05
17 *444:149 *863:A 1.5714e-05
18 *444:172 *863:A 0.000997353
19 *455:24 *863:A 1.9101e-05
*RES
1 *983:X *863:A 46.4194 
*END

*D_NET *143 0.00304188
*CONN
*I *645:A1 I *D sky130_fd_sc_hd__mux2_4
*I *847:X O *D sky130_fd_sc_hd__clkdlybuf4s50_1
*CAP
1 *645:A1 0.000707284
2 *847:X 0.000707284
3 *645:A1 *502:C 7.59518e-05
4 *645:A1 *504:B 2.27768e-05
5 *645:A1 *566:A 6.3657e-05
6 *645:A1 *304:20 0.000478673
7 *645:A1 *421:18 0.000509977
8 *645:A1 *474:53 2.29451e-05
9 *645:A1 *474:65 0.00045333
*RES
1 *847:X *645:A1 46.7749 
*END

*D_NET *461 0.00351908
*CONN
*I *977:A I *D sky130_fd_sc_hd__buf_4
*I *565:C I *D sky130_fd_sc_hd__xor3_1
*I *984:X O *D sky130_fd_sc_hd__buf_4
*CAP
1 *977:A 0.000761753
2 *565:C 0
3 *984:X 0.000162253
4 *461:14 0.000924006
5 *977:A *502:C 6.00151e-05
6 *507:A1 *977:A 0.000182087
7 *508:A *977:A 0.000153589
8 *508:B *977:A 7.89747e-05
9 *508:B *461:14 2.16355e-05
10 *508:C *977:A 2.42858e-05
11 *565:A *977:A 0.000297172
12 *681:DE *977:A 4.04201e-05
13 *901:A *461:14 0.000200625
14 *969:A *977:A 1.82679e-05
15 *191:10 *977:A 9.93974e-05
16 *213:30 *461:14 0.000200625
17 *304:20 *977:A 2.16514e-05
18 *382:14 *977:A 9.97706e-05
19 *382:14 *461:14 6.50586e-05
20 *451:22 *461:14 0.000107496
*RES
1 *984:X *461:14 24.1588 
2 *461:14 *565:C 9.24915 
3 *461:14 *977:A 39.217 
*END

*D_NET *144 0.0047795
*CONN
*I *641:A I *D sky130_fd_sc_hd__nand2_1
*I *848:X O *D sky130_fd_sc_hd__clkdlybuf4s50_1
*CAP
1 *641:A 0.000461858
2 *848:X 0.000817954
3 *144:18 0.00127981
4 *641:A *640:A0 0
5 *641:A *655:S 0
6 *641:A *662:A 5.7582e-05
7 *641:A *662:B 0.000100222
8 *641:A *662:C 0.000120038
9 *641:A *662:D 0.000100809
10 *641:A *256:36 6.08467e-05
11 *641:A *283:10 0
12 *641:A *359:26 4.75571e-06
13 *641:A *436:62 3.57931e-05
14 *144:18 resp_msg[11] 1.05746e-05
15 *144:18 *746:A 0.000102106
16 *144:18 *830:A 0.000139773
17 *144:18 *896:A 0.000216458
18 *144:18 *929:A 0.000154145
19 *144:18 *145:12 0.000122098
20 *144:18 *160:8 0.000161243
21 *144:18 *257:22 0.000234452
22 *144:18 *409:10 0.000424672
23 *144:18 *471:10 0.00015267
24 *642:B1 *641:A 2.16355e-05
*RES
1 *848:X *144:18 48.6349 
2 *144:18 *641:A 25.6124 
*END

*D_NET *145 0.00542881
*CONN
*I *674:A I *D sky130_fd_sc_hd__nand2_1
*I *849:X O *D sky130_fd_sc_hd__clkdlybuf4s50_1
*CAP
1 *674:A 0.000628893
2 *849:X 0.000735039
3 *145:12 0.00136393
4 *674:A *642:A1 6.08467e-05
5 *674:A *684:DE 8.34322e-05
6 *674:A *684:CLK 7.92757e-06
7 *145:12 resp_msg[11] 0.000234644
8 *145:12 resp_msg[13] 6.14682e-06
9 *145:12 resp_msg[15] 6.64671e-06
10 *145:12 *532:B 0.000522231
11 *145:12 *752:A 0.000168296
12 *145:12 *831:A 4.43331e-05
13 *145:12 *848:A 2.08076e-05
14 *145:12 *849:A 0
15 *145:12 *210:12 6.27782e-05
16 *145:12 *471:10 0.000364204
17 *532:A *145:12 0.000552365
18 *642:B1 *674:A 6.50727e-05
19 *684:D *674:A 0.000233789
20 *20:8 *674:A 0.000145324
21 *144:18 *145:12 0.000122098
*RES
1 *849:X *145:12 47.7959 
2 *145:12 *674:A 24.3922 
*END

*D_NET *146 0.000532336
*CONN
*I *646:A1 I *D sky130_fd_sc_hd__mux2_4
*I *850:X O *D sky130_fd_sc_hd__clkdlybuf4s50_1
*CAP
1 *646:A1 7.6672e-05
2 *850:X 7.6672e-05
3 *646:A1 *569:A 9.0845e-05
4 *646:A1 *646:A0 1.02267e-05
5 *646:A1 *404:14 0.000256285
6 *646:A1 *420:18 2.16355e-05
*RES
1 *850:X *646:A1 22.0188 
*END

*D_NET *147 0.00251808
*CONN
*I *647:A1 I *D sky130_fd_sc_hd__mux2_4
*I *851:X O *D sky130_fd_sc_hd__clkdlybuf4s50_1
*CAP
1 *647:A1 0.000442509
2 *851:X 0.000442509
3 *647:A1 resp_msg[5] 5.04829e-06
4 *647:A1 *570:A 6.08467e-05
5 *647:A1 *706:DE 2.01503e-05
6 *647:A1 *851:A 1.16164e-05
7 *647:A1 *872:A 0.000189558
8 *647:A1 *165:20 0.000498762
9 *647:A1 *435:71 0.000138696
10 *647:A1 *445:18 8.62625e-06
11 *647:A1 *445:20 0.00069976
*RES
1 *851:X *647:A1 46.4257 
*END

*D_NET *121 0.00271776
*CONN
*I *643:A1 I *D sky130_fd_sc_hd__mux2_4
*I *825:X O *D sky130_fd_sc_hd__clkdlybuf4s50_1
*CAP
1 *643:A1 0.000852572
2 *825:X 0.000852572
3 *643:A1 *500:B 1.26119e-05
4 *643:A1 *598:A0 7.57527e-05
5 *643:A1 *600:A2 9.78551e-06
6 *643:A1 *632:A 4.40531e-05
7 *643:A1 *703:CLK 0.000176743
8 *643:A1 *199:22 0
9 *643:A1 *393:20 7.25324e-06
10 *643:A1 *430:117 0.000160617
11 *643:A1 *456:28 2.99978e-05
12 *643:A1 *474:90 0.00015575
13 *600:A1 *643:A1 0.000228593
14 *703:D *643:A1 6.8842e-05
15 *19:10 *643:A1 4.26187e-05
*RES
1 *825:X *643:A1 47.2127 
*END

*D_NET *148 0.00188563
*CONN
*I *648:A1 I *D sky130_fd_sc_hd__mux2_4
*I *852:X O *D sky130_fd_sc_hd__clkdlybuf4s50_1
*CAP
1 *648:A1 0.000665868
2 *852:X 0.000665868
3 *648:A1 *648:A0 1.43848e-05
4 *648:A1 *166:33 1.0779e-05
5 *648:A1 *474:14 2.57847e-05
6 *612:B1 *648:A1 1.44764e-05
7 *666:A *648:A1 3.44282e-05
8 *965:A *648:A1 0.000368748
9 *29:40 *648:A1 0
10 *57:14 *648:A1 3.67622e-06
11 *109:28 *648:A1 8.16135e-05
*RES
1 *852:X *648:A1 40.6635 
*END

*D_NET *149 0.00189034
*CONN
*I *649:A1 I *D sky130_fd_sc_hd__mux2_4
*I *853:X O *D sky130_fd_sc_hd__clkdlybuf4s50_1
*CAP
1 *649:A1 0.000524901
2 *853:X 0.000524901
3 *649:A1 req_rdy 0
4 *649:A1 *649:A0 0.000154145
5 *649:A1 *677:CLK 0
6 *649:A1 *172:14 0
7 *649:A1 *173:10 1.98846e-05
8 *649:A1 *473:30 0.000151048
9 *658:A *649:A1 2.41483e-05
10 *677:D *649:A1 3.43721e-06
11 *707:D *649:A1 0.000343828
12 *3:14 *649:A1 5.92162e-05
13 *104:10 *649:A1 8.48322e-05
*RES
1 *853:X *649:A1 43.5403 
*END

*D_NET *465 0.00170457
*CONN
*I *610:A1 I *D sky130_fd_sc_hd__mux2i_2
*I *988:X O *D sky130_fd_sc_hd__buf_4
*CAP
1 *610:A1 0.000495113
2 *988:X 0.000495113
3 *610:A0 *610:A1 0.000187551
4 *610:S *610:A1 2.27016e-05
5 *613:S *610:A1 1.58588e-05
6 *664:D *610:A1 1.05599e-05
7 *964:A *610:A1 6.3657e-05
8 *997:A *610:A1 1.88152e-05
9 *29:40 *610:A1 0.000101605
10 *55:22 *610:A1 2.16355e-05
11 *357:26 *610:A1 0.000254412
12 *387:20 *610:A1 1.75504e-05
*RES
1 *988:X *610:A1 48.9471 
*END

*D_NET *150 0.000634023
*CONN
*I *650:A1 I *D sky130_fd_sc_hd__mux2_4
*I *854:X O *D sky130_fd_sc_hd__clkdlybuf4s50_1
*CAP
1 *650:A1 0.00015182
2 *854:X 0.00015182
3 *650:A1 *650:A0 6.27782e-05
4 *650:A1 *650:S 9.32704e-05
5 *650:A1 *431:36 5.01835e-05
6 *691:D *650:A1 6.33039e-05
7 *28:22 *650:A1 6.08467e-05
8 *95:26 *650:A1 0
*RES
1 *854:X *650:A1 31.1923 
*END

*D_NET *467 0.000810272
*CONN
*I *929:A I *D sky130_fd_sc_hd__buf_4
*I *990:X O *D sky130_fd_sc_hd__buf_4
*CAP
1 *929:A 0.000120709
2 *990:X 0.000120709
3 *929:A *471:10 0.000193213
4 resp_msg[13] *929:A 0.000177159
5 *5:10 *929:A 6.11447e-06
6 *144:18 *929:A 0.000154145
7 *409:10 *929:A 3.82228e-05
*RES
1 *990:X *929:A 32.8239 
*END

*D_NET *151 0.00115803
*CONN
*I *651:A1 I *D sky130_fd_sc_hd__mux2_4
*I *855:X O *D sky130_fd_sc_hd__clkdlybuf4s50_1
*CAP
1 *651:A1 0.000448414
2 *855:X 0.000448414
3 *651:A1 *692:DE 2.89248e-05
4 *651:A1 *170:51 2.30636e-05
5 *651:A1 *399:80 3.82887e-05
6 *651:A1 *426:42 1.5714e-05
7 *546:A *651:A1 2.57795e-05
8 *624:A1 *651:A1 0.000114271
9 *27:24 *651:A1 1.51658e-05
*RES
1 *855:X *651:A1 36.564 
*END

*D_NET *152 0.00354046
*CONN
*I *652:A1 I *D sky130_fd_sc_hd__mux2_4
*I *856:X O *D sky130_fd_sc_hd__clkdlybuf4s50_1
*CAP
1 *652:A1 0
2 *856:X 0.000491915
3 *152:22 0.000491915
4 *152:22 *625:A1 0.000801766
5 *152:22 *842:A 0.000163478
6 *152:22 *171:16 1.22289e-05
7 *152:22 *413:26 0.00157916
*RES
1 *856:X *152:22 49.574 
2 *152:22 *652:A1 9.24915 
*END

*D_NET *154 0.00631875
*CONN
*I *948:A I *D sky130_fd_sc_hd__buf_4
*I *669:A I *D sky130_fd_sc_hd__clkinv_1
*I *857:X O *D sky130_fd_sc_hd__dlygate4sd2_1
*CAP
1 *948:A 0.00101211
2 *669:A 0.000730058
3 *857:X 0
4 *154:4 0.00174217
5 *669:A *597:A_N 3.99086e-06
6 *669:A *597:B 0.000161994
7 *669:A *670:A 0.000168727
8 *669:A *857:A 0.000115451
9 *669:A *476:20 9.41978e-05
10 *948:A *610:A0 5.47529e-05
11 *948:A *648:A0 3.99532e-05
12 *948:A *659:B2 0.000158357
13 *948:A *659:C1 0.000125051
14 *948:A *858:A 8.13601e-05
15 *948:A *952:A 0.000307614
16 *948:A *403:37 8.15629e-05
17 *948:A *404:68 1.99304e-05
18 *948:A *432:18 0.000471015
19 *948:A *447:18 1.29348e-05
20 *948:A *447:88 0
21 *594:A1 *948:A 0.000259703
22 *954:A *669:A 6.27782e-05
23 *954:A *948:A 0.000127781
24 *981:A *948:A 1.66771e-05
25 *33:73 *948:A 3.89332e-06
26 *33:84 *948:A 6.39347e-05
27 *42:12 *669:A 0.00025821
28 *108:18 *948:A 0.000144546
*RES
1 *857:X *154:4 9.24915 
2 *154:4 *669:A 32.0332 
3 *154:4 *948:A 49.2233 
*END

*D_NET *155 0.0108307
*CONN
*I *670:A I *D sky130_fd_sc_hd__nor2b_2
*I *659:C1 I *D sky130_fd_sc_hd__a221o_1
*I *672:A I *D sky130_fd_sc_hd__nor2_1
*I *858:X O *D sky130_fd_sc_hd__clkdlybuf4s50_1
*CAP
1 *670:A 0.00065796
2 *659:C1 0.000958717
3 *672:A 0.000658155
4 *858:X 0.000482468
5 *155:12 0.00182295
6 *155:10 0.00134651
7 *659:C1 *648:A0 4.87301e-05
8 *659:C1 *659:B2 0.000224093
9 *659:C1 *172:14 0.000102738
10 *659:C1 *403:37 8.59412e-05
11 *659:C1 *425:18 4.44087e-05
12 *659:C1 *430:20 7.50869e-05
13 *659:C1 *474:47 0
14 *670:A *597:A_N 0.000261135
15 *670:A *597:B 8.33257e-05
16 *670:A *660:A 0.000212935
17 *670:A *671:A1 1.24633e-05
18 *670:A *464:34 0.000122844
19 *670:A *476:20 6.27782e-05
20 *670:A *476:30 4.39919e-05
21 *672:A *852:A 5.39635e-06
22 *155:10 *664:A 1.41181e-05
23 *155:10 *664:B 0.000254532
24 *155:10 *664:C 2.16355e-05
25 *155:10 *664:D 6.36477e-05
26 *155:10 *858:A 0.000322738
27 *155:10 *877:A 0.00017
28 *155:10 *357:26 6.08467e-05
29 *155:12 *877:A 3.81525e-05
30 *667:A2 *672:A 5.86908e-05
31 *669:A *670:A 0.000168727
32 *671:B1 *670:A 0.000804711
33 *678:D *672:A 7.9684e-05
34 *690:D *672:A 3.02384e-05
35 *907:A *659:C1 0.000784101
36 *936:A *659:C1 9.29815e-05
37 *936:A *672:A 0.000138405
38 *948:A *659:C1 0.000125051
39 *950:A *155:10 3.79145e-06
40 *965:A *670:A 1.94224e-05
41 *981:A *659:C1 2.66665e-05
42 *13:26 *659:C1 6.21488e-06
43 *29:40 *155:10 6.02833e-05
44 *42:12 *670:A 6.69404e-05
45 *60:12 *672:A 0
46 *108:18 *659:C1 7.77309e-06
47 *109:20 *659:C1 1.67453e-05
48 *115:14 *659:C1 3.61875e-05
49 *115:14 *672:A 4.58003e-05
*RES
1 *858:X *155:10 22.222 
2 *155:10 *155:12 2.94181 
3 *155:12 *672:A 30.8112 
4 *155:12 *659:C1 33.5131 
5 *155:10 *670:A 42.5398 
*END

*D_NET *172 0.0070622
*CONN
*I *660:B_N I *D sky130_fd_sc_hd__nor2b_1
*I *659:B2 I *D sky130_fd_sc_hd__a221o_1
*I *859:X O *D sky130_fd_sc_hd__clkdlybuf4s50_1
*CAP
1 *660:B_N 0.000146544
2 *659:B2 0.000817001
3 *859:X 0.000616384
4 *172:14 0.00157993
5 *659:B2 *648:A0 4.03424e-06
6 *659:B2 *666:B 4.66891e-05
7 *659:B2 *671:A1 0.000641066
8 *659:B2 *401:8 1.91391e-05
9 *659:B2 *403:37 1.5714e-05
10 *659:B2 *425:18 0.000273413
11 *660:B_N *649:A0 0.000111708
12 *660:B_N *660:A 2.58106e-05
13 *172:14 *597:B 2.89766e-05
14 *172:14 *666:B 0.000248794
15 *172:14 *877:A 0.000309454
16 *172:14 *894:A 0.000589256
17 *649:A1 *172:14 0
18 *659:A1 *659:B2 0
19 *659:C1 *659:B2 0.000224093
20 *659:C1 *172:14 0.000102738
21 *667:B1 *172:14 0.000570696
22 *677:D *172:14 3.44254e-06
23 *907:A *660:B_N 6.36477e-05
24 *948:A *659:B2 0.000158357
25 *4:10 *172:14 9.64718e-05
26 *13:26 *659:B2 6.23101e-05
27 *104:10 *172:14 6.91091e-06
28 *109:20 *659:B2 0.000132655
29 *111:12 *172:14 3.16908e-05
30 *115:14 *172:14 2.65439e-05
31 *120:32 *659:B2 3.98271e-05
32 *166:33 *659:B2 4.66693e-05
33 *166:33 *172:14 2.22342e-05
*RES
1 *859:X *172:14 38.3862 
2 *172:14 *659:B2 28.5794 
3 *172:14 *660:B_N 17.2456 
*END

*D_NET *153 0.0012761
*CONN
*I *989:A I *D sky130_fd_sc_hd__buf_6
*I *911:A I *D sky130_fd_sc_hd__buf_12
*I *676:Q O *D sky130_fd_sc_hd__dfxtp_4
*CAP
1 *989:A 0.000148472
2 *911:A 0.00017193
3 *676:Q 0
4 *153:6 0.000320401
5 *911:A *874:A 5.01835e-05
6 *911:A *385:16 0.000262387
7 *911:A *447:18 1.94615e-05
8 *989:A *596:B 1.44611e-05
9 *989:A *385:16 8.52652e-05
10 *989:A *391:31 7.55409e-05
11 *103:12 *911:A 0.00010609
12 *103:12 *989:A 2.19131e-05
13 *113:10 *989:A 0
*RES
1 *676:Q *153:6 13.7491 
2 *153:6 *911:A 19.7337 
3 *153:6 *989:A 18.4879 
*END

*D_NET *156 0.00338752
*CONN
*I *900:A I *D sky130_fd_sc_hd__buf_4
*I *861:A I *D sky130_fd_sc_hd__buf_2
*I *512:Y O *D sky130_fd_sc_hd__xnor2_1
*CAP
1 *900:A 0.000247419
2 *861:A 0.000286057
3 *512:Y 0.00060263
4 *156:10 0.00113611
5 *861:A resp_msg[0] 4.2006e-05
6 *861:A *200:8 0
7 *861:A *259:259 2.68271e-05
8 *861:A *259:261 5.89566e-05
9 *861:A *259:267 1.83307e-05
10 *861:A *259:298 1.65872e-05
11 *861:A *260:26 9.0601e-05
12 *861:A *333:29 3.77568e-05
13 *861:A *380:22 0
14 *900:A *446:40 2.16355e-05
15 *156:10 *633:A2 2.33103e-06
16 *156:10 *734:A1 5.20546e-06
17 *156:10 *912:A 1.03403e-05
18 *156:10 *969:A 0.000202719
19 *156:10 *260:26 0.000161182
20 *156:10 *312:37 0
21 *156:10 *446:56 4.63672e-05
22 *633:A1 *900:A 3.53886e-05
23 *695:D *861:A 6.3657e-05
24 *77:22 *900:A 0.000275411
*RES
1 *512:Y *156:10 24.0662 
2 *156:10 *861:A 21.0117 
3 *156:10 *900:A 18.9576 
*END

*D_NET *122 0.000982676
*CONN
*I *653:A1 I *D sky130_fd_sc_hd__mux2_4
*I *826:X O *D sky130_fd_sc_hd__clkdlybuf4s50_1
*CAP
1 *653:A1 0.000477802
2 *826:X 0.000477802
3 *653:A1 *653:S 2.70724e-05
4 *653:A0 *653:A1 0
*RES
1 *826:X *653:A1 26.7691 
*END

*D_NET *157 0.00267981
*CONN
*I *862:A I *D sky130_fd_sc_hd__clkdlybuf4s50_1
*I *628:A1 I *D sky130_fd_sc_hd__mux2i_2
*I *727:Y O *D sky130_fd_sc_hd__xnor2_2
*CAP
1 *862:A 2.68859e-05
2 *628:A1 0.000247612
3 *727:Y 0.000722213
4 *157:18 0.000996711
5 *628:A1 *595:A0 0
6 *628:A1 *210:12 3.00654e-05
7 *628:A1 *269:12 0.000288523
8 *862:A *269:12 1.65872e-05
9 *157:18 *587:B 0.000132321
10 *157:18 *701:CLK 2.65831e-05
11 *157:18 *252:20 7.50872e-05
12 *157:18 *269:12 3.47941e-05
13 *73:12 *628:A1 8.24301e-05
*RES
1 *727:Y *157:18 30.5892 
2 *157:18 *628:A1 25.9269 
3 *157:18 *862:A 9.97254 
*END

*D_NET *158 0.00337051
*CONN
*I *983:A I *D sky130_fd_sc_hd__buf_4
*I *982:A I *D sky130_fd_sc_hd__buf_4
*I *735:Y O *D sky130_fd_sc_hd__xnor2_2
*CAP
1 *983:A 0
2 *982:A 0.000128877
3 *735:Y 0.000730855
4 *158:22 0.000859732
5 *982:A *436:8 7.50991e-05
6 *982:A *459:22 0.00011372
7 *158:22 *530:B 2.8835e-05
8 *158:22 *661:D 0.00049311
9 *158:22 *888:A 0.000497969
10 *158:22 *254:20 5.99155e-05
11 *158:22 *257:8 3.81855e-05
12 *158:22 *278:16 5.11321e-05
13 *158:22 *292:22 5.45571e-05
14 *158:22 *379:20 0.000154145
15 *158:22 *436:8 2.08274e-05
16 *118:12 *158:22 6.35526e-05
*RES
1 *735:Y *158:22 35.6907 
2 *158:22 *982:A 12.7456 
3 *158:22 *983:A 9.24915 
*END

*D_NET *468 0.00183799
*CONN
*I *594:A2 I *D sky130_fd_sc_hd__o21bai_4
*I *991:X O *D sky130_fd_sc_hd__buf_6
*CAP
1 *594:A2 0.000358476
2 *991:X 0.000358476
3 *616:A0 *594:A2 0.000210672
4 *659:B1 *594:A2 0.000134603
5 *950:A *594:A2 4.24629e-05
6 *33:37 *594:A2 0.000111352
7 *62:22 *594:A2 0.000459996
8 *391:10 *594:A2 0.00016195
*RES
1 *991:X *594:A2 39.9508 
*END

*D_NET *471 0.00789183
*CONN
*I *928:A I *D sky130_fd_sc_hd__buf_4
*I *994:X O *D sky130_fd_sc_hd__buf_4
*CAP
1 *928:A 9.40599e-05
2 *994:X 0.000557919
3 *471:28 0.00187736
4 *471:10 0.00234122
5 resp_msg[13] *471:10 0.000314362
6 *529:B *471:28 0.000340852
7 *637:A1 *471:28 8.62625e-06
8 *638:A *471:28 6.76857e-06
9 *639:A1 *928:A 2.40884e-05
10 *639:A2 *928:A 7.02172e-06
11 *655:A0 *471:28 1.65872e-05
12 *683:D *471:28 4.96177e-05
13 *683:DE *471:28 9.54515e-06
14 *698:D *471:28 1.65872e-05
15 *700:DE *471:28 2.99978e-05
16 *700:CLK *471:28 8.86374e-05
17 *829:A *471:10 3.16717e-05
18 *846:A *471:28 0.000195154
19 *929:A *471:10 0.000193213
20 *5:10 *471:10 7.42783e-05
21 *21:12 *471:28 1.47695e-05
22 *84:22 *471:28 0.00058062
23 *144:18 *471:10 0.00015267
24 *145:12 *471:10 0.000364204
25 *408:16 *928:A 0.000228098
26 *408:16 *471:28 1.61222e-05
27 *445:247 *928:A 6.50586e-05
28 *446:114 *928:A 0.000128091
29 *446:114 *471:28 1.77537e-06
30 *446:144 *471:28 6.28484e-05
*RES
1 *994:X *471:10 39.1827 
2 *471:10 *471:28 45.7163 
3 *471:28 *928:A 19.1023 
*END

*D_NET *159 0.00575094
*CONN
*I *864:A I *D sky130_fd_sc_hd__buf_2
*I *634:A1 I *D sky130_fd_sc_hd__mux2i_1
*I *738:Y O *D sky130_fd_sc_hd__xnor2_2
*CAP
1 *864:A 0.000657949
2 *634:A1 6.72828e-05
3 *738:Y 0.000795004
4 *159:18 0.00152024
5 *634:A1 *259:315 1.10433e-05
6 *864:A *639:A2 0.000113611
7 *864:A *654:S 0.000313995
8 *864:A *679:DE 0.000164843
9 *864:A *259:315 0.000266887
10 *864:A *430:137 5.05252e-05
11 *864:A *446:21 3.00073e-05
12 *159:18 *549:A 0.000111901
13 *159:18 *634:S 0.000112361
14 *159:18 *654:S 4.20106e-05
15 *159:18 *684:DE 1.5714e-05
16 *159:18 *199:40 0.000269088
17 *159:18 *259:315 7.75176e-05
18 *526:A *864:A 0.000245096
19 *633:A1 *634:A1 0.000140602
20 *633:A1 *159:18 7.46548e-05
21 *697:D *159:18 0.000185682
22 *698:D *864:A 4.3116e-06
23 *23:33 *159:18 0.000453457
24 *35:16 *864:A 7.92757e-06
25 *45:14 *864:A 1.92336e-05
*RES
1 *738:Y *159:18 39.1726 
2 *159:18 *634:A1 11.8895 
3 *159:18 *864:A 43.7771 
*END

*D_NET *473 0.00491738
*CONN
*I *666:B I *D sky130_fd_sc_hd__nand2_4
*I *667:A1 I *D sky130_fd_sc_hd__a21oi_2
*I *996:X O *D sky130_fd_sc_hd__buf_6
*CAP
1 *666:B 0.000349706
2 *667:A1 0
3 *996:X 0.00109006
4 *473:30 0.00143977
5 *666:B *860:A 0.000154145
6 *473:30 *860:A 2.17699e-05
7 req_rdy *473:30 0
8 *592:A *473:30 0.000319111
9 *596:A *473:30 3.67123e-05
10 *649:A0 *473:30 3.6928e-05
11 *649:A1 *473:30 0.000151048
12 *658:B *473:30 2.01653e-05
13 *659:B2 *666:B 4.66891e-05
14 *667:A2 *473:30 2.58757e-05
15 *707:DE *473:30 1.5714e-05
16 *996:A *473:30 6.53173e-05
17 *3:14 *666:B 0.000204548
18 *3:14 *473:30 7.93248e-05
19 *37:8 *473:30 3.87649e-05
20 *104:10 *666:B 0.000299881
21 *166:33 *666:B 0
22 *172:14 *666:B 0.000248794
23 *374:20 *473:30 0.000273062
*RES
1 *996:X *473:30 49.1664 
2 *473:30 *667:A1 9.24915 
3 *473:30 *666:B 30.7073 
*END

*D_NET *380 0.00375466
*CONN
*I *598:A1 I *D sky130_fd_sc_hd__mux2i_1
*I *900:X O *D sky130_fd_sc_hd__buf_4
*CAP
1 *598:A1 0
2 *900:X 0.000860154
3 *380:22 0.000860154
4 *380:22 *598:S 0.000113968
5 *380:22 *679:DE 2.72196e-05
6 *380:22 *975:A 1.09551e-05
7 *380:22 *446:12 0
8 *380:22 *446:21 0
9 *380:22 *446:40 0.000107496
10 *554:A *380:22 0.000368568
11 *558:B *380:22 0.00011463
12 *632:A *380:22 0.000165521
13 *633:A1 *380:22 1.82679e-05
14 *695:D *380:22 0
15 *844:A *380:22 0.000118176
16 *845:A *380:22 6.28701e-05
17 *861:A *380:22 0
18 *45:14 *380:22 0.00035922
19 *199:22 *380:22 4.23874e-05
20 *200:8 *380:22 9.56423e-05
21 *205:24 *380:22 2.13434e-05
22 *260:26 *380:22 0
23 *312:37 *380:22 0.000408092
24 *333:29 *380:22 0
*RES
1 *900:X *380:22 46.0208 
2 *380:22 *598:A1 9.24915 
*END

*D_NET *474 0.0234603
*CONN
*I *645:S I *D sky130_fd_sc_hd__mux2_4
*I *654:S I *D sky130_fd_sc_hd__mux2_4
*I *643:S I *D sky130_fd_sc_hd__mux2_4
*I *644:S I *D sky130_fd_sc_hd__mux2_4
*I *648:S I *D sky130_fd_sc_hd__mux2_4
*I *997:X O *D sky130_fd_sc_hd__buf_12
*CAP
1 *645:S 2.86212e-05
2 *654:S 0.00133256
3 *643:S 0
4 *644:S 0.00127033
5 *648:S 2.73423e-05
6 *997:X 0.00035043
7 *474:90 0.00230569
8 *474:65 0.0032696
9 *474:53 0.00190172
10 *474:47 0.00195134
11 *474:14 0.00148215
12 *654:S *1000:A 0
13 *474:47 *579:A 1.41976e-05
14 *474:53 *502:C 9.87197e-06
15 *474:53 *579:A 7.527e-06
16 *495:A *474:47 9.12772e-05
17 *504:B *474:65 0.000269394
18 *526:A *654:S 0.000128119
19 *556:B *644:S 0
20 *566:A *645:S 6.08467e-05
21 *572:B *474:53 0.00011815
22 *577:B1 *474:53 0.000138334
23 *581:A *474:47 3.03541e-05
24 *581:B *474:47 1.55025e-05
25 *582:A *474:53 2.92322e-05
26 *598:S *644:S 0.00100978
27 *598:S *474:90 0.00128303
28 *610:S *474:14 0.000254085
29 *613:S *474:14 0.000179631
30 *618:A1 *474:47 0.000160617
31 *634:A0 *654:S 0
32 *636:A2 *654:S 6.45482e-05
33 *639:A2 *654:S 1.27831e-06
34 *643:A1 *474:90 0.00015575
35 *645:A1 *474:53 2.29451e-05
36 *645:A1 *474:65 0.00045333
37 *648:A0 *474:14 1.75637e-06
38 *648:A0 *474:47 7.67963e-06
39 *648:A1 *474:14 2.57847e-05
40 *659:C1 *474:47 0
41 *663:D *474:65 2.87852e-05
42 *695:D *654:S 3.28634e-05
43 *697:D *654:S 6.73169e-05
44 *703:D *474:90 0.000132662
45 *864:A *654:S 0.000313995
46 *901:A *474:53 7.77309e-06
47 *903:A *474:47 1.79982e-05
48 *916:A *474:47 6.1585e-05
49 *932:A *654:S 2.21536e-05
50 *938:A *474:47 1.63255e-05
51 *951:A *474:47 0.000105522
52 *984:A *474:53 4.31485e-06
53 *997:A *474:14 6.08467e-05
54 *1004:A *474:53 0.000328377
55 *17:10 *474:90 7.58052e-05
56 *19:10 *654:S 1.9101e-05
57 *29:40 *648:S 9.95922e-06
58 *29:40 *474:14 1.43848e-05
59 *29:40 *474:47 0.000278377
60 *55:22 *474:14 0.000445663
61 *93:24 *474:47 0.000108639
62 *107:26 *474:65 0.000309347
63 *129:14 *644:S 0.000104828
64 *159:18 *654:S 4.20106e-05
65 *199:22 *474:90 1.38359e-05
66 *199:40 *654:S 0
67 *207:21 *474:53 0
68 *213:10 *474:65 6.06593e-05
69 *213:30 *474:53 0.000112978
70 *213:30 *474:65 0.000128201
71 *228:21 *474:53 0.000119084
72 *228:45 *474:53 1.22289e-05
73 *242:19 *474:53 6.02348e-05
74 *259:46 *474:53 3.0521e-05
75 *259:261 *654:S 2.58521e-05
76 *259:267 *654:S 4.63742e-05
77 *260:26 *654:S 3.40243e-05
78 *309:19 *644:S 2.27135e-05
79 *312:37 *654:S 6.18829e-05
80 *315:16 *474:47 0.000225058
81 *333:29 *654:S 0.000243855
82 *365:16 *474:53 9.36277e-06
83 *381:20 *474:53 0.000719644
84 *418:14 *474:47 2.57847e-05
85 *429:29 *474:65 5.79683e-06
86 *429:65 *654:S 0
87 *430:117 *654:S 2.65667e-05
88 *430:117 *474:90 1.5613e-05
89 *445:76 *474:65 6.03237e-05
90 *445:134 *654:S 0
91 *445:149 *654:S 0
92 *451:22 *474:53 0.000250442
93 *456:28 *474:90 8.78153e-05
*RES
1 *997:X *474:14 29.2812 
2 *474:14 *648:S 10.2378 
3 *474:14 *474:47 44.889 
4 *474:47 *474:53 27.944 
5 *474:53 *474:65 15.417 
6 *474:65 *644:S 20.4913 
7 *474:65 *474:90 21.2785 
8 *474:90 *643:S 9.24915 
9 *474:90 *654:S 41.0728 
10 *474:53 *645:S 14.4725 
*END

*D_NET *476 0.0126029
*CONN
*I *659:A2 I *D sky130_fd_sc_hd__a221o_1
*I *671:A2 I *D sky130_fd_sc_hd__a22oi_2
*I *860:A I *D sky130_fd_sc_hd__dlygate4sd2_1
*I *660:A I *D sky130_fd_sc_hd__nor2b_1
*I *999:X O *D sky130_fd_sc_hd__buf_4
*CAP
1 *659:A2 0.00171502
2 *671:A2 0
3 *860:A 0.000516328
4 *660:A 0.000446658
5 *999:X 6.45353e-05
6 *476:30 0.00140199
7 *476:20 0.000920374
8 *476:6 0.00226093
9 req_rdy *860:A 0.000160047
10 *495:A *659:A2 1.5714e-05
11 *596:A *659:A2 1.91391e-05
12 *597:A_N *476:20 0.00052721
13 *610:S *476:30 0.000178159
14 *617:A *659:A2 0.000151144
15 *618:A1 *659:A2 2.42482e-05
16 *659:A1 *659:A2 1.41976e-05
17 *660:B_N *660:A 2.58106e-05
18 *663:D *659:A2 0.000178921
19 *666:B *860:A 0.000154145
20 *667:A2 *860:A 6.27782e-05
21 *669:A *476:20 9.41978e-05
22 *670:A *660:A 0.000212935
23 *670:A *476:20 6.27782e-05
24 *670:A *476:30 4.39919e-05
25 *671:A1 *476:30 4.0143e-05
26 *671:B1 *660:A 1.2851e-05
27 *707:DE *659:A2 0.00010096
28 *839:A *476:20 0.00016386
29 *857:A *476:20 0.000268997
30 *907:A *660:A 9.92453e-05
31 *954:A *476:6 0.000343197
32 *954:A *476:20 0.000405074
33 *965:A *660:A 0.000286682
34 *965:A *476:30 6.99356e-05
35 *997:A *860:A 0.000200794
36 *997:A *476:30 0.000156955
37 *13:26 *476:30 6.09999e-05
38 *42:12 *476:20 0.000235499
39 *42:12 *476:30 0.000121459
40 *55:22 *476:30 0.000114659
41 *109:20 *659:A2 2.50694e-05
42 *166:33 *660:A 0.000251669
43 *391:31 *659:A2 0
44 *391:31 *476:6 0.000112361
45 *391:40 *476:6 8.8047e-05
46 *391:40 *476:20 3.26503e-05
47 *430:20 *659:A2 8.39897e-05
48 *464:34 *476:30 5.481e-05
49 *473:30 *860:A 2.17699e-05
*RES
1 *999:X *476:6 13.3002 
2 *476:6 *476:20 24.2103 
3 *476:20 *476:30 21.9711 
4 *476:30 *660:A 26.5765 
5 *476:30 *860:A 25.5887 
6 *476:20 *671:A2 13.7491 
7 *476:6 *659:A2 33.3311 
*END

*D_NET *160 0.00568757
*CONN
*I *865:A I *D sky130_fd_sc_hd__buf_2
*I *637:A1 I *D sky130_fd_sc_hd__mux2i_1
*I *746:Y O *D sky130_fd_sc_hd__xnor2_1
*CAP
1 *865:A 0.00097249
2 *637:A1 0.000720762
3 *746:Y 0.000108544
4 *160:8 0.0018018
5 *637:A1 *529:B 4.62112e-05
6 *637:A1 *656:S 0.00024932
7 *637:A1 *683:DE 1.32822e-05
8 *637:A1 *700:CLK 2.09561e-05
9 *637:A1 *746:B 3.67259e-05
10 *637:A1 *446:144 1.27071e-05
11 *637:A1 *471:28 8.62625e-06
12 *865:A *515:A1 0.000133323
13 *865:A *528:B 0.000149696
14 *865:A *530:B 3.63171e-05
15 *865:A *656:S 0.000108135
16 *865:A *661:D 1.92766e-05
17 *865:A *684:DE 8.35594e-05
18 *865:A *746:B 0.000143172
19 *865:A *751:A 7.68696e-05
20 *865:A *257:22 3.99235e-05
21 *865:A *278:16 3.38973e-05
22 *865:A *359:26 0.000478298
23 *656:A1 *637:A1 0.000214168
24 *683:D *637:A1 1.82679e-05
25 *990:A *637:A1 0
26 *144:18 *160:8 0.000161243
*RES
1 *746:Y *160:8 15.5817 
2 *160:8 *637:A1 33.422 
3 *160:8 *865:A 39.1306 
*END

*D_NET *477 0.00463879
*CONN
*I *975:A I *D sky130_fd_sc_hd__buf_4
*I *1000:X O *D sky130_fd_sc_hd__buf_4
*CAP
1 *975:A 9.49348e-05
2 *1000:X 0.00165645
3 *477:14 0.00175139
4 resp_msg[0] *477:14 0.000160617
5 *525:B *477:14 0
6 *526:A *477:14 0.000190942
7 *635:A *477:14 1.59078e-05
8 *639:A2 *477:14 0
9 *698:D *477:14 0.000155411
10 *844:A *975:A 1.79807e-05
11 *845:A *477:14 0
12 *199:22 *975:A 8.62625e-06
13 *199:40 *477:14 1.65872e-05
14 *205:24 *477:14 0.000479262
15 *260:26 *477:14 6.23875e-05
16 *280:10 *477:14 0
17 *333:29 *477:14 1.73343e-05
18 *380:22 *975:A 1.09551e-05
19 *430:137 *477:14 0
20 *446:12 *477:14 0
21 *446:114 *477:14 0
*RES
1 *1000:X *477:14 49.1019 
2 *477:14 *975:A 20.6545 
*END

*D_NET *161 0.0017075
*CONN
*I *1009:A I *D sky130_fd_sc_hd__buf_4
*I *879:A I *D sky130_fd_sc_hd__buf_4
*I *751:Y O *D sky130_fd_sc_hd__xnor2_1
*CAP
1 *1009:A 2.98576e-05
2 *879:A 0.000124069
3 *751:Y 0.000113771
4 *161:6 0.000267697
5 *879:A *751:A 1.1246e-05
6 *879:A *752:A 3.9193e-05
7 *879:A *867:A 0.000118485
8 *879:A *246:12 0.000301415
9 *879:A *256:14 0.000130777
10 *1009:A *866:A 1.64789e-05
11 *161:6 *534:B 0.000165521
12 *161:6 *751:A 3.53654e-05
13 *161:6 *866:A 0.000353623
*RES
1 *751:Y *161:6 13.8548 
2 *161:6 *879:A 24.2337 
3 *161:6 *1009:A 10.2378 
*END

*D_NET *478 0.00317286
*CONN
*I *1000:A I *D sky130_fd_sc_hd__buf_4
*I *1001:X O *D sky130_fd_sc_hd__buf_4
*CAP
1 *1000:A 0.000700883
2 *1001:X 0.000700883
3 *634:A0 *1000:A 2.17025e-05
4 *636:A1 *1000:A 0.00031162
5 *636:A2 *1000:A 0.000272927
6 *639:A2 *1000:A 0.000207018
7 *654:S *1000:A 0
8 *697:DE *1000:A 7.03112e-06
9 *734:A1 *1000:A 0.00068441
10 *196:14 *1000:A 2.65667e-05
11 *199:40 *1000:A 0.000160617
12 *260:26 *1000:A 2.20702e-05
13 *312:37 *1000:A 1.09386e-05
14 *445:149 *1000:A 0
15 *446:40 *1000:A 4.61908e-05
*RES
1 *1001:X *1000:A 47.8328 
*END

*D_NET *481 0.00886158
*CONN
*I *579:A I *D sky130_fd_sc_hd__nand2_1
*I *647:A0 I *D sky130_fd_sc_hd__mux2_4
*I *1004:X O *D sky130_fd_sc_hd__buf_4
*CAP
1 *579:A 0.000300046
2 *647:A0 0.000942114
3 *1004:X 0.000199123
4 *481:32 0.00173547
5 *481:8 0.00129253
6 *481:32 *924:A 6.23715e-06
7 *496:B1 *481:32 1.18955e-05
8 *569:A *647:A0 0.000349583
9 *570:A *647:A0 0.00015607
10 *572:B *579:A 8.72115e-06
11 *578:A *579:A 4.76347e-05
12 *578:B *579:A 5.03545e-06
13 *578:B *481:32 0.00041509
14 *582:A *579:A 5.56367e-05
15 *582:A *481:8 2.16355e-05
16 *582:A *481:32 7.77744e-05
17 *646:S *481:32 0.000107496
18 *704:D *481:32 4.87439e-05
19 *705:D *481:32 2.33103e-06
20 *837:A *647:A0 2.58616e-05
21 *850:A *647:A0 0.000131894
22 *916:A *579:A 0.000169568
23 *938:A *579:A 6.08467e-05
24 *973:A *481:32 0.000675851
25 *1004:A *579:A 1.12605e-05
26 *167:22 *481:8 0
27 *220:12 *481:32 0.000123659
28 *220:55 *481:32 0.000324467
29 *242:19 *579:A 0.000160617
30 *242:19 *481:8 1.57428e-05
31 *259:58 *481:32 2.71262e-05
32 *315:16 *579:A 9.76854e-05
33 *404:14 *647:A0 3.27435e-05
34 *404:14 *481:32 0.000394659
35 *404:68 *579:A 9.03762e-06
36 *418:14 *579:A 1.92481e-05
37 *420:18 *647:A0 9.32983e-05
38 *420:18 *481:32 9.0612e-05
39 *427:112 *481:32 7.40248e-05
40 *451:22 *481:32 0.000518488
41 *474:47 *579:A 1.41976e-05
42 *474:53 *579:A 7.527e-06
*RES
1 *1004:X *481:8 12.625 
2 *481:8 *481:32 43.2537 
3 *481:32 *647:A0 26.2248 
4 *481:8 *579:A 37.3135 
*END

*D_NET *162 0.00215596
*CONN
*I *1010:A I *D sky130_fd_sc_hd__buf_4
*I *673:A1 I *D sky130_fd_sc_hd__mux2i_1
*I *587:Y O *D sky130_fd_sc_hd__xnor2_2
*CAP
1 *1010:A 8.25447e-05
2 *673:A1 0.000291478
3 *587:Y 0
4 *162:4 0.000374022
5 *673:A1 *523:B 0.000145945
6 *673:A1 *587:A 4.43826e-05
7 *673:A1 *751:B 0.000363059
8 *673:A1 *284:33 1.86362e-05
9 *673:A1 *337:22 3.57378e-06
10 *673:A1 *343:25 6.36477e-05
11 *673:A1 *362:16 0.00020653
12 *673:A1 *407:22 0.000117788
13 *1010:A *751:B 4.66492e-05
14 *1010:A *278:31 0.000197488
15 *1010:A *436:31 0.000200221
*RES
1 *587:Y *162:4 9.24915 
2 *162:4 *673:A1 28.5956 
3 *162:4 *1010:A 22.4655 
*END

*D_NET *483 0.00118031
*CONN
*I *924:A I *D sky130_fd_sc_hd__buf_4
*I *1006:X O *D sky130_fd_sc_hd__buf_4
*CAP
1 *924:A 0.000397014
2 *1006:X 0.000397014
3 *506:A *924:A 0.000139037
4 *704:D *924:A 0
5 *705:D *924:A 0
6 *973:A *924:A 6.10781e-06
7 *31:37 *924:A 0.000187285
8 *259:58 *924:A 1.77894e-05
9 *404:14 *924:A 2.98302e-05
10 *481:32 *924:A 6.23715e-06
*RES
1 *1006:X *924:A 38.8811 
*END

*D_NET *486 0.00133608
*CONN
*I *866:A I *D sky130_fd_sc_hd__clkbuf_2
*I *1009:X O *D sky130_fd_sc_hd__buf_4
*CAP
1 *866:A 0.00048299
2 *1009:X 0.00048299
3 *515:A2 *866:A 0
4 *1009:A *866:A 1.64789e-05
5 *161:6 *866:A 0.000353623
6 *436:31 *866:A 0
*RES
1 *1009:X *866:A 36.3097 
*END

*D_NET *487 0.00243715
*CONN
*I *867:A I *D sky130_fd_sc_hd__buf_2
*I *1010:X O *D sky130_fd_sc_hd__buf_4
*CAP
1 *867:A 0.000536312
2 *1010:X 0.000536312
3 resp_msg[14] *867:A 1.99131e-05
4 *515:A2 *867:A 0.000506452
5 *752:A *867:A 0.000333557
6 *752:B *867:A 0.000160383
7 *879:A *867:A 0.000118485
8 *961:A *867:A 0.000155565
9 *246:12 *867:A 4.93395e-05
10 *253:8 *867:A 2.08274e-05
*RES
1 *1010:X *867:A 44.0056 
*END

*D_NET *163 0.0041064
*CONN
*I *601:A1 I *D sky130_fd_sc_hd__mux2i_1
*I *868:A I *D sky130_fd_sc_hd__buf_2
*I *511:Y O *D sky130_fd_sc_hd__xnor2_2
*CAP
1 *601:A1 0.000329259
2 *868:A 0.000433765
3 *511:Y 0.000488746
4 *163:10 0.00125177
5 *601:A1 *601:A0 1.41291e-05
6 *868:A resp_msg[1] 3.25584e-05
7 *163:10 *557:B 0.000153108
8 *163:10 *309:19 8.99995e-05
9 *163:10 *430:62 0
10 *163:10 *449:20 0
11 *556:C *163:10 0.000304694
12 *568:C *163:10 5.71992e-05
13 *603:A2 *601:A1 0.000477967
14 *603:A2 *868:A 0.00036437
15 *603:B1 *868:A 4.81015e-05
16 *644:A1 *163:10 5.3915e-05
17 *926:A *163:10 0
18 *129:14 *868:A 6.82304e-06
*RES
1 *511:Y *163:10 33.7845 
2 *163:10 *868:A 18.9185 
3 *163:10 *601:A1 15.5427 
*END

*D_NET *164 0.00306064
*CONN
*I *869:A I *D sky130_fd_sc_hd__buf_2
*I *604:A1 I *D sky130_fd_sc_hd__mux2i_1
*I *510:Y O *D sky130_fd_sc_hd__xnor2_2
*CAP
1 *869:A 0.000105376
2 *604:A1 0.000610774
3 *510:Y 0
4 *164:6 0.00071615
5 *604:A1 *504:A 0.000155272
6 *604:A1 *220:14 0.000159663
7 *604:A1 *405:22 0.000175197
8 *869:A *606:A1 0
9 *869:A *220:14 0.000193213
10 *606:A2 *604:A1 0.00046764
11 *606:B1 *604:A1 0.000314935
12 *606:B1 *869:A 0.000162422
*RES
1 *510:Y *164:6 13.7491 
2 *164:6 *604:A1 28.8243 
3 *164:6 *869:A 17.9655 
*END

*D_NET *165 0.00533677
*CONN
*I *607:A1 I *D sky130_fd_sc_hd__mux2i_1
*I *870:A I *D sky130_fd_sc_hd__buf_2
*I *506:Y O *D sky130_fd_sc_hd__xnor2_2
*CAP
1 *607:A1 0
2 *870:A 0.00027258
3 *506:Y 0.00112139
4 *165:20 0.00139397
5 *870:A resp_msg[4] 0.000482486
6 *870:A *570:A 1.94615e-05
7 *870:A *607:A0 6.49659e-05
8 *870:A *850:A 0.000335378
9 *870:A *438:46 0
10 *870:A *445:20 3.46206e-05
11 *165:20 *579:B 0.000201084
12 *165:20 *851:A 1.5714e-05
13 *165:20 *872:A 0.000392497
14 *165:20 *435:71 8.36586e-06
15 *165:20 *451:22 0.000263126
16 *611:A *165:20 0
17 *647:A1 *165:20 0.000498762
18 *52:18 *165:20 0.000200794
19 *57:14 *165:20 3.15754e-05
*RES
1 *506:Y *165:20 43.6448 
2 *165:20 *870:A 29.6642 
3 *165:20 *607:A1 9.24915 
*END

*D_NET *166 0.00633884
*CONN
*I *988:A I *D sky130_fd_sc_hd__buf_4
*I *871:A I *D sky130_fd_sc_hd__buf_2
*I *505:X O *D sky130_fd_sc_hd__xor2_2
*CAP
1 *988:A 0
2 *871:A 0.000304704
3 *505:X 0.000282161
4 *166:33 0.00130712
5 *166:12 0.00189399
6 *871:A resp_msg[4] 0.00011818
7 *871:A *569:A 3.82228e-05
8 *871:A *435:71 5.80004e-05
9 *871:A *449:20 6.50727e-05
10 *166:12 *505:B 1.70615e-05
11 *166:12 *365:16 5.65971e-05
12 *166:12 *430:45 5.65971e-05
13 *166:12 *435:71 1.56e-05
14 *166:12 *449:20 6.49003e-05
15 *166:33 *568:A 4.07035e-05
16 *166:33 *586:A 7.40275e-05
17 *166:33 *593:A 9.31272e-05
18 *166:33 *659:B2 4.66693e-05
19 *166:33 *660:A 0.000251669
20 *166:33 *666:B 0
21 *166:33 *172:14 2.22342e-05
22 *166:33 *259:94 0
23 *166:33 *445:10 0.000301135
24 *166:33 *458:12 5.04829e-06
25 *166:33 *464:80 9.93791e-05
26 *611:A *166:33 0.000187118
27 *648:A1 *166:33 1.0779e-05
28 *671:B1 *166:33 7.75133e-06
29 *907:A *166:33 0.000200794
30 *923:A *166:33 0.000490862
31 *965:A *166:33 0
32 *15:22 *166:33 7.55529e-05
33 *55:22 *166:33 0
34 *60:12 *166:33 0
35 *109:28 *166:33 2.32676e-05
36 *115:14 *166:33 0.000130516
*RES
1 *505:X *166:12 23.3017 
2 *166:12 *871:A 17.0859 
3 *166:12 *166:33 47.2996 
4 *166:33 *988:A 9.24915 
*END

*D_NET *123 0.00428273
*CONN
*I *654:A1 I *D sky130_fd_sc_hd__mux2_4
*I *827:X O *D sky130_fd_sc_hd__clkdlybuf4s50_1
*CAP
1 *654:A1 0
2 *827:X 0.00134817
3 *123:18 0.00134817
4 *123:18 *500:B 3.256e-05
5 *123:18 *512:A 0.000146931
6 *123:18 *549:A 4.95892e-05
7 *123:18 *681:CLK 0.000308121
8 *123:18 *394:6 0.000310724
9 *636:A1 *123:18 0.000159016
10 *681:D *123:18 0.000160829
11 *703:D *123:18 0.000239799
12 *1001:A *123:18 7.13972e-05
13 *23:8 *123:18 8.15574e-05
14 *23:33 *123:18 2.58757e-05
*RES
1 *827:X *123:18 45.0033 
2 *123:18 *654:A1 9.24915 
*END

*D_NET *167 0.00832287
*CONN
*I *613:A1 I *D sky130_fd_sc_hd__mux2i_1
*I *872:A I *D sky130_fd_sc_hd__buf_2
*I *499:X O *D sky130_fd_sc_hd__xor2_1
*CAP
1 *613:A1 0.000200696
2 *872:A 0.000474017
3 *499:X 0.00165445
4 *167:22 0.00232916
5 *613:A1 *613:S 6.08467e-05
6 *872:A resp_msg[5] 2.77625e-06
7 *872:A *506:A 1.30711e-05
8 *872:A *579:B 0.000118166
9 *872:A *580:A 7.3504e-05
10 *872:A *580:B 6.50586e-05
11 *872:A *586:A 0
12 *872:A *614:B 2.65667e-05
13 *872:A *430:45 1.5714e-05
14 *167:22 *503:A2 8.9119e-06
15 *167:22 *579:B 0
16 *167:22 *582:A 7.92191e-05
17 *167:22 *242:19 0.000367999
18 *167:22 *305:16 4.51176e-05
19 *167:22 *397:22 0.000524433
20 *167:22 *404:68 5.41867e-05
21 *167:22 *430:20 0.000439854
22 *167:22 *430:22 0.000252003
23 *167:22 *481:8 0
24 *586:B *613:A1 0.000155293
25 *614:A *872:A 3.75603e-05
26 *615:B1 *872:A 0.00068136
27 *615:B1 *167:22 0
28 *647:A1 *872:A 0.000189558
29 *14:6 *613:A1 6.08467e-05
30 *120:32 *167:22 0
31 *165:20 *872:A 0.000392497
*RES
1 *499:X *167:22 42.4494 
2 *167:22 *872:A 32.0903 
3 *167:22 *613:A1 19.1136 
*END

*D_NET *168 0.00381783
*CONN
*I *881:A I *D sky130_fd_sc_hd__buf_4
*I *873:A I *D sky130_fd_sc_hd__clkdlybuf4s50_1
*I *495:X O *D sky130_fd_sc_hd__xor2_2
*CAP
1 *881:A 0.000395313
2 *873:A 8.19258e-05
3 *495:X 0.000639564
4 *168:32 0.000598473
5 *168:30 0.000760797
6 *873:A *265:16 1.00981e-05
7 *881:A *621:A1 3.1741e-05
8 *881:A *659:B1 0.000139435
9 *881:A *708:DE 1.50539e-05
10 *881:A *854:A 0
11 *881:A *946:A 3.51288e-06
12 *881:A *391:31 0
13 *168:30 resp_msg[7] 4.24488e-05
14 *168:30 *584:B 1.23003e-05
15 *168:30 *659:B1 0.000399467
16 *168:30 *444:48 3.82228e-05
17 *168:30 *464:14 1.94472e-05
18 *168:30 *464:34 3.88415e-05
19 *168:32 *659:B1 0.000180834
20 *168:32 *391:10 1.59362e-06
21 *168:32 *391:31 2.44385e-05
22 *28:35 *168:30 0.000157107
23 *62:22 *168:30 7.73661e-05
24 *63:22 *168:30 0
25 *95:26 *873:A 7.48633e-05
26 *95:26 *881:A 7.49865e-05
*RES
1 *495:X *168:30 47.5024 
2 *168:30 *168:32 3.493 
3 *168:32 *873:A 16.1364 
4 *168:32 *881:A 24.3014 
*END

*D_NET *169 0.00736824
*CONN
*I *980:A I *D sky130_fd_sc_hd__buf_4
*I *874:A I *D sky130_fd_sc_hd__buf_2
*I *489:X O *D sky130_fd_sc_hd__xor2_2
*CAP
1 *980:A 0.000303323
2 *874:A 0.000416582
3 *489:X 0.00173009
4 *169:18 0.00245
5 *874:A resp_msg[7] 1.43832e-05
6 *874:A *618:A1 2.16355e-05
7 *874:A *854:A 1.0627e-05
8 *874:A *444:48 0.000160617
9 *980:A resp_msg[6] 4.269e-05
10 *980:A *621:A1 3.43708e-05
11 *980:A *854:A 7.82068e-05
12 *169:18 resp_msg[6] 6.9194e-05
13 *169:18 *585:B 0
14 *169:18 *691:DE 0
15 *169:18 *692:DE 0
16 *169:18 *729:B 0
17 *169:18 *736:C 1.88152e-05
18 *169:18 *854:A 5.39404e-06
19 *169:18 *878:A 1.07403e-05
20 *169:18 *962:A 7.4241e-05
21 *169:18 *355:26 0.000194202
22 *169:18 *415:71 0
23 *169:18 *417:14 0.000282037
24 *169:18 *429:15 8.50873e-05
25 *169:18 *429:99 5.15043e-05
26 *169:18 *431:36 0.000169168
27 *169:18 *464:45 1.81351e-05
28 *621:A2 *980:A 4.51619e-05
29 *621:A2 *169:18 0
30 *658:B *874:A 0.000703551
31 *658:B *169:18 0.000127524
32 *911:A *874:A 5.01835e-05
33 *41:12 *980:A 0
34 *63:22 *980:A 1.57953e-05
35 *65:20 *980:A 1.21054e-05
36 *95:26 *980:A 1.33438e-05
37 *103:12 *874:A 5.46889e-05
38 *136:24 *169:18 0.000104847
*RES
1 *489:X *169:18 38.4666 
2 *169:18 *874:A 21.1274 
3 *169:18 *980:A 24.3604 
*END

*D_NET *170 0.00747082
*CONN
*I *622:A1 I *D sky130_fd_sc_hd__mux2i_1
*I *875:A I *D sky130_fd_sc_hd__buf_2
*I *591:Y O *D sky130_fd_sc_hd__xnor2_4
*CAP
1 *622:A1 0
2 *875:A 0.000285301
3 *591:Y 0.000296438
4 *170:51 0.00103901
5 *170:12 0.00162075
6 *875:A *575:A 6.08467e-05
7 *875:A *616:A0 0.000179051
8 *875:A *355:26 0.000235176
9 *170:12 *575:A 0.000496262
10 *170:12 *239:8 0.000211955
11 *170:12 *355:26 8.36586e-06
12 *170:12 *443:18 3.58208e-05
13 *170:51 resp_msg[8] 0.000626376
14 *170:51 *616:S 5.23577e-05
15 *170:51 *619:A0 1.04511e-05
16 *170:51 *622:S 3.91078e-05
17 *170:51 *650:A0 0.000296024
18 *170:51 *841:A 4.1669e-05
19 *170:51 *855:A 0.000309709
20 *170:51 *355:26 7.00935e-05
21 *170:51 *386:16 7.10724e-05
22 *170:51 *399:80 0.000114271
23 *170:51 *431:36 0
24 *170:51 *434:6 6.88798e-05
25 *170:51 *443:18 6.93171e-05
26 *624:A1 *170:51 0.000709914
27 *651:A1 *170:51 2.30636e-05
28 *724:B *170:12 0.000193893
29 *954:A *170:51 0.000145521
30 *109:20 *170:12 2.41274e-06
31 *136:24 *170:51 0.000157705
*RES
1 *591:Y *170:12 25.8769 
2 *170:12 *875:A 21.3689 
3 *170:12 *170:51 47.9717 
4 *170:51 *622:A1 9.24915 
*END

*D_NET *171 0.0066291
*CONN
*I *625:A1 I *D sky130_fd_sc_hd__mux2i_1
*I *876:A I *D sky130_fd_sc_hd__clkbuf_2
*I *721:Y O *D sky130_fd_sc_hd__xnor2_2
*CAP
1 *625:A1 0.000426364
2 *876:A 0.000607612
3 *721:Y 0.000708839
4 *171:16 0.00174281
5 *625:A1 *856:A 0.000179417
6 *625:A1 *399:80 0.000154979
7 *625:A1 *413:26 1.65872e-05
8 *876:A resp_msg[8] 0.000288072
9 *876:A resp_msg[9] 0.000425744
10 *876:A *841:A 0
11 *171:16 resp_msg[9] 7.93892e-05
12 *171:16 *538:C 7.56859e-06
13 *171:16 *692:DE 2.9333e-05
14 *171:16 *730:A1 3.60067e-05
15 *171:16 *842:A 7.05045e-05
16 *171:16 *265:27 0.000118002
17 *171:16 *321:10 0.000139684
18 *171:16 *328:10 2.41274e-06
19 *171:16 *413:26 0.000143175
20 *171:16 *414:39 0.000398888
21 *171:16 *448:112 0
22 *546:A *171:16 6.08467e-05
23 *694:D *625:A1 6.27782e-05
24 *709:D *171:16 8.36181e-05
25 *710:D *625:A1 1.03403e-05
26 *27:24 *171:16 2.21323e-05
27 *152:22 *625:A1 0.000801766
28 *152:22 *171:16 1.22289e-05
*RES
1 *721:Y *171:16 39.9794 
2 *171:16 *876:A 39.243 
3 *171:16 *625:A1 33.4477 
*END

*D_NET *173 0.00467542
*CONN
*I *894:A I *D sky130_fd_sc_hd__buf_6
*I *877:A I *D sky130_fd_sc_hd__buf_2
*I *658:Y O *D sky130_fd_sc_hd__nor2_4
*CAP
1 *894:A 0.000357586
2 *877:A 0.000341733
3 *658:Y 0.000438032
4 *173:10 0.00113735
5 *894:A *597:B 5.89643e-05
6 *894:A *425:33 3.1741e-05
7 *173:10 *649:A0 5.481e-05
8 *173:10 *464:34 5.04829e-06
9 *649:A1 *173:10 1.98846e-05
10 *658:A *173:10 5.69501e-06
11 *658:B *173:10 1.43832e-05
12 *707:D *173:10 6.7671e-06
13 *4:10 *894:A 5.04829e-06
14 *111:12 *894:A 0.000351515
15 *113:10 *894:A 7.20028e-05
16 *115:14 *877:A 0.000305977
17 *115:14 *894:A 0.000362021
18 *155:10 *877:A 0.00017
19 *155:12 *877:A 3.81525e-05
20 *172:14 *877:A 0.000309454
21 *172:14 *894:A 0.000589256
*RES
1 *658:Y *173:10 20.4526 
2 *173:10 *877:A 24.4786 
3 *173:10 *894:A 28.7677 
*END

*D_NET *466 0.00239957
*CONN
*I *946:A I *D sky130_fd_sc_hd__buf_12
*I *596:B I *D sky130_fd_sc_hd__or2_4
*I *989:X O *D sky130_fd_sc_hd__buf_6
*CAP
1 *946:A 0.000489235
2 *596:B 0.000238582
3 *989:X 0.000727817
4 *596:A *596:B 9.54356e-05
5 *616:A1 *946:A 1.91246e-05
6 *621:A1 *946:A 1.07248e-05
7 *621:A2 *946:A 0.000121739
8 *691:CLK *946:A 1.5714e-05
9 *708:DE *946:A 0.000179533
10 *854:A *946:A 6.6861e-06
11 *881:A *946:A 3.51288e-06
12 *989:A *596:B 1.44611e-05
13 *65:20 *946:A 7.12632e-06
14 *113:10 *596:B 9.25588e-05
15 *374:20 *596:B 0.000108054
16 *374:20 *946:A 2.16355e-05
17 *391:31 *596:B 0
18 *433:32 *596:B 0.000103139
19 *433:32 *946:A 8.33074e-05
20 *447:88 *596:B 6.11872e-05
*RES
1 *989:X *596:B 35.3505 
2 *989:X *946:A 38.2192 
*END

*D_NET *438 0.0350129
*CONN
*I *692:DE I *D sky130_fd_sc_hd__edfxtp_1
*I *691:DE I *D sky130_fd_sc_hd__edfxtp_1
*I *684:DE I *D sky130_fd_sc_hd__edfxtp_1
*I *688:DE I *D sky130_fd_sc_hd__edfxtp_1
*I *686:DE I *D sky130_fd_sc_hd__edfxtp_1
*I *687:DE I *D sky130_fd_sc_hd__edfxtp_1
*I *690:DE I *D sky130_fd_sc_hd__edfxtp_1
*I *689:DE I *D sky130_fd_sc_hd__edfxtp_1
*I *958:X O *D sky130_fd_sc_hd__clkbuf_16
*CAP
1 *692:DE 0.00116795
2 *691:DE 0.00042173
3 *684:DE 0.00158433
4 *688:DE 0
5 *686:DE 2.30055e-05
6 *687:DE 0.000145588
7 *690:DE 0.000880955
8 *689:DE 0.000150068
9 *958:X 0
10 *438:136 0.00341072
11 *438:74 0.000302057
12 *438:46 0.00196956
13 *438:40 0.00157343
14 *438:34 0.00245077
15 *438:16 0.00407627
16 *438:6 0.00236365
17 *684:DE *655:S 0.000246635
18 *684:DE *444:172 3.83618e-05
19 *687:DE *602:B 0.000127179
20 *687:DE *445:20 0.000117332
21 *687:DE *445:22 0.000150556
22 *690:DE *706:CLK 0.000669757
23 *690:DE *445:20 0
24 *690:DE *447:36 4.16614e-05
25 *691:DE *619:A1 0.000138209
26 *692:DE *444:103 3.39878e-06
27 *438:16 *502:C 4.33979e-05
28 *438:34 *502:C 6.01588e-05
29 *438:34 *445:76 0
30 *438:34 *445:134 0
31 *438:46 *445:20 0
32 *438:74 *511:A 2.5971e-05
33 *438:74 *445:20 0.000401465
34 *438:136 *464:45 0
35 resp_msg[5] *690:DE 0.000190501
36 *493:B *438:136 5.60804e-05
37 *494:A *438:16 0.000159016
38 *509:B *438:34 8.99338e-05
39 *513:A1 *684:DE 9.82896e-06
40 *538:C *692:DE 8.1595e-06
41 *549:A *684:DE 1.9101e-05
42 *553:B1 *438:34 0.000969687
43 *567:B *438:34 0
44 *568:C *438:40 2.38015e-05
45 *570:A *438:46 7.33737e-05
46 *607:A0 *438:46 3.74158e-05
47 *616:S *691:DE 1.09101e-05
48 *621:A2 *691:DE 0.000219905
49 *651:A1 *692:DE 2.89248e-05
50 *674:A *684:DE 8.34322e-05
51 *681:DE *438:34 4.62889e-05
52 *687:D *687:DE 0.00041546
53 *687:D *438:74 0.000200464
54 *688:D *438:34 6.87009e-05
55 *688:D *438:40 6.55363e-05
56 *689:CLK *689:DE 3.5328e-05
57 *690:D *690:DE 6.46815e-05
58 *709:D *692:DE 1.91391e-05
59 *734:A1 *438:34 8.36534e-06
60 *738:B *684:DE 0.000134715
61 *746:B *684:DE 0.00204882
62 *746:B *438:16 0.000428436
63 *835:A *438:46 0.000145382
64 *837:A *438:46 0.000145116
65 *838:A *690:DE 2.24191e-05
66 *850:A *438:46 6.84356e-05
67 *865:A *684:DE 8.35594e-05
68 *870:A *438:46 0
69 *880:A *438:34 0.000374977
70 *880:A *438:136 0.000193557
71 *958:A *438:136 0
72 *1008:A *438:16 3.05478e-05
73 *12:16 *691:DE 1.72594e-05
74 *23:33 *684:DE 0.000160617
75 *27:24 *692:DE 2.56868e-05
76 *31:6 *438:34 0.000151869
77 *41:20 *438:136 0
78 *57:14 *689:DE 6.18295e-05
79 *131:22 *438:74 4.15517e-05
80 *159:18 *684:DE 1.5714e-05
81 *169:18 *691:DE 0
82 *169:18 *692:DE 0
83 *171:16 *692:DE 2.9333e-05
84 *180:26 *692:DE 1.52882e-05
85 *254:20 *684:DE 0.00064503
86 *259:146 *438:136 0.000792319
87 *260:26 *438:34 0.000216581
88 *265:16 *691:DE 2.36965e-05
89 *286:14 *684:DE 0.000724851
90 *286:14 *438:16 0.000302295
91 *286:14 *438:136 3.63593e-05
92 *304:20 *438:34 0.000175331
93 *312:37 *438:34 0.000234924
94 *340:40 *438:136 6.23101e-05
95 *347:20 *438:16 0
96 *347:20 *438:136 0
97 *359:26 *684:DE 0
98 *384:18 *438:16 0.00030292
99 *397:22 *438:136 0.000597256
100 *422:42 *438:34 3.9313e-05
101 *426:42 *692:DE 0.000282123
102 *427:44 *686:DE 2.90638e-06
103 *427:85 *438:40 0.000128611
104 *427:85 *438:46 6.05995e-05
105 *427:104 *438:40 7.27374e-05
106 *429:29 *438:34 0.00012007
107 *429:65 *438:34 0.000408893
108 *435:16 *438:34 0.000100487
*RES
1 *958:X *438:6 13.7491 
2 *438:6 *438:16 26.4024 
3 *438:16 *438:34 33.0901 
4 *438:34 *438:40 9.00025 
5 *438:40 *438:46 30.3151 
6 *438:46 *689:DE 17.5229 
7 *438:46 *690:DE 42.5429 
8 *438:40 *438:74 11.7303 
9 *438:74 *687:DE 20.9681 
10 *438:74 *686:DE 14.153 
11 *438:34 *688:DE 9.24915 
12 *438:16 *684:DE 47.1437 
13 *438:6 *438:136 9.96955 
14 *438:136 *691:DE 22.6082 
15 *438:136 *692:DE 22.9606 
*END

*D_NET *464 0.0297807
*CONN
*I *646:S I *D sky130_fd_sc_hd__mux2_4
*I *647:S I *D sky130_fd_sc_hd__mux2_4
*I *655:S I *D sky130_fd_sc_hd__mux2_4
*I *649:S I *D sky130_fd_sc_hd__mux2_4
*I *987:X O *D sky130_fd_sc_hd__buf_8
*CAP
1 *646:S 0.000294063
2 *647:S 0.000409754
3 *655:S 0.00382965
4 *649:S 0
5 *987:X 0.000361633
6 *464:80 0.0025627
7 *464:45 0.00741435
8 *464:34 0.00178359
9 *464:14 0.00387103
10 *646:S *481:32 0.000107496
11 *655:S *502:C 0.00101416
12 *464:34 *476:30 5.481e-05
13 *493:B *464:80 0.000114642
14 *499:B *655:S 0.000362231
15 *499:B *464:45 6.72806e-05
16 *499:B *464:80 6.21488e-06
17 *500:A *655:S 0.000773821
18 *569:A *647:S 0.000155293
19 *569:B *647:S 0.000105196
20 *570:A *647:S 0.000241867
21 *574:A2 *464:80 0
22 *594:A1 *464:34 0.000250405
23 *611:A *647:S 8.36586e-06
24 *616:A0 *464:34 0.000182444
25 *637:A0 *655:S 6.52144e-05
26 *639:A1 *655:S 0.000147943
27 *641:A *655:S 0
28 *655:A1 *655:S 3.5534e-06
29 *658:B *464:14 0.000270577
30 *662:A *655:S 6.37393e-06
31 *662:C *655:S 0
32 *670:A *464:34 0.000122844
33 *681:DE *655:S 0.000297527
34 *683:DE *655:S 0
35 *684:DE *655:S 0.000246635
36 *698:D *655:S 0
37 *706:DE *464:80 7.41045e-05
38 *707:D *464:34 8.79845e-05
39 *489:B *655:S 1.4656e-05
40 *489:B *464:45 2.22892e-05
41 *489:B *464:80 0.000116999
42 *734:A1 *655:S 6.59904e-05
43 *746:B *655:S 0.000196788
44 *923:A *647:S 0.000246111
45 *958:A *464:45 0.000444141
46 *965:A *464:34 0.0001195
47 *997:A *464:34 2.91766e-05
48 *31:37 *646:S 6.93171e-05
49 *33:16 *655:S 4.59195e-06
50 *52:18 *647:S 3.74527e-05
51 *63:22 *464:14 4.75721e-06
52 *80:18 *655:S 0
53 *84:22 *655:S 0
54 *120:32 *464:45 0.000117368
55 *166:33 *464:80 9.93791e-05
56 *168:30 *464:14 1.94472e-05
57 *168:30 *464:34 3.88415e-05
58 *169:18 *464:45 1.81351e-05
59 *173:10 *464:34 5.04829e-06
60 *254:20 *655:S 0.000212407
61 *259:58 *464:80 2.5695e-05
62 *259:72 *464:80 0.000143804
63 *259:94 *464:80 0.000201444
64 *259:146 *464:45 0
65 *282:20 *655:S 0.000409578
66 *283:10 *655:S 2.33103e-06
67 *305:16 *464:80 7.87417e-05
68 *357:26 *464:34 0.000256056
69 *385:16 *464:34 0.000396233
70 *404:14 *646:S 0.000283887
71 *404:14 *647:S 0.000255255
72 *404:68 *464:80 0.000312004
73 *420:18 *646:S 1.41976e-05
74 *430:14 *464:34 2.12511e-05
75 *430:14 *464:45 1.43989e-05
76 *430:20 *464:80 4.13955e-05
77 *430:22 *464:80 5.13467e-05
78 *430:45 *646:S 6.93171e-05
79 *432:18 *464:34 2.75606e-05
80 *438:136 *464:45 0
*RES
1 *987:X *464:14 18.2797 
2 *464:14 *464:34 44.5136 
3 *464:34 *649:S 9.24915 
4 *464:14 *464:45 4.44063 
5 *464:45 *655:S 35.0064 
6 *464:45 *464:80 18.1207 
7 *464:80 *647:S 30.5595 
8 *464:80 *646:S 24.4403 
*END

*D_NET *432 0.0037438
*CONN
*I *594:B1_N I *D sky130_fd_sc_hd__o21bai_4
*I *997:A I *D sky130_fd_sc_hd__buf_12
*I *952:X O *D sky130_fd_sc_hd__buf_6
*CAP
1 *594:B1_N 0
2 *997:A 0.000265237
3 *952:X 0.000483322
4 *432:18 0.000748558
5 *997:A *610:A1 1.88152e-05
6 *997:A *860:A 0.000200794
7 *997:A *464:34 2.91766e-05
8 *997:A *474:14 6.08467e-05
9 *997:A *476:30 0.000156955
10 *432:18 *433:32 2.65667e-05
11 *432:18 *464:34 2.75606e-05
12 *596:A *432:18 4.6284e-05
13 *610:A0 *997:A 0.000212198
14 *610:A0 *432:18 0.000234742
15 *616:A0 *432:18 0.000208048
16 *948:A *432:18 0.000471015
17 *33:73 *432:18 8.28857e-05
18 *230:23 *432:18 0.000255213
19 *357:26 *997:A 0.000104902
20 *374:20 *432:18 0.000110684
*RES
1 *952:X *432:18 36.2828 
2 *432:18 *997:A 17.737 
3 *432:18 *594:B1_N 9.24915 
*END

*D_NET *124 0.000891562
*CONN
*I *655:A1 I *D sky130_fd_sc_hd__mux2_4
*I *828:X O *D sky130_fd_sc_hd__clkdlybuf4s50_1
*CAP
1 *655:A1 0.000319471
2 *828:X 0.000319471
3 *655:A1 *655:S 3.5534e-06
4 *655:A1 *828:A 1.77439e-05
5 *655:A1 *408:16 1.20327e-05
6 *655:A1 *445:247 0.000171288
7 *639:A1 *655:A1 0
8 *80:18 *655:A1 4.80016e-05
9 *84:22 *655:A1 0
*RES
1 *828:X *655:A1 34.0697 
*END

*D_NET *125 0.00257839
*CONN
*I *656:A1 I *D sky130_fd_sc_hd__mux2_4
*I *829:X O *D sky130_fd_sc_hd__clkdlybuf4s50_1
*CAP
1 *656:A1 0.000964833
2 *829:X 0.000964833
3 *656:A1 *637:A1 0.000214168
4 *656:A1 *638:A 0
5 *656:A1 *829:A 9.70161e-05
6 *656:A1 *276:18 6.90342e-06
7 *529:A *656:A1 0.000189593
8 *990:A *656:A1 0
9 *102:14 *656:A1 0.000141044
*RES
1 *829:X *656:A1 48.754 
*END

*D_NET *126 0.00249094
*CONN
*I *657:A1 I *D sky130_fd_sc_hd__mux2_4
*I *830:X O *D sky130_fd_sc_hd__clkdlybuf4s50_1
*CAP
1 *657:A1 0.000805157
2 *830:X 0.000805157
3 *657:A1 *640:S 1.55025e-05
4 *657:A1 *830:A 0.000131894
5 *657:A0 *657:A1 7.73759e-05
6 *102:14 *657:A1 0.000655857
*RES
1 *830:X *657:A1 33.135 
*END

*D_NET *127 0.00308149
*CONN
*I *595:A1 I *D sky130_fd_sc_hd__mux2_4
*I *831:X O *D sky130_fd_sc_hd__clkdlybuf4s50_1
*CAP
1 *595:A1 0
2 *831:X 0.000942334
3 *127:16 0.000942334
4 *127:16 resp_msg[10] 0
5 *127:16 *595:A0 2.44243e-05
6 *127:16 *831:A 0.000138943
7 *127:16 *849:A 0.000121494
8 *127:16 *269:12 1.85773e-05
9 *696:D *127:16 0
10 *701:D *127:16 0.000150754
11 *73:12 *127:16 0.000742632
*RES
1 *831:X *127:16 44.5443 
2 *127:16 *595:A1 9.24915 
*END

*D_NET *259 0.0497373
*CONN
*I *560:A I *D sky130_fd_sc_hd__xnor2_2
*I *550:B I *D sky130_fd_sc_hd__xor2_2
*I *529:B I *D sky130_fd_sc_hd__xor2_2
*I *533:A I *D sky130_fd_sc_hd__xor2_2
*I *526:B I *D sky130_fd_sc_hd__xor2_1
*I *562:B I *D sky130_fd_sc_hd__xor2_2
*I *556:B I *D sky130_fd_sc_hd__xor3_2
*I *543:B I *D sky130_fd_sc_hd__xor2_1
*I *541:A I *D sky130_fd_sc_hd__xnor3_2
*I *535:A I *D sky130_fd_sc_hd__xor2_2
*I *538:C I *D sky130_fd_sc_hd__xnor3_2
*I *547:B I *D sky130_fd_sc_hd__xor2_2
*I *540:B I *D sky130_fd_sc_hd__xor2_1
*I *724:A I *D sky130_fd_sc_hd__xor2_4
*I *582:A I *D sky130_fd_sc_hd__xor2_2
*I *573:B I *D sky130_fd_sc_hd__xnor3_2
*I *580:B I *D sky130_fd_sc_hd__xor2_1
*I *586:A I *D sky130_fd_sc_hd__xor2_4
*I *568:A I *D sky130_fd_sc_hd__xnor3_2
*I *570:B I *D sky130_fd_sc_hd__xor2_1
*I *567:B I *D sky130_fd_sc_hd__xor2_2
*I *565:B I *D sky130_fd_sc_hd__xor3_1
*I *711:HI O *D sky130_fd_sc_hd__conb_1
*CAP
1 *560:A 0
2 *550:B 0.000145501
3 *529:B 0.000481182
4 *533:A 3.6352e-05
5 *526:B 2.06324e-05
6 *562:B 0.00019278
7 *556:B 0.00072568
8 *543:B 0.000133372
9 *541:A 0.000113423
10 *535:A 0.000357046
11 *538:C 0.000257495
12 *547:B 0
13 *540:B 0
14 *724:A 9.31284e-05
15 *582:A 0.000404207
16 *573:B 0
17 *580:B 1.26553e-05
18 *586:A 0.000297235
19 *568:A 0.000367486
20 *570:B 3.16958e-05
21 *567:B 0.000706127
22 *565:B 0.00014593
23 *711:HI 1.98947e-05
24 *259:326 0.000877453
25 *259:315 0.00150643
26 *259:298 0.00138253
27 *259:267 0.00214145
28 *259:261 0.00146883
29 *259:259 0.000186249
30 *259:216 0.00108323
31 *259:208 0.00102591
32 *259:189 0.000735225
33 *259:180 0.000355939
34 *259:169 0.0008711
35 *259:146 0.00218055
36 *259:94 0.000510738
37 *259:72 0.000660895
38 *259:66 0.000576192
39 *259:58 0.000815404
40 *259:46 0.00199987
41 *259:40 0.00227813
42 *259:16 0.00100549
43 *259:8 0.000266243
44 *529:B *637:A0 0
45 *529:B *637:S 5.91179e-05
46 *529:B *638:B 0
47 *529:B *684:CLK 9.57557e-06
48 *529:B *700:CLK 0.000185044
49 *529:B *846:A 3.60268e-05
50 *529:B *446:144 4.46284e-06
51 *529:B *471:28 0.000340852
52 *535:A *696:CLK 9.45098e-05
53 *535:A *701:DE 7.35986e-05
54 *535:A *386:60 0.000324764
55 *535:A *395:20 0
56 *535:A *431:84 4.10825e-05
57 *538:C *652:S 0
58 *538:C *692:DE 8.1595e-06
59 *538:C *730:A1 0.000386125
60 *538:C *426:42 0
61 *538:C *448:112 0.000112672
62 *543:B *543:A 6.50586e-05
63 *543:B *710:CLK 3.01683e-06
64 *543:B *431:73 3.6083e-05
65 *543:B *448:129 3.82228e-05
66 *550:B *631:S 5.37077e-05
67 *550:B *637:S 0.000124342
68 *550:B *684:CLK 5.20862e-05
69 *550:B *436:62 0.000138334
70 *556:B *598:S 5.49244e-05
71 *556:B *644:S 0
72 *556:B *422:27 8.94009e-06
73 *556:B *422:42 5.81184e-05
74 *556:B *435:16 0.000408351
75 *556:B *435:18 8.11083e-05
76 *562:B *393:20 7.37753e-05
77 *565:B *501:B1 7.92757e-06
78 *565:B *299:8 0.00035152
79 *565:B *304:31 0.000162583
80 *567:B *502:C 0
81 *567:B *734:A1 0
82 *567:B *260:26 0
83 *567:B *304:31 0.000195315
84 *567:B *306:8 3.82245e-05
85 *567:B *438:34 0
86 *568:A *976:A 0.000161359
87 *568:A *427:112 3.25464e-05
88 *568:A *449:20 8.38834e-05
89 *580:B *580:A 2.65667e-05
90 *582:A *579:A 5.56367e-05
91 *582:A *365:16 1.10793e-05
92 *582:A *474:53 2.92322e-05
93 *582:A *481:8 2.16355e-05
94 *582:A *481:32 7.77744e-05
95 *586:A *615:A1 1.88422e-05
96 *586:A *445:12 6.97525e-05
97 *724:A *576:A2 5.07314e-05
98 *724:A *475:18 2.65667e-05
99 *259:8 *490:A2 2.16355e-05
100 *259:16 *502:B 2.69795e-05
101 *259:16 *507:A2 0.000131409
102 *259:16 *719:A2 2.87124e-05
103 *259:16 *306:8 0
104 *259:16 *456:28 9.72183e-05
105 *259:46 *305:16 7.9184e-05
106 *259:46 *305:43 2.24023e-05
107 *259:46 *365:16 0.00013686
108 *259:46 *451:22 0.000142398
109 *259:46 *474:53 3.0521e-05
110 *259:58 *924:A 1.77894e-05
111 *259:58 *305:16 0.000489139
112 *259:58 *404:14 4.69495e-06
113 *259:58 *451:22 0.000246825
114 *259:58 *464:80 2.5695e-05
115 *259:58 *481:32 2.71262e-05
116 *259:72 *427:112 0.000377818
117 *259:72 *464:80 0.000143804
118 *259:94 *420:18 5.21758e-06
119 *259:94 *427:112 0.000197507
120 *259:94 *430:45 0
121 *259:94 *464:80 0.000201444
122 *259:146 *500:A 0
123 *259:146 *576:B1 0.000592059
124 *259:146 *585:B 0.000208977
125 *259:146 *489:B 9.87335e-06
126 *259:146 *722:B1_N 0.000127017
127 *259:146 *736:D 8.41266e-06
128 *259:146 *745:A1 0.000805075
129 *259:146 *305:43 1.05308e-05
130 *259:146 *415:71 3.24433e-05
131 *259:146 *438:136 0.000792319
132 *259:146 *464:45 0
133 *259:169 *518:A2 0.00081805
134 *259:169 *540:A 6.27782e-05
135 *259:169 *576:C1 0.000113143
136 *259:169 *722:B1_N 0.000300314
137 *259:169 *415:71 0.000259071
138 *259:180 *518:A2 9.71388e-05
139 *259:180 *540:A 0.000127945
140 *259:180 *626:B 0
141 *259:180 *754:A1 0.000169314
142 *259:189 *754:A1 0.000131931
143 *259:189 *426:56 6.91101e-05
144 *259:208 *730:A1 0.00047634
145 *259:216 *399:8 1.43848e-05
146 *259:259 *260:26 0.000106327
147 *259:261 *654:S 2.58521e-05
148 *259:267 *499:B 0.000135955
149 *259:267 *500:A 0.000109235
150 *259:267 *598:S 6.61551e-05
151 *259:267 *654:S 4.63742e-05
152 *259:267 *663:A 1.96926e-05
153 *259:267 *663:D 0
154 *259:267 *932:A 2.09687e-05
155 *259:267 *333:29 9.37736e-06
156 *259:298 *430:117 0.000519364
157 *259:315 *631:S 3.64168e-05
158 *259:315 *634:S 0.000108207
159 *259:315 *639:A2 0.000109115
160 *259:315 *698:CLK 0.000271058
161 *259:315 *280:10 0.000217937
162 *259:315 *430:117 0.000154145
163 *259:315 *430:123 1.65872e-05
164 *259:326 *631:S 8.27643e-05
165 *259:326 *637:S 1.83294e-06
166 resp_msg[0] *259:267 2.36701e-05
167 resp_msg[0] *259:298 8.49565e-06
168 *494:A *259:8 6.08467e-05
169 *504:A *562:B 0.000241287
170 *526:A *259:315 1.80257e-05
171 *533:B *259:326 1.21461e-06
172 *535:B *535:A 1.07248e-05
173 *538:B *259:189 3.51394e-05
174 *541:B *541:A 6.78549e-05
175 *541:C *541:A 0.000105652
176 *541:C *259:216 9.88683e-05
177 *551:A1 *259:16 0.000131614
178 *551:A1 *259:40 9.58043e-06
179 *551:A2 *259:16 8.32519e-05
180 *551:A2 *259:40 1.66771e-05
181 *557:B *568:A 0.000211369
182 *565:A *565:B 2.16355e-05
183 *569:B *570:B 4.47179e-05
184 *569:B *259:72 2.08274e-05
185 *578:A *582:A 7.09644e-05
186 *606:B1 *562:B 8.74551e-05
187 *626:A *259:189 0
188 *627:B1 *543:B 0.000218589
189 *627:B1 *259:208 1.5714e-05
190 *629:A *535:A 0.000175689
191 *632:A *259:267 0.000155605
192 *634:A1 *259:315 1.10433e-05
193 *637:A1 *529:B 4.62112e-05
194 *638:A *529:B 4.58003e-05
195 *639:B1 *529:B 6.92705e-05
196 *681:D *567:B 3.31847e-05
197 *695:D *259:267 0.000434496
198 *695:D *259:298 0.000111802
199 *701:D *535:A 0.000124865
200 *705:D *570:B 4.47179e-05
201 *705:D *259:72 4.47179e-05
202 *744:B *259:169 0.000107496
203 *861:A *259:259 2.68271e-05
204 *861:A *259:261 5.89566e-05
205 *861:A *259:267 1.83307e-05
206 *861:A *259:298 1.65872e-05
207 *864:A *259:315 0.000266887
208 *872:A *580:B 6.50586e-05
209 *872:A *586:A 0
210 *880:A *567:B 0.000146993
211 *880:A *259:146 8.03244e-05
212 *919:A *259:216 2.41274e-06
213 *923:A *568:A 3.94005e-05
214 *973:A *259:46 0.000348408
215 *984:A *567:B 5.25096e-05
216 *984:A *259:16 1.5747e-05
217 *1001:A *567:B 0
218 *1004:A *582:A 0.000298734
219 *1004:A *259:58 4.96443e-05
220 *1004:A *259:66 3.01683e-06
221 *1008:A *259:146 7.82322e-05
222 *1:10 *259:216 0.000111802
223 *1:28 *259:180 0
224 *1:39 *259:169 0.000134145
225 *1:59 *259:169 0.000157107
226 *19:10 *259:261 3.81741e-05
227 *24:16 *535:A 7.26606e-05
228 *51:14 *556:B 0.000510995
229 *52:18 *568:A 6.08467e-05
230 *60:12 *586:A 8.85947e-05
231 *77:22 *259:259 1.91114e-05
232 *84:22 *529:B 0.000226672
233 *107:26 *259:267 1.57481e-05
234 *128:16 *567:B 0.00058832
235 *129:14 *562:B 0.0001036
236 *159:18 *259:315 7.75176e-05
237 *166:33 *568:A 4.07035e-05
238 *166:33 *586:A 7.40275e-05
239 *166:33 *259:94 0
240 *167:22 *582:A 7.92191e-05
241 *171:16 *538:C 7.56859e-06
242 *174:10 *543:B 0.000211492
243 *174:10 *259:208 1.5714e-05
244 *190:14 *259:46 0.000315672
245 *190:14 *259:146 1.67307e-05
246 *197:18 *567:B 0
247 *197:18 *259:259 0.000155636
248 *197:18 *259:261 3.31882e-05
249 *204:12 *562:B 1.48684e-05
250 *204:22 *556:B 0.000312521
251 *211:6 *259:259 5.37479e-05
252 *220:8 *259:58 0.000239018
253 *220:8 *259:66 0.000144864
254 *239:26 *259:146 0.000733923
255 *242:19 *582:A 5.04829e-06
*RES
1 *711:HI *259:8 14.4725 
2 *259:8 *259:16 11.8036 
3 *259:16 *565:B 14.4335 
4 *259:16 *567:B 25.6768 
5 *259:8 *259:40 3.7474 
6 *259:40 *259:46 8.06991 
7 *259:46 *259:58 16.0612 
8 *259:58 *259:66 7.63472 
9 *259:66 *259:72 13.0083 
10 *259:72 *570:B 10.5271 
11 *259:72 *568:A 29.1096 
12 *259:66 *259:94 6.39977 
13 *259:94 *586:A 20.924 
14 *259:94 *580:B 14.4725 
15 *259:58 *573:B 9.24915 
16 *259:46 *582:A 25.932 
17 *259:40 *259:146 11.038 
18 *259:146 *724:A 16.1364 
19 *259:146 *259:169 29.4804 
20 *259:169 *540:B 9.24915 
21 *259:169 *259:180 9.271 
22 *259:180 *547:B 4.5 
23 *259:180 *259:189 9.14568 
24 *259:189 *538:C 19.8194 
25 *259:189 *259:208 4.48569 
26 *259:208 *259:216 14.6999 
27 *259:216 *535:A 32.441 
28 *259:216 *541:A 12.7456 
29 *259:208 *543:B 19.5141 
30 *567:B *259:259 8.21675 
31 *259:259 *259:261 3.07775 
32 *259:261 *259:267 9.27191 
33 *259:267 *556:B 32.67 
34 *259:267 *562:B 15.118 
35 *259:261 *259:298 10.2148 
36 *259:298 *526:B 9.82786 
37 *259:298 *259:315 33.3481 
38 *259:315 *533:A 10.2378 
39 *259:315 *259:326 8.55102 
40 *259:326 *529:B 21.0479 
41 *259:326 *550:B 9.23876 
42 *259:259 *560:A 13.7491 
*END

*D_NET *260 0.00697526
*CONN
*I *497:A I *D sky130_fd_sc_hd__clkinv_1
*I *512:B I *D sky130_fd_sc_hd__xnor2_1
*I *712:HI O *D sky130_fd_sc_hd__conb_1
*CAP
1 *497:A 7.26654e-05
2 *512:B 0.000469819
3 *712:HI 0.00142957
4 *260:28 0.000542484
5 *260:26 0.00142957
6 *497:A *312:37 0.000107496
7 *512:B *969:A 0.000109427
8 *512:B *304:20 1.35366e-05
9 *512:B *312:37 0.000277488
10 *512:B *435:14 1.03403e-05
11 *512:B *456:28 0.000376778
12 *260:26 *525:A 0
13 *260:26 *654:S 3.40243e-05
14 *260:26 *1000:A 2.20702e-05
15 *260:26 *312:37 2.63775e-05
16 *260:26 *380:22 0
17 *260:26 *438:34 0.000216581
18 *260:26 *445:134 2.72463e-05
19 *260:26 *477:14 6.23875e-05
20 *526:A *260:26 1.19856e-05
21 *567:B *260:26 0
22 *703:D *512:B 0.000327294
23 *861:A *260:26 9.0601e-05
24 *955:A *512:B 3.5534e-06
25 *128:16 *512:B 5.29993e-05
26 *156:10 *260:26 0.000161182
27 *196:14 *260:26 0.000558103
28 *197:18 *497:A 5.39247e-05
29 *197:18 *512:B 2.16355e-05
30 *197:18 *260:26 0.000353019
31 *199:40 *260:26 6.7671e-06
32 *259:259 *260:26 0.000106327
*RES
1 *712:HI *260:26 47.5985 
2 *260:26 *260:28 4.5 
3 *260:28 *512:B 33.7744 
4 *260:28 *497:A 11.6605 
*END

*D_NET *342 0.00144641
*CONN
*P req_msg[0] I
*I *825:A I *D sky130_fd_sc_hd__clkdlybuf4s50_1
*CAP
1 req_msg[0] 0.000618386
2 *825:A 0.000618386
3 *504:B *825:A 2.77564e-05
4 *844:A *825:A 0
5 *847:A *825:A 6.06556e-05
6 *186:16 *825:A 0.00012123
*RES
1 req_msg[0] *825:A 39.1812 
*END

*D_NET *339 0.000742618
*CONN
*P req_msg[10] I
*I *826:A I *D sky130_fd_sc_hd__clkdlybuf4s50_1
*CAP
1 req_msg[10] 0.000309307
2 *826:A 0.000309307
3 *843:A *826:A 0
4 *9:14 *826:A 8.44956e-05
5 *73:12 *826:A 3.95077e-05
6 *75:14 *826:A 0
*RES
1 req_msg[10] *826:A 18.7399 
*END

*D_NET *333 0.00625664
*CONN
*P req_msg[11] I
*I *827:A I *D sky130_fd_sc_hd__clkdlybuf4s50_1
*CAP
1 req_msg[11] 0.00161458
2 *827:A 9.00764e-06
3 *333:29 0.00162358
4 *827:A *405:22 6.64392e-05
5 *333:29 *654:S 0.000243855
6 *333:29 *663:C 1.5714e-05
7 *333:29 *932:A 7.77309e-06
8 *333:29 *380:22 0
9 *333:29 *412:14 0.000145456
10 *333:29 *445:76 0.000552178
11 *333:29 *445:134 0.000482727
12 *333:29 *477:14 1.73343e-05
13 resp_msg[0] *333:29 0.000517768
14 *564:B *827:A 6.36477e-05
15 *632:A *333:29 7.54771e-05
16 *695:D *333:29 0.000485883
17 *844:A *333:29 0
18 *861:A *333:29 3.77568e-05
19 *1001:A *333:29 3.28912e-05
20 *128:16 *333:29 4.77834e-05
21 *196:14 *333:29 1.01116e-05
22 *199:22 *333:29 0.000191808
23 *205:24 *333:29 0
24 *259:267 *333:29 9.37736e-06
25 *312:37 *333:29 5.48689e-06
*RES
1 req_msg[11] *333:29 47.4924 
2 *333:29 *827:A 14.4725 
*END

*D_NET *330 0.00118106
*CONN
*P req_msg[12] I
*I *828:A I *D sky130_fd_sc_hd__clkdlybuf4s50_1
*CAP
1 req_msg[12] 0.000456321
2 *828:A 0.000456321
3 *828:A *408:16 2.08013e-05
4 *828:A *445:247 0.000118166
5 *639:B1 *828:A 0.000111708
6 *655:A1 *828:A 1.77439e-05
*RES
1 req_msg[12] *828:A 32.1402 
*END

*D_NET *327 0.00147843
*CONN
*P req_msg[13] I
*I *829:A I *D sky130_fd_sc_hd__clkdlybuf4s50_1
*CAP
1 req_msg[13] 0.000607433
2 *829:A 0.000607433
3 *829:A *471:10 3.16717e-05
4 resp_msg[13] *829:A 1.67063e-05
5 *656:A1 *829:A 9.70161e-05
6 *5:10 *829:A 0
7 *276:18 *829:A 0.000118166
*RES
1 req_msg[13] *829:A 33.1778 
*END

*D_NET *318 0.000948728
*CONN
*P req_msg[14] I
*I *830:A I *D sky130_fd_sc_hd__clkdlybuf4s50_1
*CAP
1 req_msg[14] 0.000330177
2 *830:A 0.000330177
3 resp_msg[11] *830:A 1.67063e-05
4 resp_msg[13] *830:A 0
5 *657:A1 *830:A 0.000131894
6 *144:18 *830:A 0.000139773
*RES
1 req_msg[14] *830:A 24.8727 
*END

*D_NET *317 0.00110705
*CONN
*P req_msg[15] I
*I *831:A I *D sky130_fd_sc_hd__clkdlybuf4s50_1
*CAP
1 req_msg[15] 0.000364184
2 *831:A 0.000364184
3 resp_msg[10] *831:A 4.10643e-05
4 resp_msg[11] *831:A 0.000154342
5 *849:A *831:A 0
6 *127:16 *831:A 0.000138943
7 *145:12 *831:A 4.43331e-05
*RES
1 req_msg[15] *831:A 27.2249 
*END

*D_NET *312 0.00556933
*CONN
*P req_msg[16] I
*I *832:A I *D sky130_fd_sc_hd__clkdlybuf4s50_1
*CAP
1 req_msg[16] 0.0017516
2 *832:A 0
3 *312:37 0.0017516
4 *312:37 *633:A2 1.91246e-05
5 *312:37 *654:S 6.18829e-05
6 *312:37 *679:DE 0.000259033
7 *312:37 *682:CLK 2.69233e-05
8 *312:37 *1000:A 1.09386e-05
9 *312:37 *333:29 5.48689e-06
10 *312:37 *380:22 0.000408092
11 *312:37 *429:65 1.10565e-05
12 *312:37 *438:34 0.000234924
13 *312:37 *445:149 0.000215614
14 *312:37 *446:40 6.41036e-05
15 *312:37 *446:56 0.00010474
16 resp_msg[0] *312:37 0
17 *497:A *312:37 0.000107496
18 *512:B *312:37 0.000277488
19 *845:A *312:37 0
20 *128:16 *312:37 0.000162695
21 *156:10 *312:37 0
22 *205:24 *312:37 7.01658e-05
23 *260:26 *312:37 2.63775e-05
*RES
1 req_msg[16] *312:37 49.0407 
2 *312:37 *832:A 9.24915 
*END

*D_NET *309 0.00386744
*CONN
*P req_msg[17] I
*I *833:A I *D sky130_fd_sc_hd__clkdlybuf4s50_1
*CAP
1 req_msg[17] 0.00136548
2 *833:A 0
3 *309:19 0.00136548
4 *309:19 *644:A0 0.000264612
5 *309:19 *644:S 2.27135e-05
6 resp_msg[1] *309:19 0
7 *606:B1 *309:19 2.82429e-05
8 *644:A1 *309:19 0.000271763
9 *834:A *309:19 0.0002646
10 *942:A *309:19 4.0752e-05
11 *32:22 *309:19 0.000137209
12 *163:10 *309:19 8.99995e-05
13 *204:22 *309:19 1.65872e-05
*RES
1 req_msg[17] *309:19 40.8075 
2 *309:19 *833:A 9.24915 
*END

*D_NET *303 0.00200396
*CONN
*P req_msg[18] I
*I *834:A I *D sky130_fd_sc_hd__clkdlybuf4s50_1
*CAP
1 req_msg[18] 0.000518318
2 *834:A 0.000518318
3 *834:A *562:A 5.53933e-05
4 *834:A *605:B 0
5 *834:A *663:B 1.5613e-05
6 *834:A *309:19 0.0002646
7 *834:A *406:27 2.01179e-05
8 *834:A *435:18 0.000212491
9 resp_msg[1] *834:A 0
10 *606:B1 *834:A 3.82228e-05
11 *204:12 *834:A 0.000113968
12 *204:22 *834:A 0.000246913
*RES
1 req_msg[18] *834:A 29.5446 
*END

*D_NET *302 0.000592287
*CONN
*P req_msg[19] I
*I *835:A I *D sky130_fd_sc_hd__clkdlybuf4s50_1
*CAP
1 req_msg[19] 0.000223453
2 *835:A 0.000223453
3 *835:A *438:46 0.000145382
4 *835:A *445:20 0
5 *836:A *835:A 0
*RES
1 req_msg[19] *835:A 22.2805 
*END

*D_NET *298 0.000472236
*CONN
*P req_msg[1] I
*I *836:A I *D sky130_fd_sc_hd__clkdlybuf4s50_1
*CAP
1 req_msg[1] 0.000152367
2 *836:A 0.000152367
3 *836:A *835:A 0
4 *836:A *427:85 0.000167503
5 *686:D *836:A 0
*RES
1 req_msg[1] *836:A 20.8511 
*END

*D_NET *297 0.00055695
*CONN
*P req_msg[20] I
*I *837:A I *D sky130_fd_sc_hd__clkdlybuf4s50_1
*CAP
1 req_msg[20] 0.000104366
2 *837:A 0.000104366
3 *837:A *570:A 5.71992e-05
4 *837:A *607:A0 8.444e-05
5 *837:A *647:A0 2.58616e-05
6 *837:A *404:14 5.04829e-06
7 *837:A *438:46 0.000145116
8 resp_msg[4] *837:A 3.05517e-05
9 *850:A *837:A 0
*RES
1 req_msg[20] *837:A 20.4359 
*END

*D_NET *296 0.000772895
*CONN
*P req_msg[21] I
*I *838:A I *D sky130_fd_sc_hd__clkdlybuf4s50_1
*CAP
1 req_msg[21] 0.000251197
2 *838:A 0.000251197
3 *838:A *690:DE 2.24191e-05
4 *838:A *706:DE 0
5 *838:A *706:CLK 2.02035e-05
6 *838:A *445:18 1.6989e-05
7 resp_msg[5] *838:A 0.000185014
8 *614:A *838:A 2.58757e-05
*RES
1 req_msg[21] *838:A 22.2499 
*END

*D_NET *295 0.000733778
*CONN
*P req_msg[22] I
*I *839:A I *D sky130_fd_sc_hd__clkdlybuf4s50_1
*CAP
1 req_msg[22] 0.000203984
2 *839:A 0.000203984
3 *839:A resp_val 0
4 *839:A *391:40 0.00016195
5 *839:A *476:20 0.00016386
*RES
1 req_msg[22] *839:A 20.0274 
*END

*D_NET *294 0.00148727
*CONN
*P req_msg[23] I
*I *840:A I *D sky130_fd_sc_hd__clkdlybuf4s50_1
*CAP
1 req_msg[23] 0.000367735
2 *840:A 0.000367735
3 *840:A resp_msg[7] 0.00043269
4 *840:A *616:A1 6.73023e-05
5 *840:A *691:CLK 0
6 *840:A *692:CLK 0.000208606
7 resp_msg[6] *840:A 5.22654e-06
8 *12:16 *840:A 3.79772e-05
*RES
1 req_msg[23] *840:A 26.5101 
*END

*D_NET *281 0.00142702
*CONN
*P req_msg[24] I
*I *841:A I *D sky130_fd_sc_hd__clkdlybuf4s50_1
*CAP
1 req_msg[24] 0.000463829
2 *841:A 0.000463829
3 *841:A resp_msg[7] 0
4 *841:A resp_msg[8] 1.09269e-05
5 *841:A resp_msg[9] 3.56119e-05
6 *841:A *426:42 6.50586e-05
7 *841:A *444:80 0.000165985
8 *876:A *841:A 0
9 *65:20 *841:A 6.08467e-05
10 *136:24 *841:A 0.000119265
11 *170:51 *841:A 4.1669e-05
*RES
1 req_msg[24] *841:A 26.466 
*END

*D_NET *279 0.00216261
*CONN
*P req_msg[25] I
*I *842:A I *D sky130_fd_sc_hd__clkdlybuf4s50_1
*CAP
1 req_msg[25] 0.000571268
2 *842:A 0.000571268
3 *842:A resp_msg[9] 8.95978e-06
4 *842:A *652:S 0.000351882
5 *842:A *414:39 1.04624e-05
6 *842:A *426:46 1.66771e-05
7 *842:A *426:56 0.000244594
8 *538:B *842:A 0
9 *934:A *842:A 5.63944e-05
10 *11:6 *842:A 4.16532e-05
11 *27:24 *842:A 5.54675e-05
12 *152:22 *842:A 0.000163478
13 *171:16 *842:A 7.05045e-05
*RES
1 req_msg[25] *842:A 32.3137 
*END

*D_NET *277 0.00167128
*CONN
*P req_msg[26] I
*I *843:A I *D sky130_fd_sc_hd__clkdlybuf4s50_1
*CAP
1 req_msg[26] 0.000614316
2 *843:A 0.000614316
3 *843:A *826:A 0
4 resp_msg[10] *843:A 0
5 *629:A *843:A 9.91731e-05
6 *696:D *843:A 0.000343479
7 *73:12 *843:A 0
*RES
1 req_msg[26] *843:A 33.0384 
*END

*D_NET *275 0.000709794
*CONN
*P req_msg[27] I
*I *844:A I *D sky130_fd_sc_hd__clkdlybuf4s50_1
*CAP
1 req_msg[27] 0.000286819
2 *844:A 0.000286819
3 *844:A *825:A 0
4 *844:A *975:A 1.79807e-05
5 *844:A *333:29 0
6 *844:A *380:22 0.000118176
7 resp_msg[0] *844:A 0
8 *199:22 *844:A 0
*RES
1 req_msg[27] *844:A 21.6565 
*END

*D_NET *273 0.00136744
*CONN
*P req_msg[28] I
*I *845:A I *D sky130_fd_sc_hd__clkdlybuf4s50_1
*CAP
1 req_msg[28] 0.000337552
2 *845:A 0.000337552
3 *845:A *312:37 0
4 *845:A *380:22 6.28701e-05
5 *845:A *429:65 8.49123e-06
6 *845:A *446:12 2.65667e-05
7 *845:A *477:14 0
8 resp_msg[12] *845:A 4.35659e-05
9 *635:A *845:A 0
10 *45:14 *845:A 1.37761e-05
11 *205:24 *845:A 0.000537067
*RES
1 req_msg[28] *845:A 34.3586 
*END

*D_NET *271 0.00276448
*CONN
*P req_msg[29] I
*I *846:A I *D sky130_fd_sc_hd__clkdlybuf4s50_1
*CAP
1 req_msg[29] 0.000978186
2 *846:A 0.000978186
3 *846:A *471:28 0.000195154
4 *529:B *846:A 3.60268e-05
5 *638:A *846:A 0.000156615
6 *699:D *846:A 0.000420317
7 *84:22 *846:A 0
*RES
1 req_msg[29] *846:A 37.528 
*END

*D_NET *270 0.00223226
*CONN
*P req_msg[2] I
*I *847:A I *D sky130_fd_sc_hd__clkdlybuf4s50_1
*CAP
1 req_msg[2] 0.000481538
2 *847:A 0.000481538
3 *847:A *663:C 1.72818e-05
4 *847:A *663:D 0.000341007
5 *847:A *825:A 6.06556e-05
6 *847:A *393:20 0
7 *847:A *421:18 0.000107496
8 *504:B *847:A 0.000587737
9 *600:B1 *847:A 0
10 *32:22 *847:A 0.000110297
11 *107:26 *847:A 4.47123e-05
12 *186:16 *847:A 0
*RES
1 req_msg[2] *847:A 30.7579 
*END

*D_NET *268 0.000759914
*CONN
*P req_msg[30] I
*I *848:A I *D sky130_fd_sc_hd__clkdlybuf4s50_1
*CAP
1 req_msg[30] 0.000292736
2 *848:A 0.000292736
3 resp_msg[11] *848:A 8.13548e-05
4 resp_msg[14] *848:A 1.14331e-05
5 *527:B *848:A 6.08467e-05
6 *145:12 *848:A 2.08076e-05
*RES
1 req_msg[30] *848:A 22.6571 
*END

*D_NET *263 0.00124107
*CONN
*P req_msg[31] I
*I *849:A I *D sky130_fd_sc_hd__clkdlybuf4s50_1
*CAP
1 req_msg[31] 0.000422274
2 *849:A 0.000422274
3 *849:A *515:A1 1.13978e-06
4 *849:A *831:A 0
5 *849:A *269:12 0.000258809
6 resp_msg[15] *849:A 1.50828e-05
7 *127:16 *849:A 0.000121494
8 *145:12 *849:A 0
*RES
1 req_msg[31] *849:A 22.4007 
*END

*D_NET *261 0.00154104
*CONN
*P req_msg[3] I
*I *850:A I *D sky130_fd_sc_hd__clkdlybuf4s50_1
*CAP
1 req_msg[3] 0.000324091
2 *850:A 0.000324091
3 *850:A *570:A 0.000139684
4 *850:A *647:A0 0.000131894
5 *850:A *837:A 0
6 *850:A *404:14 0.000131894
7 *850:A *438:46 6.84356e-05
8 resp_msg[3] *850:A 8.55722e-05
9 *870:A *850:A 0.000335378
*RES
1 req_msg[3] *850:A 27.6538 
*END

*D_NET *245 0.000995368
*CONN
*P req_msg[4] I
*I *851:A I *D sky130_fd_sc_hd__clkdlybuf4s50_1
*CAP
1 req_msg[4] 0.000404807
2 *851:A 0.000404807
3 *851:A *706:DE 0.000129493
4 resp_msg[4] *851:A 0
5 resp_msg[5] *851:A 0
6 *647:A1 *851:A 1.16164e-05
7 *57:14 *851:A 2.89299e-05
8 *165:20 *851:A 1.5714e-05
*RES
1 req_msg[4] *851:A 19.4939 
*END

*D_NET *244 0.000796872
*CONN
*P req_msg[5] I
*I *852:A I *D sky130_fd_sc_hd__clkdlybuf4s50_1
*CAP
1 req_msg[5] 0.000342095
2 *852:A 0.000342095
3 *852:A *706:CLK 0.000107287
4 *672:A *852:A 5.39635e-06
5 *853:A *852:A 0
6 *60:12 *852:A 0
*RES
1 req_msg[5] *852:A 22.881 
*END

*D_NET *243 0.00224667
*CONN
*P req_msg[6] I
*I *853:A I *D sky130_fd_sc_hd__clkdlybuf4s50_1
*CAP
1 req_msg[6] 0.000653129
2 *853:A 0.000653129
3 *853:A *677:CLK 0.000199091
4 *853:A *852:A 0
5 *853:A *447:36 0.000558996
6 *853:A *447:54 0.000182322
7 *677:D *853:A 0
*RES
1 req_msg[6] *853:A 37.2089 
*END

*D_NET *241 0.00260756
*CONN
*P req_msg[7] I
*I *854:A I *D sky130_fd_sc_hd__clkdlybuf4s50_1
*CAP
1 req_msg[7] 0.000875527
2 *854:A 0.000875527
3 *854:A *621:A1 2.32531e-05
4 *854:A *691:CLK 9.72662e-06
5 *854:A *708:DE 0
6 *854:A *946:A 6.6861e-06
7 resp_msg[6] *854:A 0.000545754
8 *621:A2 *854:A 7.19925e-05
9 *874:A *854:A 1.0627e-05
10 *881:A *854:A 0
11 *906:A *854:A 1.48638e-05
12 *980:A *854:A 7.82068e-05
13 *41:12 *854:A 7.33423e-05
14 *95:26 *854:A 1.66626e-05
15 *169:18 *854:A 5.39404e-06
*RES
1 req_msg[7] *854:A 39.6298 
*END

*D_NET *236 0.00111887
*CONN
*P req_msg[8] I
*I *855:A I *D sky130_fd_sc_hd__clkdlybuf4s50_1
*CAP
1 req_msg[8] 0.000250681
2 *855:A 0.000250681
3 *855:A *622:S 0.000195438
4 *855:A *434:6 0.000112361
5 *170:51 *855:A 0.000309709
*RES
1 req_msg[8] *855:A 21.6912 
*END

*D_NET *234 0.000969115
*CONN
*P req_msg[9] I
*I *856:A I *D sky130_fd_sc_hd__clkdlybuf4s50_1
*CAP
1 req_msg[9] 0.000231686
2 *856:A 0.000231686
3 *856:A *630:A1 6.27782e-05
4 *625:A1 *856:A 0.000179417
5 *694:D *856:A 2.41274e-06
6 *710:D *856:A 0.000261135
*RES
1 req_msg[9] *856:A 21.1366 
*END

*D_NET *217 0.00220772
*CONN
*P req_rdy O
*I *860:X O *D sky130_fd_sc_hd__dlygate4sd2_1
*CAP
1 req_rdy 0.000638074
2 *860:X 0.000638074
3 req_rdy *677:CLK 4.38177e-05
4 req_rdy *707:DE 8.13812e-06
5 req_rdy *860:A 0.000160047
6 req_rdy *473:30 0
7 *649:A1 req_rdy 0
8 *667:A2 req_rdy 1.2495e-05
9 *678:D req_rdy 0.000615351
10 *120:32 req_rdy 9.17272e-05
*RES
1 *860:X req_rdy 33.4749 
*END

*D_NET *232 0.00114136
*CONN
*P req_val I
*I *857:A I *D sky130_fd_sc_hd__dlygate4sd2_1
*CAP
1 req_val 0.000353557
2 *857:A 0.000353557
3 *857:A *476:20 0.000268997
4 *669:A *857:A 0.000115451
5 *230:23 *857:A 4.97938e-05
*RES
1 req_val *857:A 23.5793 
*END

*D_NET *230 0.00529333
*CONN
*P reset I
*I *858:A I *D sky130_fd_sc_hd__clkdlybuf4s50_1
*CAP
1 reset 0.000870004
2 *858:A 0.000408684
3 *230:23 0.00127869
4 *858:A *447:18 8.62625e-06
5 *230:23 resp_val 0.000611984
6 *230:23 *857:A 4.97938e-05
7 *230:23 *374:20 0.000107496
8 *230:23 *387:20 0.000184749
9 *230:23 *432:18 0.000255213
10 *230:23 *444:6 5.97576e-05
11 *230:23 *444:13 2.15184e-05
12 *230:23 *444:48 1.41976e-05
13 *594:A1 *858:A 0.000195403
14 *617:A *858:A 1.10925e-05
15 *668:A1 *230:23 6.84074e-06
16 *859:A *230:23 5.50136e-06
17 *948:A *858:A 8.13601e-05
18 *950:A *858:A 2.52414e-05
19 *996:A *230:23 3.82228e-05
20 *33:48 *858:A 0.000298399
21 *33:73 *230:23 0.000314447
22 *33:84 *230:23 2.11664e-05
23 *62:22 *858:A 6.96533e-05
24 *113:10 *858:A 3.25544e-05
25 *155:10 *858:A 0.000322738
*RES
1 reset *230:23 43.5687 
2 *230:23 *858:A 25.735 
*END

*D_NET *215 0.00188502
*CONN
*P resp_msg[0] O
*I *861:X O *D sky130_fd_sc_hd__buf_2
*CAP
1 resp_msg[0] 0.000559988
2 *861:X 0.000559988
3 resp_msg[0] *844:A 0
4 resp_msg[0] *932:A 0
5 resp_msg[0] *259:267 2.36701e-05
6 resp_msg[0] *259:298 8.49565e-06
7 resp_msg[0] *312:37 0
8 resp_msg[0] *333:29 0.000517768
9 resp_msg[0] *477:14 0.000160617
10 *695:D resp_msg[0] 1.24886e-05
11 *861:A resp_msg[0] 4.2006e-05
12 *199:22 resp_msg[0] 0
*RES
1 *861:X resp_msg[0] 37.3991 
*END

*D_NET *212 0.000374098
*CONN
*P resp_msg[10] O
*I *862:X O *D sky130_fd_sc_hd__clkdlybuf4s50_1
*CAP
1 resp_msg[10] 0.000166517
2 *862:X 0.000166517
3 resp_msg[10] *831:A 4.10643e-05
4 resp_msg[10] *843:A 0
5 *127:16 resp_msg[10] 0
*RES
1 *862:X resp_msg[10] 19.4502 
*END

*D_NET *210 0.00550917
*CONN
*P resp_msg[11] O
*I *863:X O *D sky130_fd_sc_hd__buf_2
*CAP
1 resp_msg[11] 0.000827256
2 *863:X 0.00118278
3 *210:12 0.00201004
4 resp_msg[11] *830:A 1.67063e-05
5 resp_msg[11] *831:A 0.000154342
6 resp_msg[11] *848:A 8.13548e-05
7 *210:12 *753:B 2.32318e-05
8 *210:12 *395:20 5.71744e-05
9 *210:12 *407:22 0.000107496
10 resp_msg[14] resp_msg[11] 0.000550018
11 resp_msg[15] resp_msg[11] 1.66626e-05
12 *532:A resp_msg[11] 1.49054e-05
13 *628:A1 *210:12 3.00654e-05
14 *927:A *210:12 0.000119154
15 *73:12 *210:12 9.98615e-06
16 *144:18 resp_msg[11] 1.05746e-05
17 *145:12 resp_msg[11] 0.000234644
18 *145:12 *210:12 6.27782e-05
*RES
1 *863:X *210:12 32.4128 
2 *210:12 resp_msg[11] 31.6113 
*END

*D_NET *205 0.00295874
*CONN
*P resp_msg[12] O
*I *864:X O *D sky130_fd_sc_hd__buf_2
*CAP
1 resp_msg[12] 6.22203e-05
2 *864:X 0.000663365
3 *205:24 0.000725586
4 resp_msg[12] *845:A 4.35659e-05
5 *205:24 *845:A 0.000537067
6 *205:24 *312:37 7.01658e-05
7 *205:24 *333:29 0
8 *205:24 *380:22 2.13434e-05
9 *205:24 *477:14 0.000479262
10 *632:A *205:24 1.17089e-05
11 *17:10 *205:24 8.84776e-05
12 *35:16 *205:24 0.000255976
*RES
1 *864:X *205:24 49.6424 
2 *205:24 resp_msg[12] 1.95413 
*END

*D_NET *203 0.00362772
*CONN
*P resp_msg[13] O
*I *865:X O *D sky130_fd_sc_hd__buf_2
*CAP
1 resp_msg[13] 0.000837381
2 *865:X 0.000837381
3 resp_msg[13] *532:B 7.28994e-06
4 resp_msg[13] *751:A 2.89766e-05
5 resp_msg[13] *752:A 0.000136293
6 resp_msg[13] *829:A 1.67063e-05
7 resp_msg[13] *830:A 0
8 resp_msg[13] *929:A 0.000177159
9 resp_msg[13] *258:28 0.000114659
10 resp_msg[13] *359:26 0.000160047
11 resp_msg[13] *471:10 0.000314362
12 *528:A resp_msg[13] 6.07928e-05
13 *994:A resp_msg[13] 0.000911075
14 *5:10 resp_msg[13] 1.94472e-05
15 *145:12 resp_msg[13] 6.14682e-06
*RES
1 *865:X resp_msg[13] 41.4444 
*END

*D_NET *201 0.0022307
*CONN
*P resp_msg[14] O
*I *866:X O *D sky130_fd_sc_hd__clkbuf_2
*CAP
1 resp_msg[14] 0.000442087
2 *866:X 0.000442087
3 resp_msg[14] resp_msg[11] 0.000550018
4 resp_msg[14] *515:A2 8.82627e-05
5 resp_msg[14] *848:A 1.14331e-05
6 resp_msg[14] *867:A 1.99131e-05
7 resp_msg[14] *256:14 0.000154145
8 *532:A resp_msg[14] 0.000522756
*RES
1 *866:X resp_msg[14] 32.6259 
*END

*D_NET *192 0.000828725
*CONN
*P resp_msg[15] O
*I *867:X O *D sky130_fd_sc_hd__buf_2
*CAP
1 resp_msg[15] 0.000327
2 *867:X 0.000327
3 resp_msg[15] resp_msg[11] 1.66626e-05
4 resp_msg[15] *752:A 2.58757e-05
5 resp_msg[15] *752:B 0.000110458
6 resp_msg[15] *849:A 1.50828e-05
7 *145:12 resp_msg[15] 6.64671e-06
*RES
1 *867:X resp_msg[15] 21.6872 
*END

*D_NET *188 0.00233762
*CONN
*P resp_msg[1] O
*I *868:X O *D sky130_fd_sc_hd__buf_2
*CAP
1 resp_msg[1] 0.00115253
2 *868:X 0.00115253
3 resp_msg[1] *834:A 0
4 resp_msg[1] *309:19 0
5 *868:A resp_msg[1] 3.25584e-05
6 *129:14 resp_msg[1] 0
*RES
1 *868:X resp_msg[1] 32.829 
*END

*D_NET *186 0.00311519
*CONN
*P resp_msg[2] O
*I *869:X O *D sky130_fd_sc_hd__buf_2
*CAP
1 resp_msg[2] 1.51314e-05
2 *869:X 0.000935769
3 *186:16 0.0009509
4 *186:16 *504:A 2.04012e-05
5 *186:16 *825:A 0.00012123
6 *186:16 *847:A 0
7 *186:16 *1007:A 9.35298e-05
8 *186:16 *207:21 0.000142105
9 *186:16 *220:14 1.79338e-05
10 *186:16 *304:20 9.41781e-05
11 *186:16 *405:22 0.000138607
12 *186:16 *421:28 0.000145508
13 *186:16 *427:12 2.93532e-05
14 *186:16 *427:18 5.53789e-05
15 *129:14 *186:16 0.00035517
*RES
1 *869:X *186:16 47.1893 
2 *186:16 resp_msg[2] 4.79312 
*END

*D_NET *183 0.000341645
*CONN
*P resp_msg[3] O
*I *870:X O *D sky130_fd_sc_hd__buf_2
*CAP
1 resp_msg[3] 0.000124468
2 *870:X 0.000124468
3 resp_msg[3] *850:A 8.55722e-05
4 resp_msg[3] *445:20 7.13655e-06
*RES
1 *870:X resp_msg[3] 17.8657 
*END

*D_NET *181 0.00207415
*CONN
*P resp_msg[4] O
*I *871:X O *D sky130_fd_sc_hd__buf_2
*CAP
1 resp_msg[4] 0.000465081
2 *871:X 0.000465081
3 resp_msg[4] *607:A0 6.14474e-06
4 resp_msg[4] *837:A 3.05517e-05
5 resp_msg[4] *851:A 0
6 resp_msg[4] *445:20 0.000506627
7 *870:A resp_msg[4] 0.000482486
8 *871:A resp_msg[4] 0.00011818
*RES
1 *871:X resp_msg[4] 28.9103 
*END

*D_NET *177 0.00142553
*CONN
*P resp_msg[5] O
*I *872:X O *D sky130_fd_sc_hd__buf_2
*CAP
1 resp_msg[5] 0.000474045
2 *872:X 0.000474045
3 resp_msg[5] *614:B 9.40969e-05
4 resp_msg[5] *690:DE 0.000190501
5 resp_msg[5] *838:A 0.000185014
6 resp_msg[5] *851:A 0
7 resp_msg[5] *445:18 0
8 resp_msg[5] *445:20 0
9 *647:A1 resp_msg[5] 5.04829e-06
10 *872:A resp_msg[5] 2.77625e-06
*RES
1 *872:X resp_msg[5] 26.8833 
*END

*D_NET *175 0.00304157
*CONN
*P resp_msg[6] O
*I *873:X O *D sky130_fd_sc_hd__clkdlybuf4s50_1
*CAP
1 resp_msg[6] 0.000938324
2 *873:X 0.000938324
3 resp_msg[6] *616:A1 4.57052e-05
4 resp_msg[6] *691:CLK 0.000266051
5 resp_msg[6] *840:A 5.22654e-06
6 resp_msg[6] *854:A 0.000545754
7 resp_msg[6] *431:36 4.55536e-05
8 *621:A2 resp_msg[6] 8.82928e-05
9 *980:A resp_msg[6] 4.269e-05
10 *63:22 resp_msg[6] 2.94331e-05
11 *95:26 resp_msg[6] 2.70203e-05
12 *169:18 resp_msg[6] 6.9194e-05
*RES
1 *873:X resp_msg[6] 39.9107 
*END

*D_NET *354 0.00494907
*CONN
*P resp_msg[7] O
*I *874:X O *D sky130_fd_sc_hd__buf_2
*CAP
1 resp_msg[7] 0.00150645
2 *874:X 0.00150645
3 resp_msg[7] resp_msg[8] 0
4 resp_msg[7] *616:A1 0.000492517
5 resp_msg[7] *616:S 0.000109163
6 resp_msg[7] *650:A0 4.9e-05
7 resp_msg[7] *708:DE 9.22701e-05
8 resp_msg[7] *987:A 2.16355e-05
9 resp_msg[7] *431:36 0.000261479
10 resp_msg[7] *444:48 3.90024e-05
11 resp_msg[7] *444:63 1.26675e-05
12 *840:A resp_msg[7] 0.00043269
13 *841:A resp_msg[7] 0
14 *874:A resp_msg[7] 1.43832e-05
15 *12:16 resp_msg[7] 1.11499e-05
16 *28:22 resp_msg[7] 6.25883e-06
17 *95:26 resp_msg[7] 0.000351508
18 *168:30 resp_msg[7] 4.24488e-05
*RES
1 *874:X resp_msg[7] 48.5773 
*END

*D_NET *355 0.00437439
*CONN
*P resp_msg[8] O
*I *875:X O *D sky130_fd_sc_hd__buf_2
*CAP
1 resp_msg[8] 0.000694333
2 *875:X 0.000424135
3 *355:26 0.00111847
4 resp_msg[8] *619:A0 1.66626e-05
5 *355:26 *616:A0 0.000144916
6 *355:26 *616:S 0.000129063
7 *355:26 *619:A1 7.64213e-06
8 *355:26 *650:A0 4.61271e-05
9 resp_msg[7] resp_msg[8] 0
10 *575:A *355:26 2.08274e-05
11 *724:B *355:26 3.20264e-05
12 *841:A resp_msg[8] 1.09269e-05
13 *875:A *355:26 0.000235176
14 *876:A resp_msg[8] 0.000288072
15 *12:16 resp_msg[8] 0.000157363
16 *12:16 *355:26 0.000149616
17 *169:18 *355:26 0.000194202
18 *170:12 *355:26 8.36586e-06
19 *170:51 resp_msg[8] 0.000626376
20 *170:51 *355:26 7.00935e-05
*RES
1 *875:X *355:26 32.2669 
2 *355:26 resp_msg[8] 31.024 
*END

*D_NET *356 0.00283082
*CONN
*P resp_msg[9] O
*I *876:X O *D sky130_fd_sc_hd__clkbuf_2
*CAP
1 resp_msg[9] 0.00114056
2 *876:X 0.00114056
3 *841:A resp_msg[9] 3.56119e-05
4 *842:A resp_msg[9] 8.95978e-06
5 *876:A resp_msg[9] 0.000425744
6 *171:16 resp_msg[9] 7.93892e-05
*RES
1 *876:X resp_msg[9] 43.2028 
*END

*D_NET *226 0.00200456
*CONN
*P resp_rdy I
*I *859:A I *D sky130_fd_sc_hd__clkdlybuf4s50_1
*CAP
1 resp_rdy 0.000996777
2 *859:A 0.000996777
3 *859:A resp_val 5.50136e-06
4 *859:A *230:23 5.50136e-06
*RES
1 resp_rdy *859:A 39.4922 
*END

*D_NET *357 0.00502882
*CONN
*P resp_val O
*I *877:X O *D sky130_fd_sc_hd__buf_2
*CAP
1 resp_val 0.000774064
2 *877:X 0.000404421
3 *357:26 0.00117849
4 resp_val *707:DE 2.06526e-05
5 resp_val *387:20 0.000351366
6 *357:26 *610:A0 3.32036e-05
7 *357:26 *610:A1 0.000254412
8 *357:26 *610:S 0.000257653
9 *357:26 *997:A 0.000104902
10 *357:26 *387:20 2.68764e-05
11 *357:26 *464:34 0.000256056
12 *839:A resp_val 0
13 *859:A resp_val 5.50136e-06
14 *954:A resp_val 0.000159968
15 *964:A *357:26 2.20457e-05
16 *29:40 *357:26 6.36477e-05
17 *33:73 resp_val 0.000341926
18 *33:84 resp_val 0.000100809
19 *155:10 *357:26 6.08467e-05
20 *230:23 resp_val 0.000611984
*RES
1 *877:X *357:26 44.5577 
2 *357:26 resp_val 26.6276 
*END
