*SPEF "ieee 1481-1999"
*DESIGN "gcd"
*DATE "06:29:34 Friday October 09, 2026"
*VENDOR "The OpenROAD Project"
*PROGRAM "OpenROAD"
*VERSION "unknown"
*DESIGN_FLOW "NAME_SCOPE LOCAL" "PIN_CAP NONE"
*DIVIDER /
*DELIMITER :
*BUS_DELIMITER []
*T_UNIT 1 NS
*C_UNIT 1 PF
*R_UNIT 1 OHM
*L_UNIT 1 HENRY

*NAME_MAP
*1 _000_
*2 _001_
*3 _002_
*4 _003_
*5 _004_
*6 _005_
*7 _006_
*8 _007_
*9 _008_
*10 _009_
*11 _010_
*12 _011_
*13 _012_
*14 _013_
*15 _014_
*16 _015_
*17 _016_
*18 _017_
*19 _018_
*20 _019_
*21 _020_
*22 _021_
*23 _022_
*24 _023_
*27 _026_
*29 _028_
*30 _029_
*31 _030_
*32 _031_
*33 _032_
*34 _033_
*35 _034_
*36 _035_
*37 _036_
*38 _037_
*39 _038_
*40 _039_
*41 _040_
*42 _041_
*43 _042_
*44 _043_
*45 _044_
*46 _045_
*47 _046_
*48 _047_
*49 _048_
*50 _049_
*51 _050_
*52 _051_
*53 _052_
*54 _053_
*55 _054_
*56 _055_
*57 _056_
*58 _057_
*59 _058_
*61 _060_
*62 _061_
*63 _062_
*64 _063_
*65 _064_
*66 _065_
*67 _066_
*68 _067_
*69 _068_
*70 _069_
*71 _070_
*72 _071_
*73 _072_
*74 _073_
*75 _074_
*76 _075_
*77 _076_
*79 _078_
*80 _079_
*81 _080_
*82 _081_
*83 _082_
*84 _083_
*85 _084_
*86 _085_
*87 _086_
*88 _087_
*89 _088_
*90 _089_
*92 _091_
*93 _092_
*94 _093_
*95 _094_
*96 _095_
*98 _097_
*99 _098_
*100 _099_
*101 _100_
*102 _101_
*104 _103_
*106 _105_
*107 _106_
*108 _107_
*109 _108_
*110 _109_
*111 _110_
*112 _111_
*113 _112_
*114 _113_
*115 _114_
*116 _115_
*117 _116_
*118 _117_
*119 _118_
*120 _119_
*121 _120_
*122 _121_
*123 _122_
*124 _123_
*125 _124_
*126 _125_
*127 _126_
*128 _127_
*129 _128_
*130 _129_
*131 _130_
*132 _131_
*133 _132_
*134 _133_
*135 _134_
*136 _135_
*137 _136_
*138 _137_
*139 _138_
*140 _139_
*141 _140_
*142 _141_
*143 _142_
*144 _143_
*145 _144_
*146 _145_
*147 _146_
*148 _147_
*149 _148_
*150 _149_
*151 _150_
*152 _151_
*153 _152_
*154 _153_
*155 _154_
*156 _155_
*157 _156_
*158 _157_
*159 _158_
*160 _159_
*161 _160_
*162 _161_
*163 _162_
*164 _163_
*165 clk
*412 clknet_0_clk
*411 clknet_2_0__leaf_clk
*410 clknet_2_1__leaf_clk
*424 clknet_2_2__leaf_clk
*425 clknet_2_3__leaf_clk
*166 ctrl\$a_reg_en\[0\]
*167 ctrl\$b_reg_en\[0\]
*168 ctrl\.state\.out\[1\]
*169 ctrl\.state\.out\[2\]
*170 dpath\.a_lt_b\$in0\[0\]
*171 dpath\.a_lt_b\$in0\[10\]
*172 dpath\.a_lt_b\$in0\[11\]
*173 dpath\.a_lt_b\$in0\[12\]
*174 dpath\.a_lt_b\$in0\[13\]
*175 dpath\.a_lt_b\$in0\[14\]
*176 dpath\.a_lt_b\$in0\[15\]
*177 dpath\.a_lt_b\$in0\[1\]
*178 dpath\.a_lt_b\$in0\[2\]
*179 dpath\.a_lt_b\$in0\[3\]
*180 dpath\.a_lt_b\$in0\[4\]
*181 dpath\.a_lt_b\$in0\[5\]
*182 dpath\.a_lt_b\$in0\[6\]
*183 dpath\.a_lt_b\$in0\[7\]
*184 dpath\.a_lt_b\$in0\[8\]
*185 dpath\.a_lt_b\$in0\[9\]
*186 dpath\.a_lt_b\$in1\[0\]
*187 dpath\.a_lt_b\$in1\[10\]
*188 dpath\.a_lt_b\$in1\[11\]
*189 dpath\.a_lt_b\$in1\[12\]
*190 dpath\.a_lt_b\$in1\[13\]
*191 dpath\.a_lt_b\$in1\[14\]
*192 dpath\.a_lt_b\$in1\[15\]
*193 dpath\.a_lt_b\$in1\[1\]
*194 dpath\.a_lt_b\$in1\[2\]
*195 dpath\.a_lt_b\$in1\[3\]
*196 dpath\.a_lt_b\$in1\[4\]
*197 dpath\.a_lt_b\$in1\[5\]
*198 dpath\.a_lt_b\$in1\[6\]
*199 dpath\.a_lt_b\$in1\[7\]
*200 dpath\.a_lt_b\$in1\[8\]
*201 dpath\.a_lt_b\$in1\[9\]
*202 dpath\.a_mux\$out\[0\]
*203 dpath\.a_mux\$out\[10\]
*204 dpath\.a_mux\$out\[11\]
*205 dpath\.a_mux\$out\[12\]
*206 dpath\.a_mux\$out\[13\]
*207 dpath\.a_mux\$out\[14\]
*208 dpath\.a_mux\$out\[15\]
*209 dpath\.a_mux\$out\[1\]
*210 dpath\.a_mux\$out\[2\]
*211 dpath\.a_mux\$out\[3\]
*212 dpath\.a_mux\$out\[4\]
*213 dpath\.a_mux\$out\[5\]
*214 dpath\.a_mux\$out\[6\]
*215 dpath\.a_mux\$out\[7\]
*216 dpath\.a_mux\$out\[8\]
*217 dpath\.a_mux\$out\[9\]
*218 dpath\.b_mux\$out\[0\]
*219 dpath\.b_mux\$out\[10\]
*220 dpath\.b_mux\$out\[11\]
*221 dpath\.b_mux\$out\[12\]
*222 dpath\.b_mux\$out\[13\]
*223 dpath\.b_mux\$out\[14\]
*224 dpath\.b_mux\$out\[15\]
*225 dpath\.b_mux\$out\[1\]
*226 dpath\.b_mux\$out\[2\]
*227 dpath\.b_mux\$out\[3\]
*228 dpath\.b_mux\$out\[4\]
*229 dpath\.b_mux\$out\[5\]
*230 dpath\.b_mux\$out\[6\]
*231 dpath\.b_mux\$out\[7\]
*232 dpath\.b_mux\$out\[8\]
*233 dpath\.b_mux\$out\[9\]
*234 net1
*243 net10
*244 net11
*245 net12
*246 net13
*413 net134
*414 net135
*334 net136
*335 net137
*333 net138
*415 net139
*247 net14
*416 net140
*417 net141
*418 net142
*337 net143
*336 net144
*338 net145
*339 net146
*419 net147
*340 net148
*342 net149
*248 net15
*343 net150
*345 net152
*341 net153
*346 net154
*347 net155
*348 net156
*349 net157
*350 net158
*351 net159
*249 net16
*352 net160
*353 net161
*354 net162
*420 net163
*356 net164
*357 net165
*358 net166
*359 net167
*360 net168
*361 net169
*250 net17
*362 net170
*363 net171
*364 net172
*365 net173
*355 net174
*366 net175
*367 net176
*368 net177
*421 net178
*369 net179
*251 net18
*370 net180
*371 net181
*372 net182
*373 net183
*375 net185
*377 net186
*378 net187
*381 net188
*383 net189
*252 net19
*384 net190
*385 net191
*386 net192
*387 net193
*388 net194
*382 net195
*390 net196
*389 net197
*392 net198
*391 net199
*235 net2
*253 net20
*393 net200
*394 net201
*395 net202
*396 net203
*397 net204
*398 net205
*380 net206
*399 net207
*400 net208
*379 net209
*254 net21
*402 net211
*403 net212
*404 net213
*376 net214
*405 net215
*406 net216
*255 net22
*423 net220
*409 net221
*427 net223
*428 net224
*430 net227
*431 net228
*432 net229
*256 net23
*433 net231
*434 net232
*435 net233
*344 net234
*436 net235
*437 net236
*257 net24
*438 net240
*258 net25
*439 net250
*440 net252
*259 net26
*441 net263
*260 net27
*261 net28
*262 net29
*443 net292
*444 net297
*445 net298
*446 net299
*236 net3
*263 net30
*447 net300
*448 net301
*449 net302
*451 net304
*453 net309
*264 net31
*401 net313
*455 net315
*456 net318
*265 net32
*267 net33
*457 net330
*458 net331
*268 net34
*459 net342
*285 net35
*266 net36
*269 net37
*429 net377
*270 net38
*460 net387
*461 net388
*462 net389
*271 net39
*237 net4
*272 net40
*442 net407
*374 net408
*426 net409
*273 net41
*408 net412
*463 net413
*422 net414
*452 net415
*274 net42
*275 net43
*276 net44
*277 net45
*278 net46
*279 net47
*280 net48
*281 net49
*238 net5
*282 net50
*283 net51
*284 net52
*286 net53
*239 net6
*240 net7
*241 net8
*242 net9
*105 req_msg[0]
*103 req_msg[10]
*97 req_msg[11]
*91 req_msg[12]
*78 req_msg[13]
*60 req_msg[14]
*28 req_msg[15]
*26 req_msg[16]
*25 req_msg[17]
*289 req_msg[18]
*290 req_msg[19]
*291 req_msg[1]
*292 req_msg[20]
*293 req_msg[21]
*294 req_msg[22]
*295 req_msg[23]
*296 req_msg[24]
*297 req_msg[25]
*298 req_msg[26]
*299 req_msg[27]
*300 req_msg[28]
*301 req_msg[29]
*302 req_msg[2]
*303 req_msg[30]
*304 req_msg[31]
*305 req_msg[3]
*306 req_msg[4]
*307 req_msg[5]
*308 req_msg[6]
*309 req_msg[7]
*310 req_msg[8]
*311 req_msg[9]
*315 req_rdy
*312 req_val
*313 reset
*316 resp_msg[0]
*317 resp_msg[10]
*318 resp_msg[11]
*319 resp_msg[12]
*320 resp_msg[13]
*321 resp_msg[14]
*322 resp_msg[15]
*323 resp_msg[1]
*324 resp_msg[2]
*325 resp_msg[3]
*326 resp_msg[4]
*327 resp_msg[5]
*328 resp_msg[6]
*329 resp_msg[7]
*330 resp_msg[8]
*331 resp_msg[9]
*314 resp_rdy
*332 resp_val
*909 FILLER_0_0
*979 FILLER_0_105
*980 FILLER_0_117
*981 FILLER_0_119
*982 FILLER_0_121
*983 FILLER_0_125
*984 FILLER_0_151
*985 FILLER_0_159
*959 FILLER_0_16
*986 FILLER_0_167
*987 FILLER_0_175
*969 FILLER_0_24
*970 FILLER_0_28
*971 FILLER_0_31
*972 FILLER_0_57
*973 FILLER_0_59
*974 FILLER_0_61
*975 FILLER_0_63
*976 FILLER_0_76
*955 FILLER_0_8
*977 FILLER_0_88
*978 FILLER_0_91
*1104 FILLER_10_0
*1106 FILLER_10_13
*1110 FILLER_10_145
*1111 FILLER_10_149
*1112 FILLER_10_151
*1113 FILLER_10_153
*1114 FILLER_10_166
*1115 FILLER_10_175
*1107 FILLER_10_80
*1108 FILLER_10_84
*1105 FILLER_10_9
*1109 FILLER_10_91
*1116 FILLER_11_0
*1125 FILLER_11_107
*1126 FILLER_11_142
*1127 FILLER_11_146
*1128 FILLER_11_160
*1129 FILLER_11_168
*1117 FILLER_11_18
*1118 FILLER_11_26
*1119 FILLER_11_40
*1120 FILLER_11_57
*1121 FILLER_11_59
*1122 FILLER_11_61
*1123 FILLER_11_69
*1124 FILLER_11_73
*1130 FILLER_12_0
*1137 FILLER_12_104
*1138 FILLER_12_106
*1139 FILLER_12_119
*1140 FILLER_12_172
*1141 FILLER_12_176
*1142 FILLER_12_178
*1132 FILLER_12_28
*1133 FILLER_12_50
*1134 FILLER_12_52
*1135 FILLER_12_73
*1136 FILLER_12_88
*1131 FILLER_12_9
*1143 FILLER_13_0
*1151 FILLER_13_103
*1145 FILLER_13_11
*1152 FILLER_13_112
*1153 FILLER_13_114
*1154 FILLER_13_121
*1146 FILLER_13_16
*1155 FILLER_13_162
*1156 FILLER_13_166
*1157 FILLER_13_175
*1144 FILLER_13_2
*1147 FILLER_13_32
*1148 FILLER_13_57
*1149 FILLER_13_59
*1150 FILLER_13_79
*1163 FILLER_14_101
*1164 FILLER_14_158
*1165 FILLER_14_176
*1166 FILLER_14_178
*1159 FILLER_14_19
*1160 FILLER_14_40
*1161 FILLER_14_69
*1158 FILLER_14_7
*1162 FILLER_14_97
*1167 FILLER_15_0
*1172 FILLER_15_112
*1173 FILLER_15_119
*1174 FILLER_15_144
*1175 FILLER_15_152
*1176 FILLER_15_154
*1177 FILLER_15_159
*1178 FILLER_15_173
*1179 FILLER_15_177
*1168 FILLER_15_4
*1170 FILLER_15_45
*1169 FILLER_15_6
*1171 FILLER_15_86
*1180 FILLER_16_0
*1181 FILLER_16_12
*1188 FILLER_16_143
*1189 FILLER_16_147
*1190 FILLER_16_149
*1191 FILLER_16_163
*1192 FILLER_16_175
*1182 FILLER_16_20
*1183 FILLER_16_31
*1184 FILLER_16_63
*1185 FILLER_16_76
*1186 FILLER_16_91
*1187 FILLER_16_99
*1202 FILLER_17_105
*1203 FILLER_17_113
*1194 FILLER_17_12
*1204 FILLER_17_121
*1205 FILLER_17_127
*1206 FILLER_17_134
*1207 FILLER_17_164
*1208 FILLER_17_166
*1195 FILLER_17_17
*1209 FILLER_17_171
*1196 FILLER_17_28
*1197 FILLER_17_36
*1198 FILLER_17_57
*1199 FILLER_17_59
*1200 FILLER_17_61
*1193 FILLER_17_8
*1201 FILLER_17_97
*1210 FILLER_18_0
*1212 FILLER_18_12
*1220 FILLER_18_143
*1221 FILLER_18_178
*1213 FILLER_18_20
*1214 FILLER_18_28
*1215 FILLER_18_39
*1216 FILLER_18_52
*1217 FILLER_18_65
*1211 FILLER_18_8
*1218 FILLER_18_82
*1219 FILLER_18_94
*1222 FILLER_19_0
*1228 FILLER_19_119
*1229 FILLER_19_162
*1230 FILLER_19_174
*1231 FILLER_19_178
*1224 FILLER_19_30
*1225 FILLER_19_38
*1223 FILLER_19_4
*1226 FILLER_19_52
*1227 FILLER_19_71
*988 FILLER_1_0
*1002 FILLER_1_102
*1003 FILLER_1_106
*1004 FILLER_1_115
*1005 FILLER_1_119
*1006 FILLER_1_133
*1007 FILLER_1_137
*1008 FILLER_1_150
*1009 FILLER_1_158
*990 FILLER_1_16
*1010 FILLER_1_166
*1011 FILLER_1_174
*1012 FILLER_1_178
*991 FILLER_1_24
*992 FILLER_1_32
*993 FILLER_1_38
*994 FILLER_1_42
*995 FILLER_1_46
*996 FILLER_1_50
*997 FILLER_1_56
*998 FILLER_1_61
*999 FILLER_1_69
*1000 FILLER_1_78
*989 FILLER_1_8
*1001 FILLER_1_91
*1232 FILLER_20_0
*1243 FILLER_20_114
*1244 FILLER_20_118
*1245 FILLER_20_128
*1246 FILLER_20_132
*1247 FILLER_20_147
*1248 FILLER_20_149
*1249 FILLER_20_151
*1250 FILLER_20_160
*1251 FILLER_20_162
*1252 FILLER_20_171
*1234 FILLER_20_21
*1235 FILLER_20_29
*1236 FILLER_20_31
*1237 FILLER_20_50
*1238 FILLER_20_54
*1239 FILLER_20_56
*1240 FILLER_20_73
*1233 FILLER_20_8
*1241 FILLER_20_83
*1242 FILLER_20_99
*1253 FILLER_21_0
*1268 FILLER_21_121
*1269 FILLER_21_123
*1255 FILLER_21_13
*1270 FILLER_21_135
*1271 FILLER_21_143
*1272 FILLER_21_163
*1273 FILLER_21_172
*1274 FILLER_21_176
*1275 FILLER_21_178
*1256 FILLER_21_18
*1257 FILLER_21_26
*1254 FILLER_21_4
*1258 FILLER_21_50
*1259 FILLER_21_57
*1260 FILLER_21_59
*1261 FILLER_21_61
*1262 FILLER_21_74
*1263 FILLER_21_76
*1264 FILLER_21_83
*1265 FILLER_21_85
*1266 FILLER_21_95
*1267 FILLER_21_99
*1276 FILLER_22_0
*1289 FILLER_22_102
*1290 FILLER_22_110
*1291 FILLER_22_117
*1292 FILLER_22_119
*1293 FILLER_22_130
*1294 FILLER_22_164
*1295 FILLER_22_172
*1296 FILLER_22_176
*1297 FILLER_22_178
*1278 FILLER_22_18
*1279 FILLER_22_22
*1280 FILLER_22_24
*1281 FILLER_22_31
*1277 FILLER_22_4
*1282 FILLER_22_60
*1283 FILLER_22_65
*1284 FILLER_22_67
*1285 FILLER_22_76
*1286 FILLER_22_83
*1287 FILLER_22_85
*1288 FILLER_22_91
*1298 FILLER_23_0
*1307 FILLER_23_101
*1308 FILLER_23_109
*1309 FILLER_23_119
*1300 FILLER_23_12
*1310 FILLER_23_121
*1311 FILLER_23_123
*1312 FILLER_23_142
*1313 FILLER_23_144
*1314 FILLER_23_158
*1315 FILLER_23_164
*1316 FILLER_23_166
*1317 FILLER_23_175
*1301 FILLER_23_37
*1299 FILLER_23_4
*1302 FILLER_23_45
*1303 FILLER_23_57
*1304 FILLER_23_59
*1305 FILLER_23_74
*1306 FILLER_23_76
*1318 FILLER_24_0
*1329 FILLER_24_134
*1330 FILLER_24_144
*1331 FILLER_24_148
*1332 FILLER_24_151
*1320 FILLER_24_16
*1333 FILLER_24_177
*1321 FILLER_24_24
*1322 FILLER_24_28
*1323 FILLER_24_31
*1319 FILLER_24_8
*1324 FILLER_24_87
*1325 FILLER_24_89
*1326 FILLER_24_91
*1327 FILLER_24_95
*1328 FILLER_24_97
*1334 FILLER_25_0
*1342 FILLER_25_103
*1343 FILLER_25_111
*1344 FILLER_25_119
*1345 FILLER_25_137
*1346 FILLER_25_141
*1347 FILLER_25_151
*1348 FILLER_25_159
*1336 FILLER_25_16
*1349 FILLER_25_167
*1350 FILLER_25_175
*1337 FILLER_25_24
*1338 FILLER_25_32
*1339 FILLER_25_52
*1340 FILLER_25_71
*1341 FILLER_25_75
*1335 FILLER_25_8
*1351 FILLER_26_0
*1365 FILLER_26_100
*1366 FILLER_26_102
*1367 FILLER_26_127
*1368 FILLER_26_133
*1369 FILLER_26_141
*1370 FILLER_26_151
*1371 FILLER_26_159
*1353 FILLER_26_16
*1372 FILLER_26_167
*1373 FILLER_26_175
*1354 FILLER_26_24
*1355 FILLER_26_28
*1356 FILLER_26_31
*1357 FILLER_26_39
*1358 FILLER_26_47
*1359 FILLER_26_55
*1360 FILLER_26_59
*1361 FILLER_26_61
*1352 FILLER_26_8
*1362 FILLER_26_86
*1363 FILLER_26_91
*1364 FILLER_26_96
*1374 FILLER_27_0
*1387 FILLER_27_108
*1388 FILLER_27_116
*1389 FILLER_27_121
*1390 FILLER_27_125
*1391 FILLER_27_153
*1376 FILLER_27_16
*1392 FILLER_27_161
*1393 FILLER_27_169
*1394 FILLER_27_177
*1377 FILLER_27_24
*1378 FILLER_27_32
*1379 FILLER_27_36
*1380 FILLER_27_38
*1381 FILLER_27_47
*1382 FILLER_27_55
*1383 FILLER_27_59
*1384 FILLER_27_65
*1385 FILLER_27_73
*1375 FILLER_27_8
*1386 FILLER_27_85
*1395 FILLER_28_0
*1410 FILLER_28_103
*1411 FILLER_28_111
*1412 FILLER_28_129
*1413 FILLER_28_137
*1414 FILLER_28_145
*1415 FILLER_28_149
*1416 FILLER_28_151
*1417 FILLER_28_159
*1397 FILLER_28_16
*1418 FILLER_28_167
*1419 FILLER_28_175
*1398 FILLER_28_24
*1399 FILLER_28_28
*1400 FILLER_28_31
*1401 FILLER_28_39
*1402 FILLER_28_47
*1403 FILLER_28_55
*1404 FILLER_28_59
*1405 FILLER_28_61
*1406 FILLER_28_75
*1396 FILLER_28_8
*1407 FILLER_28_84
*1408 FILLER_28_88
*1409 FILLER_28_95
*1013 FILLER_2_0
*1021 FILLER_2_136
*1022 FILLER_2_144
*1015 FILLER_2_16
*1023 FILLER_2_175
*1016 FILLER_2_24
*1017 FILLER_2_28
*1018 FILLER_2_65
*1019 FILLER_2_69
*1014 FILLER_2_8
*1020 FILLER_2_89
*1024 FILLER_3_0
*1030 FILLER_3_101
*1031 FILLER_3_108
*1032 FILLER_3_133
*1033 FILLER_3_141
*1034 FILLER_3_143
*1035 FILLER_3_152
*1036 FILLER_3_160
*1037 FILLER_3_168
*1038 FILLER_3_176
*1039 FILLER_3_178
*1025 FILLER_3_28
*1026 FILLER_3_47
*1027 FILLER_3_51
*1028 FILLER_3_61
*1029 FILLER_3_99
*1040 FILLER_4_0
*1046 FILLER_4_147
*1047 FILLER_4_149
*1048 FILLER_4_151
*1041 FILLER_4_24
*1042 FILLER_4_28
*1043 FILLER_4_31
*1044 FILLER_4_54
*1045 FILLER_4_97
*1049 FILLER_5_0
*1056 FILLER_5_100
*1057 FILLER_5_116
*1058 FILLER_5_121
*1059 FILLER_5_125
*1060 FILLER_5_162
*1061 FILLER_5_170
*1062 FILLER_5_178
*1051 FILLER_5_42
*1052 FILLER_5_57
*1053 FILLER_5_59
*1054 FILLER_5_67
*1050 FILLER_5_8
*1055 FILLER_5_96
*1063 FILLER_6_0
*1070 FILLER_6_105
*1071 FILLER_6_107
*1072 FILLER_6_139
*1073 FILLER_6_143
*1074 FILLER_6_151
*1065 FILLER_6_16
*1075 FILLER_6_164
*1076 FILLER_6_166
*1077 FILLER_6_175
*1066 FILLER_6_24
*1067 FILLER_6_28
*1068 FILLER_6_73
*1064 FILLER_6_8
*1069 FILLER_6_91
*1078 FILLER_7_0
*1081 FILLER_7_121
*1082 FILLER_7_140
*1083 FILLER_7_142
*1084 FILLER_7_155
*1085 FILLER_7_163
*1086 FILLER_7_171
*1080 FILLER_7_52
*1079 FILLER_7_8
*1087 FILLER_8_0
*1092 FILLER_8_111
*1093 FILLER_8_115
*1089 FILLER_8_12
*1094 FILLER_8_160
*1095 FILLER_8_171
*1090 FILLER_8_40
*1088 FILLER_8_8
*1091 FILLER_8_91
*1096 FILLER_9_0
*1102 FILLER_9_144
*1103 FILLER_9_148
*1097 FILLER_9_4
*1098 FILLER_9_47
*1099 FILLER_9_61
*1100 FILLER_9_85
*1101 FILLER_9_87
*714 TAP_TAPCELL_ROW_0_0
*715 TAP_TAPCELL_ROW_0_1
*716 TAP_TAPCELL_ROW_0_2
*717 TAP_TAPCELL_ROW_0_3
*718 TAP_TAPCELL_ROW_0_4
*741 TAP_TAPCELL_ROW_10_27
*742 TAP_TAPCELL_ROW_10_28
*743 TAP_TAPCELL_ROW_10_29
*744 TAP_TAPCELL_ROW_11_30
*745 TAP_TAPCELL_ROW_11_31
*746 TAP_TAPCELL_ROW_12_32
*747 TAP_TAPCELL_ROW_12_33
*748 TAP_TAPCELL_ROW_12_34
*749 TAP_TAPCELL_ROW_13_35
*750 TAP_TAPCELL_ROW_13_36
*751 TAP_TAPCELL_ROW_14_37
*752 TAP_TAPCELL_ROW_14_38
*753 TAP_TAPCELL_ROW_14_39
*754 TAP_TAPCELL_ROW_15_40
*755 TAP_TAPCELL_ROW_15_41
*756 TAP_TAPCELL_ROW_16_42
*757 TAP_TAPCELL_ROW_16_43
*758 TAP_TAPCELL_ROW_16_44
*759 TAP_TAPCELL_ROW_17_45
*760 TAP_TAPCELL_ROW_17_46
*761 TAP_TAPCELL_ROW_18_47
*762 TAP_TAPCELL_ROW_18_48
*763 TAP_TAPCELL_ROW_18_49
*764 TAP_TAPCELL_ROW_19_50
*765 TAP_TAPCELL_ROW_19_51
*719 TAP_TAPCELL_ROW_1_5
*720 TAP_TAPCELL_ROW_1_6
*766 TAP_TAPCELL_ROW_20_52
*767 TAP_TAPCELL_ROW_20_53
*768 TAP_TAPCELL_ROW_20_54
*769 TAP_TAPCELL_ROW_21_55
*770 TAP_TAPCELL_ROW_21_56
*771 TAP_TAPCELL_ROW_22_57
*772 TAP_TAPCELL_ROW_22_58
*773 TAP_TAPCELL_ROW_22_59
*774 TAP_TAPCELL_ROW_23_60
*775 TAP_TAPCELL_ROW_23_61
*776 TAP_TAPCELL_ROW_24_62
*777 TAP_TAPCELL_ROW_24_63
*778 TAP_TAPCELL_ROW_24_64
*779 TAP_TAPCELL_ROW_25_65
*780 TAP_TAPCELL_ROW_25_66
*781 TAP_TAPCELL_ROW_26_67
*782 TAP_TAPCELL_ROW_26_68
*783 TAP_TAPCELL_ROW_26_69
*784 TAP_TAPCELL_ROW_27_70
*785 TAP_TAPCELL_ROW_27_71
*786 TAP_TAPCELL_ROW_28_72
*787 TAP_TAPCELL_ROW_28_73
*788 TAP_TAPCELL_ROW_28_74
*789 TAP_TAPCELL_ROW_28_75
*790 TAP_TAPCELL_ROW_28_76
*721 TAP_TAPCELL_ROW_2_7
*722 TAP_TAPCELL_ROW_2_8
*723 TAP_TAPCELL_ROW_2_9
*724 TAP_TAPCELL_ROW_3_10
*725 TAP_TAPCELL_ROW_3_11
*726 TAP_TAPCELL_ROW_4_12
*727 TAP_TAPCELL_ROW_4_13
*728 TAP_TAPCELL_ROW_4_14
*729 TAP_TAPCELL_ROW_5_15
*730 TAP_TAPCELL_ROW_5_16
*731 TAP_TAPCELL_ROW_6_17
*732 TAP_TAPCELL_ROW_6_18
*733 TAP_TAPCELL_ROW_6_19
*734 TAP_TAPCELL_ROW_7_20
*735 TAP_TAPCELL_ROW_7_21
*736 TAP_TAPCELL_ROW_8_22
*737 TAP_TAPCELL_ROW_8_23
*738 TAP_TAPCELL_ROW_8_24
*739 TAP_TAPCELL_ROW_9_25
*740 TAP_TAPCELL_ROW_9_26
*464 _164_
*465 _165_
*466 _166_
*467 _167_
*468 _168_
*469 _169_
*470 _170_
*471 _171_
*472 _172_
*473 _173_
*474 _174_
*475 _175_
*476 _176_
*477 _177_
*478 _178_
*479 _179_
*480 _180_
*481 _181_
*482 _182_
*483 _183_
*484 _184_
*485 _185_
*486 _186_
*487 _187_
*488 _188_
*489 _189_
*490 _190_
*493 _193_
*494 _194_
*496 _196_
*497 _197_
*498 _198_
*499 _199_
*500 _200_
*501 _201_
*502 _202_
*503 _203_
*504 _204_
*505 _205_
*506 _206_
*507 _207_
*508 _208_
*509 _209_
*510 _210_
*511 _211_
*512 _212_
*513 _213_
*514 _214_
*515 _215_
*516 _216_
*517 _217_
*518 _218_
*519 _219_
*520 _220_
*521 _221_
*522 _222_
*523 _223_
*524 _224_
*525 _225_
*526 _226_
*527 _227_
*528 _228_
*529 _229_
*530 _230_
*531 _231_
*532 _232_
*533 _233_
*534 _234_
*535 _235_
*536 _236_
*537 _237_
*538 _238_
*539 _239_
*540 _240_
*542 _242_
*543 _243_
*544 _244_
*545 _245_
*546 _246_
*547 _247_
*548 _248_
*549 _249_
*550 _250_
*551 _251_
*552 _252_
*553 _253_
*554 _254_
*555 _255_
*556 _256_
*557 _257_
*558 _258_
*559 _259_
*561 _261_
*562 _262_
*563 _263_
*564 _264_
*565 _265_
*566 _266_
*567 _267_
*568 _268_
*569 _269_
*570 _270_
*571 _271_
*572 _272_
*574 _274_
*575 _275_
*576 _276_
*577 _277_
*578 _278_
*580 _280_
*581 _281_
*582 _282_
*583 _283_
*584 _284_
*585 _285_
*586 _286_
*587 _287_
*588 _288_
*590 _290_
*591 _291_
*593 _293_
*594 _294_
*595 _295_
*596 _296_
*597 _297_
*598 _298_
*599 _299_
*600 _300_
*601 _301_
*602 _302_
*603 _303_
*604 _304_
*605 _305_
*606 _306_
*607 _307_
*608 _308_
*609 _309_
*610 _310_
*611 _311_
*612 _312_
*613 _313_
*614 _314_
*615 _315_
*616 _316_
*617 _317_
*618 _318_
*619 _319_
*620 _320_
*621 _321_
*622 _322_
*623 _323_
*624 _324_
*625 _325_
*626 _326_
*627 _327_
*628 _328_
*629 _329_
*630 _330_
*631 _331_
*632 _332_
*633 _333_
*634 _334_
*635 _335_
*636 _336_
*637 _337_
*638 _338_
*639 _339_
*640 _340_
*641 _341_
*642 _342_
*643 _343_
*644 _344_
*645 _345_
*646 _346_
*647 _347_
*648 _348_
*649 _349_
*650 _350_
*651 _351_
*652 _352_
*653 _353_
*654 _354_
*655 _355_
*656 _356_
*657 _357_
*658 _358_
*659 _359_
*660 _360_
*661 _361_
*662 _362_
*663 _363_
*664 _364_
*665 _365_
*666 _366_
*667 _367_
*668 _368_
*669 _369_
*670 _370_
*671 _371_
*672 _372_
*673 _373_
*674 _374_
*675 _375_
*676 _376_
*677 _377_
*678 _378_
*914 clkbuf_0_clk
*913 clkbuf_2_0__f_clk
*912 clkbuf_2_1__f_clk
*926 clkbuf_2_2__f_clk
*927 clkbuf_2_3__f_clk
*928 clkload0
*929 clkload1
*930 clkload2
*679 ctrl\.state\.out\[0\]\$_DFF_P_
*680 ctrl\.state\.out\[1\]\$_DFF_P_
*681 ctrl\.state\.out\[2\]\$_DFF_P_
*682 dpath\.a_reg\.out\[0\]\$_DFFE_PP_
*683 dpath\.a_reg\.out\[10\]\$_DFFE_PP_
*684 dpath\.a_reg\.out\[11\]\$_DFFE_PP_
*685 dpath\.a_reg\.out\[12\]\$_DFFE_PP_
*686 dpath\.a_reg\.out\[13\]\$_DFFE_PP_
*687 dpath\.a_reg\.out\[14\]\$_DFFE_PP_
*688 dpath\.a_reg\.out\[15\]\$_DFFE_PP_
*689 dpath\.a_reg\.out\[1\]\$_DFFE_PP_
*690 dpath\.a_reg\.out\[2\]\$_DFFE_PP_
*691 dpath\.a_reg\.out\[3\]\$_DFFE_PP_
*692 dpath\.a_reg\.out\[4\]\$_DFFE_PP_
*693 dpath\.a_reg\.out\[5\]\$_DFFE_PP_
*694 dpath\.a_reg\.out\[6\]\$_DFFE_PP_
*695 dpath\.a_reg\.out\[7\]\$_DFFE_PP_
*696 dpath\.a_reg\.out\[8\]\$_DFFE_PP_
*697 dpath\.a_reg\.out\[9\]\$_DFFE_PP_
*698 dpath\.b_reg\.out\[0\]\$_DFFE_PP_
*699 dpath\.b_reg\.out\[10\]\$_DFFE_PP_
*700 dpath\.b_reg\.out\[11\]\$_DFFE_PP_
*701 dpath\.b_reg\.out\[12\]\$_DFFE_PP_
*702 dpath\.b_reg\.out\[13\]\$_DFFE_PP_
*703 dpath\.b_reg\.out\[14\]\$_DFFE_PP_
*704 dpath\.b_reg\.out\[15\]\$_DFFE_PP_
*705 dpath\.b_reg\.out\[1\]\$_DFFE_PP_
*706 dpath\.b_reg\.out\[2\]\$_DFFE_PP_
*707 dpath\.b_reg\.out\[3\]\$_DFFE_PP_
*708 dpath\.b_reg\.out\[4\]\$_DFFE_PP_
*709 dpath\.b_reg\.out\[5\]\$_DFFE_PP_
*710 dpath\.b_reg\.out\[6\]\$_DFFE_PP_
*711 dpath\.b_reg\.out\[7\]\$_DFFE_PP_
*712 dpath\.b_reg\.out\[8\]\$_DFFE_PP_
*713 dpath\.b_reg\.out\[9\]\$_DFFE_PP_
*592 input1
*791 input10
*792 input11
*793 input12
*794 input13
*795 input14
*796 input15
*797 input16
*798 input17
*799 input18
*800 input19
*589 input2
*801 input20
*802 input21
*803 input22
*804 input23
*805 input24
*806 input25
*807 input26
*808 input27
*809 input28
*810 input29
*579 input3
*811 input30
*812 input31
*813 input32
*814 input33
*815 input34
*816 input35
*573 input4
*560 input5
*541 input6
*495 input7
*492 input8
*491 input9
*817 output36
*818 output37
*819 output38
*820 output39
*821 output40
*822 output41
*823 output42
*824 output43
*825 output44
*826 output45
*827 output46
*828 output47
*829 output48
*830 output49
*831 output50
*832 output51
*833 output52
*834 output53
*915 place134
*916 place135
*836 place136
*837 place137
*835 place138
*917 place139
*918 place140
*919 place141
*920 place142
*839 place143
*838 place144
*840 place145
*841 place146
*921 place147
*842 place148
*844 place149
*845 place150
*847 place152
*843 place153
*848 place154
*849 place155
*850 place156
*851 place157
*852 place158
*853 place159
*854 place160
*855 place161
*856 place162
*922 place163
*858 place164
*859 place165
*860 place166
*861 place167
*862 place168
*863 place169
*864 place170
*865 place171
*866 place172
*867 place173
*857 place174
*868 place175
*869 place176
*870 place177
*923 place178
*871 place179
*872 place180
*873 place181
*874 place182
*875 place183
*877 place185
*879 place186
*880 place187
*883 place188
*885 place189
*886 place190
*887 place191
*888 place192
*889 place193
*890 place194
*884 place195
*892 place196
*891 place197
*894 place198
*893 place199
*895 place200
*896 place201
*897 place202
*898 place203
*899 place204
*900 place205
*882 place206
*901 place207
*902 place208
*881 place209
*904 place211
*905 place212
*906 place213
*878 place214
*907 place215
*908 place216
*925 place220
*911 place221
*932 rebuffer223
*933 rebuffer224
*935 rebuffer227
*936 rebuffer228
*937 rebuffer229
*938 rebuffer231
*939 rebuffer232
*940 rebuffer233
*846 rebuffer234
*941 rebuffer235
*942 rebuffer236
*943 rebuffer240
*944 rebuffer250
*945 rebuffer252
*946 rebuffer263
*948 rebuffer292
*949 rebuffer297
*950 rebuffer298
*951 rebuffer299
*952 rebuffer300
*953 rebuffer301
*954 rebuffer302
*956 rebuffer304
*958 rebuffer309
*903 rebuffer313
*960 rebuffer315
*961 rebuffer318
*962 rebuffer330
*963 rebuffer331
*964 rebuffer342
*934 rebuffer377
*965 rebuffer387
*966 rebuffer388
*967 rebuffer389
*947 rebuffer407
*876 rebuffer408
*931 rebuffer409
*910 rebuffer412
*968 rebuffer413
*924 rebuffer414
*957 rebuffer415

*PORTS
clk I
req_msg[0] I
req_msg[10] I
req_msg[11] I
req_msg[12] I
req_msg[13] I
req_msg[14] I
req_msg[15] I
req_msg[16] I
req_msg[17] I
req_msg[18] I
req_msg[19] I
req_msg[1] I
req_msg[20] I
req_msg[21] I
req_msg[22] I
req_msg[23] I
req_msg[24] I
req_msg[25] I
req_msg[26] I
req_msg[27] I
req_msg[28] I
req_msg[29] I
req_msg[2] I
req_msg[30] I
req_msg[31] I
req_msg[3] I
req_msg[4] I
req_msg[5] I
req_msg[6] I
req_msg[7] I
req_msg[8] I
req_msg[9] I
req_rdy O
req_val I
reset I
resp_msg[0] O
resp_msg[10] O
resp_msg[11] O
resp_msg[12] O
resp_msg[13] O
resp_msg[14] O
resp_msg[15] O
resp_msg[1] O
resp_msg[2] O
resp_msg[3] O
resp_msg[4] O
resp_msg[5] O
resp_msg[6] O
resp_msg[7] O
resp_msg[8] O
resp_msg[9] O
resp_rdy I
resp_val O

*D_NET *1 0.000424531
*CONN
*I *679:D I *D sky130_fd_sc_hd__dfxtp_2
*I *660:X O *D sky130_fd_sc_hd__a221o_1
*CAP
1 *679:D 0.000146519
2 *660:X 0.000146519
3 *679:D *493:A 1.87611e-05
4 *679:D *703:CLK 0.000100923
5 *679:D *424:68 1.18084e-05
*RES
1 *660:X *679:D 31.1072 
*END

*D_NET *2 0.000995429
*CONN
*I *680:D I *D sky130_fd_sc_hd__dfxtp_1
*I *669:Y O *D sky130_fd_sc_hd__a21oi_1
*CAP
1 *680:D 0.000255459
2 *669:Y 0.000255459
3 *680:D *669:A2 7.03112e-06
4 *680:D *680:CLK 0.000317478
5 *680:D *453:79 0.000160001
*RES
1 *669:Y *680:D 34.542 
*END

*D_NET *3 0.000492541
*CONN
*I *681:D I *D sky130_fd_sc_hd__dfxtp_2
*I *672:Y O *D sky130_fd_sc_hd__nor2b_1
*CAP
1 *681:D 0.000127757
2 *672:Y 0.000127757
3 *681:D *678:S 9.44631e-06
4 *681:D *426:20 0.000113309
5 *681:D *453:79 0.000114272
*RES
1 *672:Y *681:D 31.0778 
*END

*D_NET *4 0.000969891
*CONN
*I *477:A I *D sky130_fd_sc_hd__xnor2_1
*I *464:X O *D sky130_fd_sc_hd__xor2_1
*CAP
1 *477:A 0.000277366
2 *464:X 0.000277366
3 *477:A *464:A 0.000157107
4 *477:A *636:A0 2.08274e-05
5 *477:A *280:12 0.000157107
6 *477:A *380:14 1.4106e-05
7 *477:A *380:34 1.98846e-05
8 *477:A *381:16 4.61271e-05
*RES
1 *464:X *477:A 26.3351 
*END

*D_NET *5 0.00371807
*CONN
*I *524:B2 I *D sky130_fd_sc_hd__o221ai_2
*I *963:A I *D sky130_fd_sc_hd__buf_6
*I *473:A1 I *D sky130_fd_sc_hd__o31ai_4
*I *465:X O *D sky130_fd_sc_hd__and2b_2
*CAP
1 *524:B2 0.000239503
2 *963:A 0.00024074
3 *473:A1 0.000239503
4 *465:X 0.000328126
5 *5:10 0.000568866
6 *524:B2 *473:A2 7.06457e-05
7 *524:B2 *524:A1 5.07314e-05
8 *524:B2 *524:B1 0.000163912
9 *524:B2 *155:12 0.000417478
10 *524:B2 *380:34 0.000527877
11 *963:A *480:A 7.56859e-06
12 *963:A *484:A2 0
13 *963:A *485:A 0.000257315
14 *963:A *486:A 4.09002e-05
15 *963:A *372:10 9.24241e-05
16 *963:A *412:19 4.87301e-05
17 *963:A *458:10 0.000114584
18 *5:10 *468:A 9.43419e-05
19 *5:10 *480:A 7.58217e-06
20 *5:10 *277:22 0
21 *5:10 *413:56 3.86207e-06
22 *5:10 *462:24 0.000203381
*RES
1 *465:X *5:10 21.5663 
2 *5:10 *473:A1 13.7491 
3 *5:10 *963:A 21.8422 
4 *473:A1 *524:B2 30.362 
*END

*D_NET *6 0.00178449
*CONN
*I *470:A2 I *D sky130_fd_sc_hd__a211oi_4
*I *960:A I *D sky130_fd_sc_hd__buf_4
*I *466:Y O *D sky130_fd_sc_hd__nand2b_4
*CAP
1 *470:A2 0
2 *960:A 0.000180795
3 *466:Y 9.17825e-05
4 *6:10 0.000272577
5 *960:A *470:A1 9.19134e-05
6 *960:A *928:A 6.08467e-05
7 *960:A *86:16 0.000880308
8 *960:A *401:10 6.1472e-05
9 *960:A *455:22 0.000114415
10 *6:10 *466:B 3.03825e-05
11 *6:10 *664:B 0
*RES
1 *466:Y *6:10 20.4964 
2 *6:10 *960:A 19.4249 
3 *6:10 *470:A2 9.24915 
*END

*D_NET *7 0.00411575
*CONN
*I *875:A I *D sky130_fd_sc_hd__buf_6
*I *470:A1 I *D sky130_fd_sc_hd__a211oi_4
*I *467:Y O *D sky130_fd_sc_hd__nor2b_4
*CAP
1 *875:A 0
2 *470:A1 0.00115688
3 *467:Y 0.00013549
4 *7:8 0.00129237
5 *470:A1 *470:C1 0
6 *470:A1 *918:A 0.00012568
7 *470:A1 *919:A 0.000217937
8 *470:A1 *86:16 6.7584e-05
9 *470:A1 *401:10 0.000210053
10 *470:A1 *453:18 0.000335517
11 *470:A1 *455:22 0.000268878
12 *7:8 *467:B_N 0.000213449
13 *960:A *470:A1 9.19134e-05
*RES
1 *467:Y *7:8 13.3243 
2 *7:8 *470:A1 40.92 
3 *7:8 *875:A 9.24915 
*END

*D_NET *8 0.00138344
*CONN
*I *470:B1 I *D sky130_fd_sc_hd__a211oi_4
*I *874:A I *D sky130_fd_sc_hd__buf_4
*I *468:Y O *D sky130_fd_sc_hd__nor2b_4
*CAP
1 *470:B1 0.000134415
2 *874:A 1.98947e-05
3 *468:Y 5.27387e-05
4 *8:8 0.000207049
5 *470:B1 *480:B 0.000163997
6 *470:B1 *484:B1 4.58003e-05
7 *470:B1 *485:B 9.2346e-06
8 *470:B1 *486:B 3.31733e-05
9 *470:B1 *10:8 0.000107496
10 *470:B1 *20:10 9.22013e-06
11 *470:B1 *277:22 0.000111343
12 *470:B1 *458:10 9.22013e-06
13 *874:A *155:12 2.16355e-05
14 *874:A *462:24 6.08467e-05
15 *8:8 *480:B 0.000200221
16 *8:8 *277:22 0.000197157
*RES
1 *468:Y *8:8 17.2421 
2 *8:8 *874:A 14.4725 
3 *8:8 *470:B1 9.74121 
*END

*D_NET *9 0.00163739
*CONN
*I *470:C1 I *D sky130_fd_sc_hd__a211oi_4
*I *483:B1 I *D sky130_fd_sc_hd__a21oi_1
*I *469:Y O *D sky130_fd_sc_hd__nor2b_2
*CAP
1 *470:C1 0.000165666
2 *483:B1 0.000138966
3 *469:Y 0.000235701
4 *9:8 0.000540332
5 *470:C1 *86:16 3.14978e-05
6 *470:C1 *164:12 0
7 *470:C1 *354:47 5.22071e-05
8 *483:B1 *664:C 8.96613e-05
9 *483:B1 *164:12 0
10 *483:B1 *354:47 9.8867e-05
11 *9:8 *469:A 6.08467e-05
12 *9:8 *469:B_N 4.56831e-05
13 *9:8 *664:B 6.08467e-05
14 *9:8 *664:D 5.22164e-05
15 *9:8 *462:24 6.49003e-05
16 *470:A1 *470:C1 0
*RES
1 *469:Y *9:8 20.0186 
2 *9:8 *483:B1 18.0727 
3 *9:8 *470:C1 18.4077 
*END

*D_NET *10 0.00248164
*CONN
*I *524:B1 I *D sky130_fd_sc_hd__o221ai_2
*I *473:A3 I *D sky130_fd_sc_hd__o31ai_4
*I *947:A I *D sky130_fd_sc_hd__buf_4
*I *470:Y O *D sky130_fd_sc_hd__a211oi_4
*CAP
1 *524:B1 6.92776e-05
2 *473:A3 0.000262241
3 *947:A 0
4 *470:Y 0.000287621
5 *10:8 0.000480585
6 *473:A3 *473:B1 0
7 *473:A3 *480:A 0.000162583
8 *473:A3 *524:C1 0
9 *473:A3 *155:12 3.25751e-05
10 *473:A3 *275:12 6.60196e-05
11 *524:B1 *473:A2 0.000377259
12 *10:8 *480:A 1.00981e-05
13 *10:8 *484:A2 1.89767e-05
14 *10:8 *484:B1 1.92337e-05
15 *10:8 *486:A 0.000161252
16 *10:8 *486:B 0.000262514
17 *10:8 *380:34 0
18 *470:B1 *10:8 0.000107496
19 *524:B2 *524:B1 0.000163912
*RES
1 *470:Y *10:8 17.6164 
2 *10:8 *947:A 9.24915 
3 *10:8 *473:A3 23.7141 
4 *473:A3 *524:B1 23.128 
*END

*D_NET *11 0.00383881
*CONN
*I *525:A I *D sky130_fd_sc_hd__nand2_1
*I *473:A2 I *D sky130_fd_sc_hd__o31ai_4
*I *471:X O *D sky130_fd_sc_hd__and2b_1
*CAP
1 *525:A 0.000160567
2 *473:A2 0.000259121
3 *471:X 0.000700461
4 *11:10 0.00112015
5 *473:A2 *13:14 0.000113968
6 *525:A *473:B1 1.25301e-05
7 *525:A *524:A1 5.41227e-05
8 *525:A *524:A2 0
9 *525:A *526:B 0.000162483
10 *11:10 *471:A_N 0
11 *11:10 *482:A 7.22986e-05
12 *11:10 *512:A0 8.95863e-05
13 *11:10 *524:A1 0.000157823
14 *11:10 *13:14 9.24241e-05
15 *11:10 *179:27 0.00027103
16 *11:10 *416:80 5.1674e-06
17 *11:10 *459:20 0.000119176
18 *524:B1 *473:A2 0.000377259
19 *524:B2 *473:A2 7.06457e-05
*RES
1 *471:X *11:10 30.2922 
2 *11:10 *473:A2 22.1405 
3 *11:10 *525:A 18.0727 
*END

*D_NET *12 0.000578662
*CONN
*I *473:B1 I *D sky130_fd_sc_hd__o31ai_4
*I *472:Y O *D sky130_fd_sc_hd__nand2b_1
*CAP
1 *473:B1 0.000209872
2 *472:Y 0.000209872
3 *473:B1 *524:C1 1.07248e-05
4 *473:B1 *13:14 8.73667e-05
5 *473:B1 *275:12 0
6 *473:B1 *384:6 4.82966e-05
7 *473:A3 *473:B1 0
8 *525:A *473:B1 1.25301e-05
*RES
1 *472:Y *473:B1 31.9934 
*END

*D_NET *13 0.0050548
*CONN
*I *531:A1 I *D sky130_fd_sc_hd__a211oi_2
*I *529:A1 I *D sky130_fd_sc_hd__a21oi_4
*I *965:A I *D sky130_fd_sc_hd__buf_4
*I *473:Y O *D sky130_fd_sc_hd__o31ai_4
*CAP
1 *531:A1 0.000330075
2 *529:A1 0
3 *965:A 3.64011e-05
4 *473:Y 0.000340943
5 *13:31 0.000927992
6 *13:14 0.000975261
7 *531:A1 *529:B1 0.000135034
8 *531:A1 *531:B1 0.00020523
9 *531:A1 *531:C1 0.000182497
10 *531:A1 *601:A1 0.00026012
11 *531:A1 *50:18 2.49052e-05
12 *531:A1 *198:20 0.000194873
13 *531:A1 *198:24 4.19058e-05
14 *531:A1 *354:198 2.86829e-05
15 *13:14 *384:6 0.000320489
16 *13:31 *477:B 0
17 *13:31 *529:B1 0.000112367
18 *13:31 *601:A1 4.19199e-05
19 *13:31 *843:A 0.000337639
20 *13:31 *885:A 2.61857e-05
21 *13:31 *946:A 0.000238515
22 *473:A2 *13:14 0.000113968
23 *473:B1 *13:14 8.73667e-05
24 *11:10 *13:14 9.24241e-05
*RES
1 *473:Y *13:14 27.074 
2 *13:14 *965:A 10.2378 
3 *13:14 *13:31 24.7392 
4 *13:31 *529:A1 9.24915 
5 *13:31 *531:A1 30.9549 
*END

*D_NET *14 0.00135403
*CONN
*I *527:B I *D sky130_fd_sc_hd__and2_1
*I *873:A I *D sky130_fd_sc_hd__buf_4
*I *474:X O *D sky130_fd_sc_hd__or2b_1
*CAP
1 *527:B 0.000461371
2 *873:A 3.5247e-05
3 *474:X 5.38744e-05
4 *14:6 0.000550492
5 *527:B *196:33 4.4379e-05
6 *527:B *351:238 9.22161e-05
7 *527:B *371:12 2.61147e-05
8 *527:B *381:16 7.45315e-05
9 *527:B *381:44 5.46384e-06
10 *14:6 *371:12 1.03403e-05
*RES
1 *474:X *14:6 9.97254 
2 *14:6 *873:A 10.2378 
3 *14:6 *527:B 28.2847 
*END

*D_NET *15 0.000913186
*CONN
*I *528:A2 I *D sky130_fd_sc_hd__a21boi_0
*I *872:A I *D sky130_fd_sc_hd__buf_6
*I *475:X O *D sky130_fd_sc_hd__or2b_1
*CAP
1 *528:A2 0.000103658
2 *872:A 4.49498e-05
3 *475:X 0.000172596
4 *15:6 0.000321204
5 *528:A2 *528:A1 2.65831e-05
6 *872:A *847:A 0.000122098
7 *872:A *47:18 0.000122098
*RES
1 *475:X *15:6 11.6364 
2 *15:6 *872:A 20.4964 
3 *15:6 *528:A2 11.1059 
*END

*D_NET *16 0.000619808
*CONN
*I *477:B I *D sky130_fd_sc_hd__xnor2_1
*I *476:Y O *D sky130_fd_sc_hd__a21boi_2
*CAP
1 *477:B 0.000166787
2 *476:Y 0.000166787
3 *477:B *843:A 0
4 *477:B *885:A 2.55493e-05
5 *477:B *380:34 0.000221185
6 *477:B *410:39 3.94997e-05
7 *13:31 *477:B 0
*RES
1 *476:Y *477:B 33.0676 
*END

*D_NET *17 0.000327823
*CONN
*I *479:A I *D sky130_fd_sc_hd__xor2_2
*I *478:Y O *D sky130_fd_sc_hd__nand2_1
*CAP
1 *479:A 0.000102715
2 *478:Y 0.000102715
3 *479:A *479:B 0.000122393
*RES
1 *478:Y *479:A 20.7649 
*END

*D_NET *18 0.00204359
*CONN
*I *482:B I *D sky130_fd_sc_hd__xnor2_2
*I *480:Y O *D sky130_fd_sc_hd__nor2_2
*CAP
1 *482:B 0.000403219
2 *480:Y 0.000403219
3 *482:B *881:A 0.000205681
4 *482:B *275:12 0.000309468
5 *482:B *278:14 0.000590684
6 *482:B *416:72 0.000111083
7 *482:B *462:24 2.02354e-05
*RES
1 *480:Y *482:B 42.11 
*END

*D_NET *19 0.00177063
*CONN
*I *482:A I *D sky130_fd_sc_hd__xnor2_2
*I *481:Y O *D sky130_fd_sc_hd__xnor2_1
*CAP
1 *482:A 0.000491006
2 *481:Y 0.000491006
3 *482:A *471:A_N 5.23435e-05
4 *482:A *472:B 4.19058e-05
5 *482:A *524:A1 0.000359298
6 *482:A *195:27 0.000262769
7 *11:10 *482:A 7.22986e-05
*RES
1 *481:Y *482:A 38.643 
*END

*D_NET *20 0.00350343
*CONN
*I *485:B I *D sky130_fd_sc_hd__or3_1
*I *484:B1 I *D sky130_fd_sc_hd__o21ai_0
*I *483:Y O *D sky130_fd_sc_hd__a21oi_1
*CAP
1 *485:B 0.00030619
2 *484:B1 0.000172017
3 *483:Y 0.000391911
4 *20:10 0.000870118
5 *484:B1 *484:A2 0.0001126
6 *484:B1 *486:A 6.53502e-05
7 *484:B1 *277:22 6.08467e-05
8 *485:B *486:B 7.86847e-05
9 *485:B *677:A2 0.000159917
10 *485:B *351:69 0.000463087
11 *485:B *412:13 8.51933e-05
12 *485:B *412:19 3.32036e-05
13 *485:B *458:10 0
14 *20:10 *468:A 1.21461e-06
15 *20:10 *483:A2 6.73351e-05
16 *20:10 *277:22 0.000263114
17 *20:10 *351:69 0.00028916
18 *470:B1 *484:B1 4.58003e-05
19 *470:B1 *485:B 9.2346e-06
20 *470:B1 *20:10 9.22013e-06
21 *10:8 *484:B1 1.92337e-05
*RES
1 *483:Y *20:10 22.9542 
2 *20:10 *484:B1 18.7888 
3 *20:10 *485:B 24.0578 
*END

*D_NET *21 0.000796489
*CONN
*I *486:B I *D sky130_fd_sc_hd__nand2_1
*I *484:Y O *D sky130_fd_sc_hd__o21ai_0
*CAP
1 *486:B 0.000206747
2 *484:Y 0.000206747
3 *486:B *458:10 8.62321e-06
4 *470:B1 *486:B 3.31733e-05
5 *485:B *486:B 7.86847e-05
6 *10:8 *486:B 0.000262514
*RES
1 *484:Y *486:B 31.8568 
*END

*D_NET *22 0.00161016
*CONN
*I *486:A I *D sky130_fd_sc_hd__nand2_1
*I *485:X O *D sky130_fd_sc_hd__or3_1
*CAP
1 *486:A 0.000457727
2 *485:X 0.000457727
3 *486:A *485:A 6.93171e-05
4 *486:A *688:CLK 0.00011349
5 *486:A *458:10 0.000244398
6 *484:B1 *486:A 6.53502e-05
7 *963:A *486:A 4.09002e-05
8 *10:8 *486:A 0.000161252
*RES
1 *485:X *486:A 47.7605 
*END

*D_NET *23 0.00139565
*CONN
*I *488:B I *D sky130_fd_sc_hd__xnor2_1
*I *487:Y O *D sky130_fd_sc_hd__xnor2_2
*CAP
1 *488:B 0.00041043
2 *487:Y 0.00041043
3 *488:B *483:A2 7.35329e-05
4 *488:B *487:A 0.000132802
5 *488:B *487:B 0.000212762
6 *488:B *514:A0 1.03594e-05
7 *488:B *704:DE 7.26748e-05
8 *488:B *413:37 7.26606e-05
*RES
1 *487:Y *488:B 35.8756 
*END

*D_NET *24 0.00109119
*CONN
*I *555:A I *D sky130_fd_sc_hd__maj3_1
*I *871:A I *D sky130_fd_sc_hd__buf_4
*I *490:Y O *D sky130_fd_sc_hd__inv_1
*CAP
1 *555:A 0.000130514
2 *871:A 0
3 *490:Y 0.000126534
4 *24:8 0.000257047
5 *555:A *494:A2 0.000102384
6 *555:A *369:10 0.000114271
7 *24:8 *494:B1 3.45954e-05
8 *24:8 *77:10 8.90427e-05
9 *24:8 *369:10 0.000236802
*RES
1 *490:Y *24:8 13.6016 
2 *24:8 *871:A 9.24915 
3 *24:8 *555:A 13.3002 
*END

*D_NET *27 0.000957404
*CONN
*I *494:B1 I *D sky130_fd_sc_hd__o21ai_1
*I *493:Y O *D sky130_fd_sc_hd__nand2_1
*CAP
1 *494:B1 0.000235713
2 *493:Y 0.000235713
3 *494:B1 *490:A 3.39578e-05
4 *494:B1 *493:A 2.57847e-05
5 *494:B1 *494:A2 0.000112367
6 *494:B1 *559:B 1.47046e-05
7 *494:B1 *77:10 1.91768e-05
8 *494:B1 *266:8 7.67734e-06
9 *494:B1 *266:23 7.67719e-05
10 *494:B1 *369:10 0.000160942
11 *24:8 *494:B1 3.45954e-05
*RES
1 *493:Y *494:B1 25.8769 
*END

*D_NET *29 0.00165195
*CONN
*I *561:A I *D sky130_fd_sc_hd__maj3_2
*I *500:A1 I *D sky130_fd_sc_hd__o21ai_2
*I *498:Y O *D sky130_fd_sc_hd__inv_1
*CAP
1 *561:A 0.000271636
2 *500:A1 0.000320888
3 *498:Y 4.9252e-05
4 *500:A1 *498:A 3.19445e-05
5 *500:A1 *540:A 6.22737e-05
6 *500:A1 *30:16 6.64392e-05
7 *500:A1 *406:16 1.85705e-05
8 *500:A1 *452:8 0.000286431
9 *561:A *500:A2 1.64789e-05
10 *561:A *540:A 6.24083e-05
11 *561:A *79:10 0
12 *561:A *86:40 5.88181e-05
13 *561:A *452:37 0.000406808
*RES
1 *498:Y *500:A1 21.7174 
2 *500:A1 *561:A 35.7604 
*END

*D_NET *30 0.00365703
*CONN
*I *500:B1 I *D sky130_fd_sc_hd__o21ai_2
*I *499:Y O *D sky130_fd_sc_hd__nand2_1
*CAP
1 *500:B1 0
2 *499:Y 0.000922369
3 *30:16 0.000922369
4 *30:16 *540:A 6.64392e-05
5 *30:16 *550:A_N 0.000200925
6 *30:16 *551:B 7.90533e-06
7 *30:16 *598:A2 0.00101986
8 *30:16 *700:D 3.86835e-05
9 *30:16 *711:CLK 0.000267521
10 *30:16 *173:12 0
11 *30:16 *188:21 7.74044e-06
12 *30:16 *272:12 0
13 *30:16 *351:167 0.00011349
14 *30:16 *406:16 2.32865e-05
15 *500:A1 *30:16 6.64392e-05
*RES
1 *499:Y *30:16 46.9 
2 *30:16 *500:B1 9.24915 
*END

*D_NET *31 0.00443668
*CONN
*I *538:A I *D sky130_fd_sc_hd__maj3_1
*I *923:A I *D sky130_fd_sc_hd__buf_4
*I *501:Y O *D sky130_fd_sc_hd__inv_1
*CAP
1 *538:A 0
2 *923:A 0
3 *501:Y 1.11087e-05
4 *31:35 0.00132141
5 *31:6 0.00133252
6 *31:6 *608:B 9.19075e-05
7 *31:6 *171:16 4.14014e-05
8 *31:35 *520:B 0.000188591
9 *31:35 *535:A 1.80575e-05
10 *31:35 *537:A2 3.16131e-05
11 *31:35 *538:C 4.25818e-05
12 *31:35 *606:C1 0.000678783
13 *31:35 *608:B 6.36477e-05
14 *31:35 *612:A 2.42585e-05
15 *31:35 *612:B 0.000256155
16 *31:35 *699:DE 0
17 *31:35 *699:CLK 6.29536e-05
18 *31:35 *712:DE 0
19 *31:35 *841:A 0
20 *31:35 *857:A 0.000113968
21 *31:35 *116:10 0
22 *31:35 *171:16 3.78883e-05
23 *31:35 *350:24 0.000107623
24 *31:35 *397:20 1.22085e-05
*RES
1 *501:Y *31:6 10.2498 
2 *31:6 *923:A 9.24915 
3 *31:6 *31:35 45.3393 
4 *31:35 *538:A 9.24915 
*END

*D_NET *32 0.000276903
*CONN
*I *503:B1 I *D sky130_fd_sc_hd__o21ai_1
*I *502:Y O *D sky130_fd_sc_hd__nand2_2
*CAP
1 *503:B1 6.24028e-05
2 *502:Y 6.24028e-05
3 *503:B1 *502:A 0.000104895
4 *503:B1 *502:B 7.34948e-06
5 *503:B1 *503:A2 5.04829e-06
6 *503:B1 *699:D 5.04829e-06
7 *503:B1 *187:12 2.97556e-05
8 *503:B1 *421:8 0
*RES
1 *502:Y *503:B1 20.9096 
*END

*D_NET *33 0.00189491
*CONN
*I *870:A I *D sky130_fd_sc_hd__buf_4
*I *534:A I *D sky130_fd_sc_hd__maj3_1
*I *505:Y O *D sky130_fd_sc_hd__inv_1
*CAP
1 *870:A 0
2 *534:A 0.000176009
3 *505:Y 0.000291139
4 *33:10 0.000467148
5 *534:A *534:B 0.00025527
6 *534:A *57:12 5.23577e-05
7 *534:A *156:16 2.10465e-05
8 *534:A *425:12 2.09463e-05
9 *33:10 *665:B 9.78191e-05
10 *33:10 *57:12 0.000111135
11 *33:10 *156:16 1.22289e-05
12 *33:10 *425:102 0.00038981
*RES
1 *505:Y *33:10 20.3247 
2 *33:10 *534:A 18.8017 
3 *33:10 *870:A 13.7491 
*END

*D_NET *34 0.000164259
*CONN
*I *507:B1 I *D sky130_fd_sc_hd__o21ai_1
*I *506:Y O *D sky130_fd_sc_hd__nand2_1
*CAP
1 *507:B1 2.10687e-05
2 *506:Y 2.10687e-05
3 *507:B1 *506:A 6.46815e-05
4 *507:B1 *506:B 3.00829e-05
5 *507:B1 *507:A2 2.30636e-05
6 *507:B1 *712:D 4.29314e-06
*RES
1 *506:Y *507:B1 19.7763 
*END

*D_NET *35 0.000906843
*CONN
*I *869:A I *D sky130_fd_sc_hd__buf_4
*I *522:A I *D sky130_fd_sc_hd__or4_1
*I *516:X O *D sky130_fd_sc_hd__xor2_1
*CAP
1 *869:A 5.64231e-05
2 *522:A 0
3 *516:X 0.000132119
4 *35:12 0.000188542
5 *869:A *522:D 0.000228593
6 *35:12 *522:C 0.00019364
7 *35:12 *522:D 6.50727e-05
8 *35:12 *615:A 0
9 *35:12 *377:27 3.67708e-05
10 *35:12 *415:61 5.68225e-06
*RES
1 *516:X *35:12 22.4655 
2 *35:12 *522:A 9.24915 
3 *35:12 *869:A 11.6364 
*END

*D_NET *36 0.00191677
*CONN
*I *522:B I *D sky130_fd_sc_hd__or4_1
*I *868:A I *D sky130_fd_sc_hd__buf_4
*I *517:X O *D sky130_fd_sc_hd__xor2_1
*CAP
1 *522:B 0.000258812
2 *868:A 0.000196566
3 *517:X 3.9766e-05
4 *36:8 0.000495144
5 *522:B *605:B2 8.02509e-05
6 *522:B *41:14 0.000143131
7 *868:A *626:B 4.89251e-05
8 *868:A *41:14 5.89129e-05
9 *868:A *111:12 0.000261128
10 *36:8 *231:14 0.000208627
11 *36:8 *378:23 6.27782e-05
12 *36:8 *378:32 6.27332e-05
*RES
1 *517:X *36:8 16.1364 
2 *36:8 *868:A 19.7687 
3 *36:8 *522:B 20.1489 
*END

*D_NET *37 0.00082047
*CONN
*I *520:A_N I *D sky130_fd_sc_hd__nand2b_1
*I *857:A I *D sky130_fd_sc_hd__buf_4
*I *518:Y O *D sky130_fd_sc_hd__nor2b_1
*CAP
1 *520:A_N 0
2 *857:A 0.000203346
3 *518:Y 0.000121099
4 *37:10 0.000324445
5 *857:A *665:A 4.9e-05
6 *857:A *899:A 0
7 *857:A *184:31 8.61152e-06
8 *37:10 *899:A 0
9 *37:10 *38:10 0
10 *37:10 *375:10 0
11 *31:35 *857:A 0.000113968
*RES
1 *518:Y *37:10 20.9116 
2 *37:10 *857:A 23.4354 
3 *37:10 *520:A_N 9.24915 
*END

*D_NET *38 0.000512272
*CONN
*I *867:A I *D sky130_fd_sc_hd__buf_4
*I *520:B I *D sky130_fd_sc_hd__nand2b_1
*I *519:Y O *D sky130_fd_sc_hd__nand2b_1
*CAP
1 *867:A 0
2 *520:B 4.22431e-05
3 *519:Y 9.10505e-05
4 *38:10 0.000133294
5 *520:B *39:10 2.58616e-05
6 *38:10 *899:A 3.12316e-05
7 *31:35 *520:B 0.000188591
8 *37:10 *38:10 0
*RES
1 *519:Y *38:10 20.4964 
2 *38:10 *520:B 11.2626 
3 *38:10 *867:A 9.24915 
*END

*D_NET *39 0.00190462
*CONN
*I *852:A I *D sky130_fd_sc_hd__buf_4
*I *522:C I *D sky130_fd_sc_hd__or4_1
*I *520:Y O *D sky130_fd_sc_hd__nand2b_1
*CAP
1 *852:A 3.87957e-05
2 *522:C 0.000334415
3 *520:Y 0.000154474
4 *39:10 0.000527684
5 *522:C *606:A2 1.21985e-05
6 *522:C *615:A 0
7 *522:C *115:24 0.000127497
8 *522:C *377:27 7.46581e-05
9 *852:A *606:A3 0.000209636
10 *852:A *899:A 0.000161956
11 *852:A *394:33 1.00766e-05
12 *39:10 *899:A 3.37311e-05
13 *520:B *39:10 2.58616e-05
14 *35:12 *522:C 0.00019364
*RES
1 *520:Y *39:10 17.5503 
2 *39:10 *522:C 23.8862 
3 *39:10 *852:A 16.1364 
*END

*D_NET *40 0.00347426
*CONN
*I *866:A I *D sky130_fd_sc_hd__buf_4
*I *522:D I *D sky130_fd_sc_hd__or4_1
*I *521:X O *D sky130_fd_sc_hd__xor2_1
*CAP
1 *866:A 0
2 *522:D 0.000617327
3 *521:X 0.000313875
4 *40:10 0.000931201
5 *522:D *605:B2 1.21461e-06
6 *522:D *606:A2 0.000112434
7 *522:D *615:A 0.000143047
8 *522:D *665:D 0.000297965
9 *522:D *712:D 7.28994e-06
10 *522:D *200:16 1.82824e-05
11 *522:D *350:24 0.000184438
12 *522:D *368:27 6.62029e-05
13 *522:D *394:33 5.54743e-05
14 *522:D *397:20 1.57723e-05
15 *522:D *415:61 0
16 *40:10 *712:DE 0
17 *40:10 *350:24 1.07248e-05
18 *40:10 *394:33 6.88241e-05
19 *40:10 *397:20 0.00011213
20 *40:10 *414:110 0.000224395
21 *869:A *522:D 0.000228593
22 *35:12 *522:D 6.50727e-05
*RES
1 *521:X *40:10 21.7056 
2 *40:10 *522:D 31.9532 
3 *40:10 *866:A 13.7491 
*END

*D_NET *41 0.00378718
*CONN
*I *539:A1 I *D sky130_fd_sc_hd__o31a_1
*I *522:X O *D sky130_fd_sc_hd__or4_1
*CAP
1 *539:A1 0
2 *522:X 0.000708996
3 *41:14 0.000708996
4 *41:14 *600:A 8.19184e-05
5 *41:14 *601:B1 6.95512e-05
6 *41:14 *615:A 3.98606e-05
7 *41:14 *626:A 0.000171288
8 *41:14 *626:B 3.34833e-05
9 *41:14 *694:DE 8.62625e-06
10 *41:14 *695:CLK 0.000209988
11 *41:14 *831:A 2.53347e-05
12 *41:14 *57:12 0.000118166
13 *41:14 *282:10 5.46831e-05
14 *41:14 *408:81 0.00135425
15 *522:B *41:14 0.000143131
16 *868:A *41:14 5.89129e-05
*RES
1 *522:X *41:14 45.2144 
2 *41:14 *539:A1 9.24915 
*END

*D_NET *42 0.00239563
*CONN
*I *524:A2 I *D sky130_fd_sc_hd__o221ai_2
*I *865:A I *D sky130_fd_sc_hd__buf_4
*I *523:Y O *D sky130_fd_sc_hd__inv_1
*CAP
1 *524:A2 0.00064743
2 *865:A 2.12792e-05
3 *523:Y 4.9834e-05
4 *42:6 0.000718543
5 *524:A2 *524:A1 0
6 *524:A2 *843:A 0.000185051
7 *524:A2 *380:34 7.16754e-05
8 *524:A2 *413:56 1.94941e-05
9 *524:A2 *416:80 0.000160047
10 *524:A2 *416:91 0.000510839
11 *42:6 *413:56 1.14417e-05
12 *525:A *524:A2 0
*RES
1 *523:Y *42:6 10.2498 
2 *42:6 *865:A 9.82786 
3 *42:6 *524:A2 35.524 
*END

*D_NET *43 0.000902432
*CONN
*I *526:B I *D sky130_fd_sc_hd__nand4b_1
*I *524:Y O *D sky130_fd_sc_hd__o221ai_2
*CAP
1 *526:B 0.000138703
2 *524:Y 0.000138703
3 *526:B *524:C1 0.000162483
4 *526:B *526:C 0.000217923
5 *526:B *526:D 2.82583e-05
6 *526:B *45:10 4.31539e-05
7 *526:B *370:25 1.07248e-05
8 *526:B *380:34 0
9 *525:A *526:B 0.000162483
*RES
1 *524:Y *526:B 33.542 
*END

*D_NET *44 0.000528836
*CONN
*I *526:D I *D sky130_fd_sc_hd__nand4b_1
*I *525:Y O *D sky130_fd_sc_hd__nand2_1
*CAP
1 *526:D 0.000148654
2 *525:Y 0.000148654
3 *526:D *526:C 1.00937e-05
4 *526:D *45:10 0.000115934
5 *526:D *370:25 6.50727e-05
6 *526:D *380:34 1.21697e-05
7 *526:B *526:D 2.82583e-05
*RES
1 *525:Y *526:D 22.9833 
*END

*D_NET *45 0.00268464
*CONN
*I *530:A1 I *D sky130_fd_sc_hd__a21boi_1
*I *938:A I *D sky130_fd_sc_hd__buf_4
*I *532:A2 I *D sky130_fd_sc_hd__a21oi_1
*I *526:Y O *D sky130_fd_sc_hd__nand4b_1
*CAP
1 *530:A1 0.000176717
2 *938:A 9.35685e-05
3 *532:A2 0
4 *526:Y 0.000423259
5 *45:21 0.000363193
6 *45:10 0.000516167
7 *530:A1 *433:6 1.65872e-05
8 *530:A1 *433:27 9.34573e-05
9 *938:A *539:A2 2.20702e-05
10 *938:A *433:6 6.50586e-05
11 *45:10 *526:C 1.99131e-05
12 *45:10 *539:A3 2.63145e-05
13 *45:10 *663:D 5.65046e-05
14 *45:10 *934:A 0.000369283
15 *45:10 *155:12 0
16 *45:10 *370:25 5.3764e-05
17 *45:21 *539:A3 6.5713e-05
18 *45:21 *934:A 0.000163982
19 *526:B *45:10 4.31539e-05
20 *526:D *45:10 0.000115934
*RES
1 *526:Y *45:10 26.2734 
2 *45:10 *532:A2 13.7491 
3 *45:10 *45:21 7.57775 
4 *45:21 *938:A 11.6364 
5 *45:21 *530:A1 13.3243 
*END

*D_NET *46 0.00242233
*CONN
*I *531:A2 I *D sky130_fd_sc_hd__a211oi_2
*I *529:A2 I *D sky130_fd_sc_hd__a21oi_4
*I *527:X O *D sky130_fd_sc_hd__and2_1
*CAP
1 *531:A2 7.03542e-05
2 *529:A2 0.000587397
3 *527:X 0
4 *46:4 0.000657751
5 *529:A2 *710:CLK 0.000652011
6 *529:A2 *47:18 4.7798e-05
7 *529:A2 *410:35 0.000231671
8 *529:A2 *410:141 5.23577e-05
9 *531:A2 *351:238 0.000122992
*RES
1 *527:X *46:4 9.24915 
2 *46:4 *529:A2 29.5388 
3 *46:4 *531:A2 20.4964 
*END

*D_NET *47 0.00323075
*CONN
*I *851:A I *D sky130_fd_sc_hd__buf_4
*I *528:Y O *D sky130_fd_sc_hd__a21boi_0
*CAP
1 *851:A 0
2 *528:Y 0.0010767
3 *47:18 0.0010767
4 *47:18 *476:A2 6.13051e-05
5 *47:18 *531:C1 5.03545e-06
6 *47:18 *710:CLK 3.99086e-06
7 *47:18 *847:A 9.37622e-05
8 *47:18 *883:A 6.56138e-05
9 *47:18 *197:23 0.000547657
10 *47:18 *381:8 2.58616e-05
11 *47:18 *410:35 5.18062e-06
12 *47:18 *410:39 9.90495e-05
13 *529:A2 *47:18 4.7798e-05
14 *872:A *47:18 0.000122098
*RES
1 *528:Y *47:18 49.9272 
2 *47:18 *851:A 9.24915 
*END

*D_NET *48 0.00202553
*CONN
*I *530:A2 I *D sky130_fd_sc_hd__a21boi_1
*I *630:B I *D sky130_fd_sc_hd__nand2_2
*I *962:A I *D sky130_fd_sc_hd__buf_4
*I *529:Y O *D sky130_fd_sc_hd__a21oi_4
*CAP
1 *530:A2 0.000214516
2 *630:B 5.16864e-05
3 *962:A 9.75184e-05
4 *529:Y 1.45255e-05
5 *48:21 0.000375412
6 *48:6 0.000221254
7 *530:A2 *600:B_N 3.40805e-05
8 *530:A2 *630:A 0
9 *530:A2 *198:41 0
10 *530:A2 *433:27 0.000164283
11 *630:B *532:A1 0.000118046
12 *630:B *532:B1 3.82228e-05
13 *630:B *599:B 0
14 *962:A *601:A1 0.000129809
15 *962:A *663:B 0.000168228
16 *962:A *198:24 3.73707e-05
17 *962:A *410:29 2.99747e-05
18 *48:6 *601:A1 8.24011e-05
19 *48:6 *198:24 0.000114594
20 *48:21 *630:A 0.000133612
*RES
1 *529:Y *48:6 10.5271 
2 *48:6 *962:A 13.3484 
3 *48:6 *48:21 7.1625 
4 *48:21 *630:B 15.6059 
5 *48:21 *530:A2 19.0986 
*END

*D_NET *49 0.000934052
*CONN
*I *539:A2 I *D sky130_fd_sc_hd__o31a_1
*I *530:Y O *D sky130_fd_sc_hd__a21boi_1
*CAP
1 *539:A2 0.000300296
2 *530:Y 0.000300296
3 *539:A2 *539:A3 0.000101133
4 *539:A2 *382:18 0.000104731
5 *539:A2 *433:6 5.0715e-05
6 *539:A2 *433:27 5.481e-05
7 *938:A *539:A2 2.20702e-05
*RES
1 *530:Y *539:A2 33.3813 
*END

*D_NET *50 0.00249841
*CONN
*I *599:B I *D sky130_fd_sc_hd__nand2_1
*I *532:A1 I *D sky130_fd_sc_hd__a21oi_1
*I *531:Y O *D sky130_fd_sc_hd__a211oi_2
*CAP
1 *599:B 2.10784e-05
2 *532:A1 0.000177222
3 *531:Y 0.00033029
4 *50:18 0.00052859
5 *532:A1 *532:B1 2.78122e-05
6 *532:A1 *132:12 0.000205898
7 *532:A1 *182:43 2.12616e-05
8 *50:18 *531:C1 3.44872e-05
9 *50:18 *601:A2 0.00011252
10 *50:18 *601:A3 0.000116502
11 *50:18 *132:12 0.000447977
12 *50:18 *182:43 0.000219456
13 *50:18 *198:20 0.000112367
14 *531:A1 *50:18 2.49052e-05
15 *630:B *532:A1 0.000118046
16 *630:B *599:B 0
*RES
1 *531:Y *50:18 32.119 
2 *50:18 *532:A1 14.8675 
3 *50:18 *599:B 9.82786 
*END

*D_NET *51 0.000784249
*CONN
*I *539:A3 I *D sky130_fd_sc_hd__o31a_1
*I *532:Y O *D sky130_fd_sc_hd__a21oi_1
*CAP
1 *539:A3 0.000218631
2 *532:Y 0.000218631
3 *539:A3 *532:B1 1.43698e-05
4 *539:A3 *600:A 0
5 *539:A3 *934:A 7.58217e-06
6 *539:A3 *382:18 0.000131875
7 *539:A2 *539:A3 0.000101133
8 *45:10 *539:A3 2.63145e-05
9 *45:21 *539:A3 6.5713e-05
*RES
1 *532:Y *539:A3 35.0367 
*END

*D_NET *52 0.0012568
*CONN
*I *864:A I *D sky130_fd_sc_hd__buf_4
*I *534:C I *D sky130_fd_sc_hd__maj3_1
*I *533:Y O *D sky130_fd_sc_hd__nand2b_4
*CAP
1 *864:A 1.17774e-05
2 *534:C 0.000339331
3 *533:Y 3.82552e-05
4 *52:8 0.000389363
5 *534:C *666:C 5.93657e-05
6 *534:C *57:12 0.000257467
7 *534:C *157:14 0
8 *534:C *389:20 0
9 *534:C *412:64 0
10 *864:A *533:B 2.30636e-05
11 *864:A *463:75 2.58757e-05
12 *52:8 *533:B 6.33732e-05
13 *52:8 *463:75 4.89251e-05
*RES
1 *533:Y *52:8 11.1059 
2 *52:8 *534:C 28.8014 
3 *52:8 *864:A 9.97254 
*END

*D_NET *53 0.00145785
*CONN
*I *535:B I *D sky130_fd_sc_hd__nand2_1
*I *536:B I *D sky130_fd_sc_hd__nor2_1
*I *534:X O *D sky130_fd_sc_hd__maj3_1
*CAP
1 *535:B 0.00027001
2 *536:B 0
3 *534:X 0.00012081
4 *53:12 0.00039082
5 *535:B *536:A 6.27718e-05
6 *535:B *538:B 0.000205681
7 *535:B *375:10 8.29867e-05
8 *535:B *375:12 0.000114659
9 *535:B *425:102 5.61938e-05
10 *53:12 *534:B 1.43698e-05
11 *53:12 *57:12 0.000118017
12 *53:12 *425:12 2.15326e-05
*RES
1 *534:X *53:12 21.2198 
2 *53:12 *536:B 9.24915 
3 *53:12 *535:B 26.0027 
*END

*D_NET *54 0.000268565
*CONN
*I *537:A2 I *D sky130_fd_sc_hd__a21oi_1
*I *535:Y O *D sky130_fd_sc_hd__nand2_1
*CAP
1 *537:A2 5.42519e-05
2 *535:Y 5.42519e-05
3 *537:A2 *535:A 0.000128448
4 *537:A2 *538:C 0
5 *31:35 *537:A2 3.16131e-05
*RES
1 *535:Y *537:A2 20.7649 
*END

*D_NET *55 0.00061602
*CONN
*I *537:B1 I *D sky130_fd_sc_hd__a21oi_1
*I *536:Y O *D sky130_fd_sc_hd__nor2_1
*CAP
1 *537:B1 0.000144094
2 *536:Y 0.000144094
3 *537:B1 *538:B 0.000111352
4 *537:B1 *57:12 7.26748e-05
5 *537:B1 *375:10 7.11294e-05
6 *537:B1 *375:12 7.26748e-05
7 *537:B1 *425:33 0
8 *537:B1 *425:42 0
*RES
1 *536:Y *537:B1 31.4388 
*END

*D_NET *56 0.000266227
*CONN
*I *538:C I *D sky130_fd_sc_hd__maj3_1
*I *537:Y O *D sky130_fd_sc_hd__a21oi_1
*CAP
1 *538:C 0.000111823
2 *537:Y 0.000111823
3 *537:A2 *538:C 0
4 *31:35 *538:C 4.25818e-05
*RES
1 *537:Y *538:C 21.3195 
*END

*D_NET *57 0.00285698
*CONN
*I *539:B1 I *D sky130_fd_sc_hd__o31a_1
*I *538:X O *D sky130_fd_sc_hd__maj3_1
*CAP
1 *539:B1 0
2 *538:X 0.000876745
3 *57:12 0.000876745
4 *57:12 *665:B 1.94615e-05
5 *57:12 *156:16 0.00027045
6 *57:12 *375:12 2.02848e-05
7 *57:12 *378:10 6.34773e-05
8 *57:12 *382:18 0
9 *534:A *57:12 5.23577e-05
10 *534:C *57:12 0.000257467
11 *537:B1 *57:12 7.26748e-05
12 *33:10 *57:12 0.000111135
13 *41:14 *57:12 0.000118166
14 *53:12 *57:12 0.000118017
*RES
1 *538:X *57:12 45.0285 
2 *57:12 *539:B1 9.24915 
*END

*D_NET *58 0.00498645
*CONN
*I *845:A I *D sky130_fd_sc_hd__buf_4
*I *561:B I *D sky130_fd_sc_hd__maj3_2
*I *539:X O *D sky130_fd_sc_hd__o31a_1
*CAP
1 *845:A 0
2 *561:B 0.000406786
3 *539:X 0.00112135
4 *58:16 0.00152814
5 *561:B *561:C 5.20193e-05
6 *561:B *700:CLK 0.000208621
7 *561:B *86:40 0.00011428
8 *561:B *86:48 2.58616e-05
9 *561:B *351:135 0.000739577
10 *561:B *393:14 8.85814e-05
11 *58:16 *711:D 0.000129882
12 *58:16 *711:DE 0.000175175
13 *58:16 *711:CLK 1.78942e-05
14 *58:16 *917:A 0.00011911
15 *58:16 *157:14 5.49769e-05
16 *58:16 *271:8 0
17 *58:16 *408:81 0.000162583
18 *58:16 *412:64 4.16054e-05
*RES
1 *539:X *58:16 38.5891 
2 *58:16 *561:B 34.0954 
3 *58:16 *845:A 9.24915 
*END

*D_NET *59 0.00249312
*CONN
*I *549:A I *D sky130_fd_sc_hd__nand4_1
*I *863:A I *D sky130_fd_sc_hd__buf_4
*I *540:Y O *D sky130_fd_sc_hd__xnor2_1
*CAP
1 *549:A 0.000207272
2 *863:A 0
3 *540:Y 0.000335005
4 *59:12 0.000542277
5 *549:A *935:A 0.00025527
6 *549:A *463:8 0.000776327
7 *59:12 *540:A 0.000160617
8 *59:12 *711:CLK 0
9 *59:12 *935:A 8.36586e-06
10 *59:12 *272:12 0.000169078
11 *59:12 *351:135 3.89033e-05
*RES
1 *540:Y *59:12 26.0663 
2 *59:12 *863:A 9.24915 
3 *59:12 *549:A 18.3157 
*END

*D_NET *61 0.00336358
*CONN
*I *549:B I *D sky130_fd_sc_hd__nand4_1
*I *862:A I *D sky130_fd_sc_hd__buf_4
*I *542:Y O *D sky130_fd_sc_hd__xnor2_1
*CAP
1 *549:B 0.000750286
2 *862:A 0.000497126
3 *542:Y 0
4 *61:4 0.00124741
5 *549:B *542:B 1.4106e-05
6 *549:B *549:C 0.000112367
7 *549:B *191:33 0.000549865
8 *549:B *463:8 7.03688e-05
9 *862:A *542:A 4.24629e-05
10 *862:A *542:B 3.64168e-05
11 *862:A *582:B 2.84892e-05
12 *862:A *931:A 6.24474e-06
13 *862:A *388:16 8.43313e-06
*RES
1 *542:Y *61:4 9.24915 
2 *61:4 *862:A 17.0618 
3 *61:4 *549:B 23.5 
*END

*D_NET *62 0.00287156
*CONN
*I *861:A I *D sky130_fd_sc_hd__buf_4
*I *545:A I *D sky130_fd_sc_hd__nor2b_1
*I *543:Y O *D sky130_fd_sc_hd__nor2b_1
*CAP
1 *861:A 0.000176817
2 *545:A 1.30233e-05
3 *543:Y 0.00037468
4 *62:10 0.000564521
5 *545:A *545:B_N 5.92192e-05
6 *545:A *73:14 5.92192e-05
7 *861:A *545:B_N 1.03403e-05
8 *861:A *562:C1 5.77352e-05
9 *861:A *571:A1 1.287e-05
10 *861:A *77:34 0.000111722
11 *861:A *354:24 0.000262495
12 *861:A *414:38 5.41227e-05
13 *62:10 *545:B_N 0.00025509
14 *62:10 *554:A2 0.000255255
15 *62:10 *922:A 0.000159098
16 *62:10 *73:14 0.000445351
*RES
1 *543:Y *62:10 25.167 
2 *62:10 *545:A 14.7506 
3 *62:10 *861:A 28.3563 
*END

*D_NET *63 0.00314701
*CONN
*I *545:B_N I *D sky130_fd_sc_hd__nor2b_1
*I *860:A I *D sky130_fd_sc_hd__buf_4
*I *544:Y O *D sky130_fd_sc_hd__nand2b_1
*CAP
1 *545:B_N 0.000233233
2 *860:A 0.000272835
3 *544:Y 0.000374301
4 *63:6 0.00088037
5 *545:B_N *562:C1 8.18344e-06
6 *545:B_N *571:A1 6.50727e-05
7 *545:B_N *856:A 9.6872e-05
8 *545:B_N *922:A 0
9 *545:B_N *73:14 9.2346e-06
10 *860:A *562:C1 0.000107496
11 *860:A *571:A2 0.000109427
12 *860:A *922:A 0.000109951
13 *860:A *926:A 8.8868e-05
14 *860:A *412:94 1.62266e-06
15 *860:A *414:38 0.000113309
16 *63:6 *405:14 1.19705e-05
17 *63:6 *412:94 7.84903e-05
18 *63:6 *424:8 0.000261128
19 *545:A *545:B_N 5.92192e-05
20 *861:A *545:B_N 1.03403e-05
21 *62:10 *545:B_N 0.00025509
*RES
1 *544:Y *63:6 15.5186 
2 *63:6 *860:A 24.7162 
3 *63:6 *545:B_N 25.3723 
*END

*D_NET *64 0.00143488
*CONN
*I *850:A I *D sky130_fd_sc_hd__buf_4
*I *549:C I *D sky130_fd_sc_hd__nand4_1
*I *545:Y O *D sky130_fd_sc_hd__nor2b_1
*CAP
1 *850:A 2.7855e-05
2 *549:C 0.000167616
3 *545:Y 5.34125e-05
4 *64:8 0.000248883
5 *549:C *549:D 0.000220546
6 *549:C *73:14 0.000265888
7 *850:A *80:16 6.08467e-05
8 *64:8 *549:D 0.000143047
9 *64:8 *73:14 0.000134421
10 *549:B *549:C 0.000112367
*RES
1 *545:Y *64:8 16.4116 
2 *64:8 *549:C 19.7659 
3 *64:8 *850:A 14.4725 
*END

*D_NET *65 0.00206481
*CONN
*I *554:A1 I *D sky130_fd_sc_hd__o21bai_1
*I *859:A I *D sky130_fd_sc_hd__buf_4
*I *546:Y O *D sky130_fd_sc_hd__nor2b_1
*CAP
1 *554:A1 8.47389e-06
2 *859:A 0.000284779
3 *546:Y 0.000447347
4 *65:18 0.0007406
5 *554:A1 *73:14 1.31616e-05
6 *859:A *554:A2 7.92757e-06
7 *859:A *837:A 0.000118166
8 *859:A *73:14 0.000111708
9 *859:A *357:10 2.16355e-05
10 *65:18 *543:B_N 0
11 *65:18 *554:A2 3.82445e-05
12 *65:18 *588:A 3.61993e-05
13 *65:18 *849:A 2.39535e-05
14 *65:18 *922:A 0
15 *65:18 *73:14 3.35771e-06
16 *65:18 *356:10 5.481e-05
17 *65:18 *408:22 4.10689e-05
18 *65:18 *414:38 0.000113374
*RES
1 *546:Y *65:18 28.3999 
2 *65:18 *859:A 16.676 
3 *65:18 *554:A1 9.858 
*END

*D_NET *66 0.0026057
*CONN
*I *858:A I *D sky130_fd_sc_hd__buf_4
*I *554:B1_N I *D sky130_fd_sc_hd__o21bai_1
*I *547:Y O *D sky130_fd_sc_hd__nor2b_1
*CAP
1 *858:A 5.66153e-05
2 *554:B1_N 0.000110614
3 *547:Y 0.000475804
4 *66:8 0.000643034
5 *554:B1_N *588:A 3.31733e-05
6 *554:B1_N *702:DE 0.000107729
7 *554:B1_N *846:A 0
8 *554:B1_N *89:21 0
9 *554:B1_N *408:22 0.000115885
10 *858:A *588:A 0.000169108
11 *858:A *702:DE 0.000160482
12 *66:8 *702:DE 5.20546e-06
13 *66:8 *99:10 0.000728046
*RES
1 *547:Y *66:8 26.1192 
2 *66:8 *554:B1_N 17.6574 
3 *66:8 *858:A 16.8269 
*END

*D_NET *67 0.0055099
*CONN
*I *549:D I *D sky130_fd_sc_hd__nand4_1
*I *849:A I *D sky130_fd_sc_hd__buf_4
*I *548:Y O *D sky130_fd_sc_hd__nor2_1
*CAP
1 *549:D 0.000616901
2 *849:A 0.000265643
3 *548:Y 0.000468932
4 *67:6 0.00135148
5 *549:D *562:A1 1.9414e-05
6 *549:D *562:B1 0.000413352
7 *549:D *961:A 0
8 *549:D *73:14 7.47287e-05
9 *549:D *80:16 0.000289565
10 *849:A *562:C1 9.43419e-05
11 *849:A *408:22 0.000295076
12 *849:A *414:38 0.000543087
13 *67:6 *548:B 0.000114271
14 *67:6 *562:B1 0.000575564
15 *549:C *549:D 0.000220546
16 *64:8 *549:D 0.000143047
17 *65:18 *849:A 2.39535e-05
*RES
1 *548:Y *67:6 17.1824 
2 *67:6 *849:A 29.2167 
3 *67:6 *549:D 33.8251 
*END

*D_NET *68 0.000211438
*CONN
*I *556:A1 I *D sky130_fd_sc_hd__o21ai_4
*I *549:Y O *D sky130_fd_sc_hd__nand4_1
*CAP
1 *556:A1 0.000105719
2 *549:Y 0.000105719
*RES
1 *549:Y *556:A1 29.7455 
*END

*D_NET *69 0.000592686
*CONN
*I *553:A2 I *D sky130_fd_sc_hd__a21oi_1
*I *550:Y O *D sky130_fd_sc_hd__nand2b_1
*CAP
1 *553:A2 7.26708e-05
2 *550:Y 7.26708e-05
3 *553:A2 *550:B 2.63241e-07
4 *553:A2 *908:A 4.90394e-05
5 *553:A2 *172:20 0.000137038
6 *553:A2 *391:31 0.000261004
*RES
1 *550:Y *553:A2 22.0188 
*END

*D_NET *70 0.000373708
*CONN
*I *552:A2 I *D sky130_fd_sc_hd__a21oi_1
*I *551:Y O *D sky130_fd_sc_hd__nor2_1
*CAP
1 *552:A2 0.000137608
2 *551:Y 0.000137608
3 *552:A2 *552:A1 9.84918e-05
*RES
1 *551:Y *552:A2 22.0188 
*END

*D_NET *71 0.000567012
*CONN
*I *553:B1 I *D sky130_fd_sc_hd__a21oi_1
*I *552:Y O *D sky130_fd_sc_hd__a21oi_1
*CAP
1 *553:B1 0.000164214
2 *552:Y 0.000164214
3 *553:B1 *552:B1 2.57986e-05
4 *553:B1 *173:12 5.92342e-05
5 *553:B1 *272:12 5.99658e-05
6 *553:B1 *389:20 2.99287e-05
7 *553:B1 *391:37 6.3657e-05
*RES
1 *552:Y *553:B1 32.4381 
*END

*D_NET *72 0.0025265
*CONN
*I *554:A2 I *D sky130_fd_sc_hd__o21bai_1
*I *553:Y O *D sky130_fd_sc_hd__a21oi_1
*CAP
1 *554:A2 0.000684845
2 *553:Y 0.000684845
3 *554:A2 *543:B_N 0.000354455
4 *554:A2 *891:A 4.66889e-05
5 *554:A2 *73:14 5.85132e-05
6 *554:A2 *389:20 0.000306063
7 *554:A2 *391:37 8.96637e-05
8 *859:A *554:A2 7.92757e-06
9 *62:10 *554:A2 0.000255255
10 *65:18 *554:A2 3.82445e-05
*RES
1 *553:Y *554:A2 37.403 
*END

*D_NET *73 0.00420722
*CONN
*I *555:C I *D sky130_fd_sc_hd__maj3_1
*I *554:Y O *D sky130_fd_sc_hd__o21bai_1
*CAP
1 *555:C 0
2 *554:Y 0.00102442
3 *73:14 0.00102442
4 *73:14 *543:A 0.000117901
5 *73:14 *543:B_N 2.41274e-06
6 *73:14 *556:B1 0.000203595
7 *73:14 *591:A0 0
8 *73:14 *856:A 4.71892e-05
9 *73:14 *922:A 5.39325e-05
10 *73:14 *80:16 2.43971e-05
11 *73:14 *191:14 2.37851e-05
12 *73:14 *354:24 0.000296243
13 *73:14 *354:41 7.01935e-06
14 *73:14 *412:94 7.62627e-06
15 *73:14 *424:33 3.31733e-05
16 *73:14 *452:37 0.000165521
17 *545:A *73:14 5.92192e-05
18 *545:B_N *73:14 9.2346e-06
19 *549:C *73:14 0.000265888
20 *549:D *73:14 7.47287e-05
21 *554:A1 *73:14 1.31616e-05
22 *554:A2 *73:14 5.85132e-05
23 *859:A *73:14 0.000111708
24 *62:10 *73:14 0.000445351
25 *64:8 *73:14 0.000134421
26 *65:18 *73:14 3.35771e-06
*RES
1 *554:Y *73:14 47.9787 
2 *73:14 *555:C 9.24915 
*END

*D_NET *74 0.00165727
*CONN
*I *556:B1 I *D sky130_fd_sc_hd__o21ai_4
*I *555:X O *D sky130_fd_sc_hd__maj3_1
*CAP
1 *556:B1 0.000609632
2 *555:X 0.000609632
3 *556:B1 *556:A2 0.000109649
4 *556:B1 *711:DE 1.83827e-06
5 *556:B1 *354:41 0.000122925
6 *73:14 *556:B1 0.000203595
*RES
1 *555:X *556:B1 29.084 
*END

*D_NET *75 0.00107737
*CONN
*I *568:A I *D sky130_fd_sc_hd__maj3_2
*I *942:A I *D sky130_fd_sc_hd__buf_6
*I *556:Y O *D sky130_fd_sc_hd__o21ai_4
*CAP
1 *568:A 7.68849e-05
2 *942:A 5.84876e-05
3 *556:Y 0.000175018
4 *75:12 0.000310391
5 *568:A *842:A 5.75773e-05
6 *568:A *905:A 1.07248e-05
7 *568:A *354:41 0.000166023
8 *942:A *884:A 2.22974e-05
9 *75:12 *884:A 3.85659e-05
10 *75:12 *86:40 0.000161402
11 *75:12 *354:41 0
*RES
1 *556:Y *75:12 23.1595 
2 *75:12 *942:A 10.5271 
3 *75:12 *568:A 21.3269 
*END

*D_NET *76 0.00117115
*CONN
*I *558:A I *D sky130_fd_sc_hd__xnor2_2
*I *557:X O *D sky130_fd_sc_hd__xor2_1
*CAP
1 *558:A 0.000344413
2 *557:X 0.000344413
3 *558:A *558:B 0.000213725
4 *558:A *567:A 4.27031e-05
5 *558:A *675:A 2.65831e-05
6 *558:A *675:B 5.51483e-06
7 *558:A *85:10 1.85511e-05
8 *558:A *354:41 0.000175244
*RES
1 *557:X *558:A 37.0384 
*END

*D_NET *77 0.00858092
*CONN
*I *856:A I *D sky130_fd_sc_hd__buf_4
*I *922:A I *D sky130_fd_sc_hd__buf_4
*I *577:B I *D sky130_fd_sc_hd__or4_1
*I *572:C I *D sky130_fd_sc_hd__nor3_1
*I *559:Y O *D sky130_fd_sc_hd__nand2b_1
*CAP
1 *856:A 0.000524514
2 *922:A 0.000958269
3 *577:B 0
4 *572:C 3.08534e-05
5 *559:Y 0.000302357
6 *77:34 0.00192903
7 *77:25 0.000654337
8 *77:10 0.000541298
9 *572:C *570:A1 6.50586e-05
10 *572:C *570:B1 6.08467e-05
11 *572:C *578:D1 1.41853e-05
12 *572:C *81:8 0.000160617
13 *856:A *354:24 0.00053717
14 *856:A *414:38 0
15 *856:A *452:37 0.000214979
16 *922:A *562:C1 4.70559e-05
17 *922:A *588:B 0.000179286
18 *922:A *822:A 0.000334477
19 *922:A *408:22 0
20 *922:A *414:38 0.000107622
21 *922:A *424:33 2.94426e-05
22 *922:A *424:44 9.562e-06
23 *922:A *424:46 8.21849e-06
24 *77:10 *490:A 1.13587e-05
25 *77:10 *570:C1 9.89461e-05
26 *77:10 *577:D 7.50872e-05
27 *77:10 *84:8 0.000292098
28 *77:10 *84:37 2.09495e-05
29 *77:10 *266:23 1.50924e-05
30 *77:25 *575:B1 6.71192e-05
31 *77:25 *577:D 0.000135905
32 *77:25 *580:B 0.000113968
33 *77:25 *84:37 5.05252e-05
34 *77:25 *175:17 2.18741e-05
35 *77:34 *580:B 9.97706e-05
36 *77:34 *354:24 0.000182059
37 *494:B1 *77:10 1.91768e-05
38 *545:B_N *856:A 9.6872e-05
39 *545:B_N *922:A 0
40 *860:A *922:A 0.000109951
41 *861:A *77:34 0.000111722
42 *24:8 *77:10 8.90427e-05
43 *62:10 *922:A 0.000159098
44 *65:18 *922:A 0
45 *73:14 *856:A 4.71892e-05
46 *73:14 *922:A 5.39325e-05
*RES
1 *559:Y *77:10 22.1209 
2 *77:10 *572:C 15.5817 
3 *77:10 *77:25 10.1015 
4 *77:25 *577:B 9.24915 
5 *77:25 *77:34 11.8786 
6 *77:34 *922:A 39.8368 
7 *77:34 *856:A 28.0387 
*END

*D_NET *79 0.0040331
*CONN
*I *562:A2 I *D sky130_fd_sc_hd__a211oi_2
*I *571:A1 I *D sky130_fd_sc_hd__a21o_1
*I *961:A I *D sky130_fd_sc_hd__buf_4
*I *561:X O *D sky130_fd_sc_hd__maj3_2
*CAP
1 *562:A2 3.17585e-05
2 *571:A1 0.000716265
3 *961:A 0.000196979
4 *561:X 0.000316359
5 *79:10 0.00102839
6 *79:6 0.000463265
7 *562:A2 *561:C 1.0759e-05
8 *571:A1 *571:B1 0.000169041
9 *571:A1 *921:A 7.48633e-05
10 *571:A1 *354:24 2.36617e-05
11 *571:A1 *359:6 0.00020457
12 *961:A *921:A 1.57972e-05
13 *961:A *80:16 0
14 *961:A *452:37 0.000264583
15 *79:6 *561:C 0.00025527
16 *79:6 *700:CLK 4.90394e-05
17 *79:6 *86:48 2.26713e-06
18 *79:10 *80:16 0
19 *79:10 *452:37 0.000132291
20 *545:B_N *571:A1 6.50727e-05
21 *549:D *961:A 0
22 *561:A *79:10 0
23 *861:A *571:A1 1.287e-05
*RES
1 *561:X *79:6 14.4094 
2 *79:6 *79:10 7.993 
3 *79:10 *961:A 19.7337 
4 *79:10 *571:A1 25.01 
5 *79:6 *562:A2 10.2378 
*END

*D_NET *80 0.00188904
*CONN
*I *839:A I *D sky130_fd_sc_hd__buf_4
*I *563:A I *D sky130_fd_sc_hd__nor2_1
*I *562:Y O *D sky130_fd_sc_hd__a211oi_2
*CAP
1 *839:A 0
2 *563:A 1.90838e-05
3 *562:Y 0.000711501
4 *80:16 0.000730585
5 *563:A *337:8 1.84293e-05
6 *80:16 *570:A1 0
7 *80:16 *590:A 7.34948e-06
8 *80:16 *337:8 1.40978e-05
9 *80:16 *354:24 1.31872e-05
10 *549:D *80:16 0.000289565
11 *850:A *80:16 6.08467e-05
12 *961:A *80:16 0
13 *73:14 *80:16 2.43971e-05
14 *79:10 *80:16 0
*RES
1 *562:Y *80:16 34.8635 
2 *80:16 *563:A 9.97254 
3 *80:16 *839:A 9.24915 
*END

*D_NET *81 0.0022391
*CONN
*I *578:A1 I *D sky130_fd_sc_hd__o2111ai_1
*I *582:A I *D sky130_fd_sc_hd__xnor2_1
*I *563:Y O *D sky130_fd_sc_hd__nor2_1
*CAP
1 *578:A1 0
2 *582:A 0.00013041
3 *563:Y 0.000231141
4 *81:8 0.000361552
5 *582:A *578:B1 7.40952e-05
6 *582:A *578:C1 4.73195e-05
7 *582:A *578:D1 2.54243e-05
8 *582:A *581:C1 0.000149049
9 *582:A *582:B 0.000273152
10 *582:A *823:A 2.41483e-05
11 *81:8 *563:B 0.000164843
12 *81:8 *570:A1 1.41853e-05
13 *81:8 *570:B1 1.65872e-05
14 *81:8 *570:D1 0.000113968
15 *81:8 *575:B1 6.50586e-05
16 *81:8 *578:B1 7.5301e-06
17 *81:8 *578:D1 1.34424e-05
18 *81:8 *84:37 0.000356487
19 *81:8 *337:8 1.00937e-05
20 *572:C *81:8 0.000160617
*RES
1 *563:Y *81:8 17.7611 
2 *81:8 *582:A 16.0732 
3 *81:8 *578:A1 9.24915 
*END

*D_NET *82 0.000759491
*CONN
*I *569:B I *D sky130_fd_sc_hd__nand4_1
*I *580:A I *D sky130_fd_sc_hd__nor3_1
*I *564:Y O *D sky130_fd_sc_hd__inv_1
*CAP
1 *569:B 0.000157716
2 *580:A 5.15982e-05
3 *564:Y 0
4 *82:4 0.000209314
5 *569:B *564:A 0.000102925
6 *569:B *569:D 6.36477e-05
7 *569:B *84:37 8.62753e-05
8 *580:A *564:A 6.60539e-05
9 *580:A *580:B 2.19616e-05
*RES
1 *564:Y *82:4 9.24915 
2 *82:4 *580:A 10.8044 
3 *82:4 *569:B 13.6016 
*END

*D_NET *83 0.00335702
*CONN
*I *566:B I *D sky130_fd_sc_hd__nor2_1
*I *855:A I *D sky130_fd_sc_hd__buf_4
*I *565:Y O *D sky130_fd_sc_hd__inv_1
*CAP
1 *566:B 0.000376329
2 *855:A 9.21622e-05
3 *565:Y 0.000232966
4 *83:10 0.000701457
5 *566:B *559:B 0.000373291
6 *566:B *671:B1 0
7 *566:B *703:CLK 0.000452038
8 *566:B *853:A 0
9 *566:B *950:A 5.20167e-05
10 *566:B *169:10 8.62625e-06
11 *566:B *169:19 0.000161966
12 *566:B *351:24 0.000209221
13 *566:B *445:8 6.3657e-05
14 *855:A *671:A2 7.58194e-05
15 *855:A *673:A1 2.07365e-05
16 *855:A *444:14 6.08467e-05
17 *83:10 *158:24 0.00023957
18 *83:10 *169:10 0.000130732
19 *83:10 *240:26 0
20 *83:10 *444:14 0.000105589
*RES
1 *565:Y *83:10 19.0762 
2 *83:10 *855:A 16.691 
3 *83:10 *566:B 28.6312 
*END

*D_NET *84 0.00497206
*CONN
*I *569:C I *D sky130_fd_sc_hd__nand4_1
*I *848:A I *D sky130_fd_sc_hd__buf_4
*I *570:B1 I *D sky130_fd_sc_hd__o2111ai_1
*I *566:Y O *D sky130_fd_sc_hd__nor2_1
*CAP
1 *569:C 0
2 *848:A 0.000569267
3 *570:B1 3.00134e-05
4 *566:Y 0.000348248
5 *84:37 0.000959059
6 *84:8 0.000768054
7 *570:B1 *578:D1 0.000107496
8 *848:A *578:C1 0.000330548
9 *848:A *920:A 0.000307799
10 *848:A *346:10 6.46815e-05
11 *848:A *351:24 0.000177417
12 *848:A *427:14 1.36815e-05
13 *84:8 *570:C1 1.53822e-05
14 *84:8 *572:B 1.72464e-05
15 *84:8 *578:D1 1.09738e-05
16 *84:8 *408:22 0
17 *84:37 *564:A 0.000135086
18 *84:37 *575:B1 8.62625e-06
19 *84:37 *578:A2 7.86847e-05
20 *84:37 *578:D1 2.33193e-05
21 *84:37 *388:31 0.000122714
22 *569:B *84:37 8.62753e-05
23 *572:C *570:B1 6.08467e-05
24 *77:10 *84:8 0.000292098
25 *77:10 *84:37 2.09495e-05
26 *77:25 *84:37 5.05252e-05
27 *81:8 *570:B1 1.65872e-05
28 *81:8 *84:37 0.000356487
*RES
1 *566:Y *84:8 22.6404 
2 *84:8 *570:B1 15.0271 
3 *84:8 *84:37 23.5433 
4 *84:37 *848:A 34.8394 
5 *84:37 *569:C 9.24915 
*END

*D_NET *85 0.00311649
*CONN
*I *568:C I *D sky130_fd_sc_hd__maj3_2
*I *675:A I *D sky130_fd_sc_hd__xnor2_2
*I *567:Y O *D sky130_fd_sc_hd__inv_1
*CAP
1 *568:C 0.000109784
2 *675:A 0.000226204
3 *567:Y 0.00035913
4 *85:10 0.000695118
5 *568:C *86:16 0.000111358
6 *568:C *86:40 5.05252e-05
7 *568:C *176:14 9.7431e-05
8 *568:C *351:52 6.08467e-05
9 *675:A *675:B 0.00089338
10 *675:A *275:8 9.81263e-05
11 *85:10 *688:D 1.82679e-05
12 *85:10 *688:DE 3.14954e-05
13 *85:10 *86:16 0.000265917
14 *85:10 *158:18 8.36586e-06
15 *85:10 *176:14 4.54077e-05
16 *558:A *675:A 2.65831e-05
17 *558:A *85:10 1.85511e-05
*RES
1 *567:Y *85:10 21.707 
2 *85:10 *675:A 23.9249 
3 *85:10 *568:C 17.5503 
*END

*D_NET *86 0.014283
*CONN
*I *917:A I *D sky130_fd_sc_hd__buf_6
*I *835:A I *D sky130_fd_sc_hd__buf_6
*I *932:A I *D sky130_fd_sc_hd__buf_6
*I *933:A I *D sky130_fd_sc_hd__buf_4
*I *937:A I *D sky130_fd_sc_hd__buf_6
*I *918:A I *D sky130_fd_sc_hd__buf_8
*I *568:X O *D sky130_fd_sc_hd__maj3_2
*CAP
1 *917:A 0.00100011
2 *835:A 0.000157063
3 *932:A 0
4 *933:A 6.16401e-05
5 *937:A 0
6 *918:A 0.000126895
7 *568:X 0
8 *86:48 0.00124049
9 *86:40 0.00217086
10 *86:16 0.00128543
11 *86:8 0.00203867
12 *86:4 0.0010453
13 *835:A *405:14 6.46815e-05
14 *917:A *595:A 1.84293e-05
15 *917:A *157:14 0.000239162
16 *917:A *271:8 0
17 *917:A *351:52 0.000213725
18 *917:A *408:81 0.000194664
19 *918:A *919:A 6.50727e-05
20 *918:A *453:18 1.69932e-05
21 *933:A *575:B1 0.000166836
22 *933:A *357:10 0.000109651
23 *933:A *357:12 5.37077e-05
24 *86:8 *351:52 6.08467e-05
25 *86:16 *688:D 0.000251341
26 *86:16 *905:A 5.04879e-05
27 *86:16 *919:A 5.03285e-05
28 *86:16 *158:18 2.18698e-05
29 *86:16 *164:12 8.78089e-05
30 *86:16 *354:41 4.79303e-05
31 *86:16 *354:47 7.5987e-05
32 *86:40 *561:C 0.0001255
33 *86:40 *842:A 0.000151418
34 *86:40 *905:A 1.37925e-05
35 *86:40 *921:A 0
36 *86:40 *165:18 1.32315e-05
37 *86:40 *351:135 0
38 *86:40 *393:14 0.000203833
39 *86:40 *452:37 0
40 *86:48 *548:A 2.16355e-05
41 *86:48 *562:A1 0.000312136
42 *86:48 *562:B1 3.64496e-05
43 *86:48 *562:C1 0.000247443
44 *86:48 *571:A2 1.58551e-05
45 *86:48 *700:CLK 8.97568e-05
46 *86:48 *427:14 0.000121391
47 *470:A1 *918:A 0.00012568
48 *470:A1 *86:16 6.7584e-05
49 *470:C1 *86:16 3.14978e-05
50 *561:A *86:40 5.88181e-05
51 *561:B *86:40 0.00011428
52 *561:B *86:48 2.58616e-05
53 *568:C *86:16 0.000111358
54 *568:C *86:40 5.05252e-05
55 *960:A *86:16 0.000880308
56 *58:16 *917:A 0.00011911
57 *75:12 *86:40 0.000161402
58 *79:6 *86:48 2.26713e-06
59 *85:10 *86:16 0.000265917
*RES
1 *568:X *86:4 9.24915 
2 *86:4 *86:8 5.2234 
3 *86:8 *86:16 39.0794 
4 *86:16 *918:A 22.0503 
5 *86:16 *937:A 9.24915 
6 *86:8 *86:40 23.0831 
7 *86:40 *86:48 24.1281 
8 *86:48 *933:A 21.3269 
9 *86:48 *932:A 9.24915 
10 *86:40 *835:A 17.2744 
11 *86:4 *917:A 37.1611 
*END

*D_NET *87 0.000336275
*CONN
*I *578:A2 I *D sky130_fd_sc_hd__o2111ai_1
*I *569:Y O *D sky130_fd_sc_hd__nand4_1
*CAP
1 *578:A2 6.00509e-05
2 *569:Y 6.00509e-05
3 *578:A2 *578:C1 7.50872e-05
4 *578:A2 *351:24 2.92277e-05
5 *578:A2 *388:16 1.44467e-05
6 *578:A2 *388:31 1.87269e-05
7 *84:37 *578:A2 7.86847e-05
*RES
1 *569:Y *578:A2 30.1608 
*END

*D_NET *88 0.000513086
*CONN
*I *578:B1 I *D sky130_fd_sc_hd__o2111ai_1
*I *570:Y O *D sky130_fd_sc_hd__o2111ai_1
*CAP
1 *578:B1 6.00047e-05
2 *570:Y 6.00047e-05
3 *578:B1 *570:D1 2.65831e-05
4 *578:B1 *578:D1 0.000284868
5 *582:A *578:B1 7.40952e-05
6 *81:8 *578:B1 7.5301e-06
*RES
1 *570:Y *578:B1 22.0188 
*END

*D_NET *89 0.00327498
*CONN
*I *846:A I *D sky130_fd_sc_hd__buf_6
*I *837:A I *D sky130_fd_sc_hd__buf_6
*I *575:A2 I *D sky130_fd_sc_hd__o2111ai_2
*I *571:X O *D sky130_fd_sc_hd__a21o_1
*CAP
1 *846:A 9.30903e-05
2 *837:A 0.000608403
3 *575:A2 0.00016786
4 *571:X 0.00021933
5 *89:21 0.00088837
6 *89:8 0.000574067
7 *575:A2 *575:B1 4.55869e-05
8 *575:A2 *575:C1 2.37827e-05
9 *837:A *574:B 1.04572e-05
10 *837:A *575:D1 2.72122e-05
11 *846:A *702:DE 0
12 *846:A *356:10 0
13 *89:8 *571:A2 0
14 *89:8 *357:10 9.43419e-05
15 *89:8 *357:12 0.000197653
16 *89:21 *356:10 0
17 *89:21 *357:10 0.00020666
18 *89:21 *408:22 0
19 *554:B1_N *846:A 0
20 *554:B1_N *89:21 0
21 *859:A *837:A 0.000118166
*RES
1 *571:X *89:8 19.3184 
2 *89:8 *575:A2 17.2697 
3 *89:8 *89:21 5.15401 
4 *89:21 *837:A 23.2256 
5 *89:21 *846:A 15.9964 
*END

*D_NET *90 0.00182861
*CONN
*I *575:B1 I *D sky130_fd_sc_hd__o2111ai_2
*I *572:Y O *D sky130_fd_sc_hd__nor3_1
*CAP
1 *575:B1 0.000396865
2 *572:Y 0.000396865
3 *575:B1 *575:C1 0.000268947
4 *575:B1 *578:D1 7.50872e-05
5 *575:B1 *175:17 0
6 *575:B1 *356:10 3.20264e-05
7 *575:B1 *356:14 0.000208834
8 *575:B1 *357:10 8.70662e-06
9 *575:B1 *357:12 7.10625e-05
10 *575:B1 *357:16 1.69932e-05
11 *575:A2 *575:B1 4.55869e-05
12 *933:A *575:B1 0.000166836
13 *77:25 *575:B1 6.71192e-05
14 *81:8 *575:B1 6.50586e-05
15 *84:37 *575:B1 8.62625e-06
*RES
1 *572:Y *575:B1 41.0487 
*END

*D_NET *92 0.000990411
*CONN
*I *575:D1 I *D sky130_fd_sc_hd__o2111ai_2
*I *574:Y O *D sky130_fd_sc_hd__nand2b_1
*CAP
1 *575:D1 0.000473877
2 *574:Y 0.000473877
3 *575:D1 *574:B 8.89292e-06
4 *575:D1 *575:C1 6.55197e-06
5 *837:A *575:D1 2.72122e-05
*RES
1 *574:Y *575:D1 35.6533 
*END

*D_NET *93 0.00131225
*CONN
*I *578:C1 I *D sky130_fd_sc_hd__o2111ai_1
*I *575:Y O *D sky130_fd_sc_hd__o2111ai_2
*CAP
1 *578:C1 0.000346209
2 *575:Y 0.000346209
3 *578:C1 *175:17 0
4 *578:C1 *351:24 8.11008e-05
5 *578:C1 *404:8 7.8686e-05
6 *578:C1 *404:20 7.08723e-06
7 *578:A2 *578:C1 7.50872e-05
8 *582:A *578:C1 4.73195e-05
9 *848:A *578:C1 0.000330548
*RES
1 *575:Y *578:C1 37.2523 
*END

*D_NET *94 0.000507033
*CONN
*I *577:C I *D sky130_fd_sc_hd__or4_1
*I *576:Y O *D sky130_fd_sc_hd__nand2_1
*CAP
1 *577:C 2.84808e-05
2 *576:Y 2.84808e-05
3 *577:C *572:A 0.000167076
4 *577:C *580:B 0.000217937
5 *577:C *404:20 6.50586e-05
*RES
1 *576:Y *577:C 20.8855 
*END

*D_NET *95 0.00218091
*CONN
*I *578:D1 I *D sky130_fd_sc_hd__o2111ai_1
*I *577:X O *D sky130_fd_sc_hd__or4_1
*CAP
1 *578:D1 0.00056775
2 *577:X 0.00056775
3 *578:D1 *570:A1 6.50586e-05
4 *578:D1 *570:D1 1.27202e-05
5 *578:D1 *572:A 6.51583e-05
6 *578:D1 *572:B 8.62625e-06
7 *578:D1 *577:D 0.000107496
8 *578:D1 *823:A 0
9 *578:D1 *337:8 0.00011818
10 *578:D1 *357:16 0.000113374
11 *570:B1 *578:D1 0.000107496
12 *572:C *578:D1 1.41853e-05
13 *575:B1 *578:D1 7.50872e-05
14 *578:B1 *578:D1 0.000284868
15 *582:A *578:D1 2.54243e-05
16 *81:8 *578:D1 1.34424e-05
17 *84:8 *578:D1 1.09738e-05
18 *84:37 *578:D1 2.33193e-05
*RES
1 *577:X *578:D1 40.9688 
*END

*D_NET *96 0.00105336
*CONN
*I *581:C1 I *D sky130_fd_sc_hd__a211o_1
*I *578:Y O *D sky130_fd_sc_hd__o2111ai_1
*CAP
1 *581:C1 0.000429353
2 *578:Y 0.000429353
3 *581:C1 *580:C 5.22654e-06
4 *581:C1 *823:A 4.03749e-05
5 *581:C1 *424:68 0
6 *582:A *581:C1 0.000149049
*RES
1 *578:Y *581:C1 35.4604 
*END

*D_NET *98 0.000268577
*CONN
*I *581:B1 I *D sky130_fd_sc_hd__a211o_1
*I *580:Y O *D sky130_fd_sc_hd__nor3_1
*CAP
1 *581:B1 8.99244e-05
2 *580:Y 8.99244e-05
3 *581:B1 *564:A 0
4 *581:B1 *581:A1 1.64789e-05
5 *581:B1 *581:A2 7.22498e-05
*RES
1 *580:Y *581:B1 21.4883 
*END

*D_NET *99 0.0029504
*CONN
*I *584:A1 I *D sky130_fd_sc_hd__a21bo_1
*I *585:C I *D sky130_fd_sc_hd__nand3b_1
*I *583:X O *D sky130_fd_sc_hd__xor2_2
*CAP
1 *584:A1 2.06324e-05
2 *585:C 8.37528e-05
3 *583:X 0.00054223
4 *99:10 0.000646615
5 *585:C *585:A_N 0.000182869
6 *585:C *585:B 8.07939e-05
7 *585:C *390:29 1.31657e-05
8 *99:10 *583:A 0.000179299
9 *99:10 *587:A1 0.000171288
10 *99:10 *587:A2 7.92757e-06
11 *99:10 *587:A3 2.83665e-05
12 *99:10 *686:D 4.03114e-05
13 *99:10 *390:29 0.000225104
14 *66:8 *99:10 0.000728046
*RES
1 *583:X *99:10 29.022 
2 *99:10 *585:C 22.0503 
3 *99:10 *584:A1 9.82786 
*END

*D_NET *100 0.000349674
*CONN
*I *587:A1 I *D sky130_fd_sc_hd__a31oi_1
*I *584:X O *D sky130_fd_sc_hd__a21bo_1
*CAP
1 *587:A1 1.83875e-05
2 *584:X 1.83875e-05
3 *587:A1 *587:A2 1.92336e-05
4 *587:A1 *587:A3 0.000122378
5 *99:10 *587:A1 0.000171288
*RES
1 *584:X *587:A1 20.3309 
*END

*D_NET *101 0.000788294
*CONN
*I *587:A2 I *D sky130_fd_sc_hd__a31oi_1
*I *585:Y O *D sky130_fd_sc_hd__nand3b_1
*CAP
1 *587:A2 8.00523e-05
2 *585:Y 8.00523e-05
3 *587:A2 *585:B 0.000151741
4 *587:A2 *587:A3 6.92705e-05
5 *587:A2 *390:29 0.000169041
6 *587:A2 *418:10 3.67708e-05
7 *587:A2 *424:62 0.000174205
8 *587:A1 *587:A2 1.92336e-05
9 *99:10 *587:A2 7.92757e-06
*RES
1 *585:Y *587:A2 32.4086 
*END

*D_NET *102 0.000485787
*CONN
*I *587:B1 I *D sky130_fd_sc_hd__a31oi_1
*I *586:Y O *D sky130_fd_sc_hd__nor2_1
*CAP
1 *587:B1 9.00731e-05
2 *586:Y 9.00731e-05
3 *587:B1 *586:A 6.50727e-05
4 *587:B1 *587:A3 0.000118485
5 *587:B1 *686:DE 0.000122083
*RES
1 *586:Y *587:B1 30.4689 
*END

*D_NET *104 0.000970111
*CONN
*I *594:A2 I *D sky130_fd_sc_hd__o21ai_1
*I *591:Y O *D sky130_fd_sc_hd__mux2i_1
*CAP
1 *594:A2 0.000329076
2 *591:Y 0.000329076
3 *594:A2 *591:A0 3.14978e-05
4 *594:A2 *821:A 0.000138919
5 *594:A2 *190:14 0.000141544
6 *594:A2 *424:44 0
7 *594:A2 *424:46 0
*RES
1 *591:Y *594:A2 36.6977 
*END

*D_NET *106 0.000238072
*CONN
*I *594:B1 I *D sky130_fd_sc_hd__o21ai_1
*I *593:Y O *D sky130_fd_sc_hd__nand2_1
*CAP
1 *594:B1 6.28523e-05
2 *593:Y 6.28523e-05
3 *594:B1 *420:13 0.000112367
*RES
1 *593:Y *594:B1 20.3309 
*END

*D_NET *107 0.00265468
*CONN
*I *598:A2 I *D sky130_fd_sc_hd__o21ai_1
*I *596:Y O *D sky130_fd_sc_hd__mux2i_1
*CAP
1 *598:A2 0.000486879
2 *596:Y 0.000486879
3 *598:A2 *499:A 6.50727e-05
4 *598:A2 *551:B 0.000202596
5 *598:A2 *598:A1 5.37082e-05
6 *598:A2 *820:A 0.000339685
7 *30:16 *598:A2 0.00101986
*RES
1 *596:Y *598:A2 48.3248 
*END

*D_NET *108 0.000562444
*CONN
*I *598:B1 I *D sky130_fd_sc_hd__o21ai_1
*I *597:Y O *D sky130_fd_sc_hd__nand2_1
*CAP
1 *598:B1 0.000131526
2 *597:Y 0.000131526
3 *598:B1 *499:A 6.27718e-05
4 *598:B1 *683:CLK 0
5 *598:B1 *956:A 0.000109427
6 *598:B1 *420:54 0.000127194
*RES
1 *597:Y *598:B1 31.5781 
*END

*D_NET *109 0.00241168
*CONN
*I *605:A2 I *D sky130_fd_sc_hd__a32o_1
*I *614:A2 I *D sky130_fd_sc_hd__a31oi_4
*I *625:A I *D sky130_fd_sc_hd__nand2_2
*I *599:Y O *D sky130_fd_sc_hd__nand2_1
*CAP
1 *605:A2 4.60069e-05
2 *614:A2 8.81418e-05
3 *625:A 0
4 *599:Y 0.00021597
5 *109:19 0.000442972
6 *109:10 0.000524794
7 *614:A2 *605:A1 6.23779e-05
8 *614:A2 *614:A3 0.000146927
9 *109:10 *625:B 1.07248e-05
10 *109:10 *182:43 0.00019327
11 *109:10 *410:141 3.58321e-05
12 *109:19 *605:A1 3.00174e-06
13 *109:19 *614:A3 8.36586e-06
14 *109:19 *625:B 0.000352853
15 *109:19 *626:A 9.20398e-05
16 *109:19 *626:B 0
17 *109:19 *695:CLK 5.2504e-06
18 *109:19 *111:25 0.00017561
19 *109:19 *115:24 3.87022e-06
20 *109:19 *410:141 3.67528e-06
*RES
1 *599:Y *109:10 18.3836 
2 *109:10 *625:A 13.7491 
3 *109:10 *109:19 10.5523 
4 *109:19 *614:A2 16.8269 
5 *109:19 *605:A2 14.4819 
*END

*D_NET *110 0.00190814
*CONN
*I *601:B1 I *D sky130_fd_sc_hd__a31oi_4
*I *600:Y O *D sky130_fd_sc_hd__nor2b_1
*CAP
1 *601:B1 0.000489504
2 *600:Y 0.000489504
3 *601:B1 *601:A1 0
4 *601:B1 *626:A 1.65872e-05
5 *601:B1 *694:DE 0.000177787
6 *601:B1 *695:CLK 0.000330242
7 *601:B1 *111:12 0.000318803
8 *601:B1 *282:10 1.61631e-05
9 *601:B1 *410:141 0
10 *41:14 *601:B1 6.95512e-05
*RES
1 *600:Y *601:B1 42.6887 
*END

*D_NET *111 0.00462808
*CONN
*I *614:A3 I *D sky130_fd_sc_hd__a31oi_4
*I *605:A3 I *D sky130_fd_sc_hd__a32o_1
*I *944:A I *D sky130_fd_sc_hd__buf_6
*I *601:Y O *D sky130_fd_sc_hd__a31oi_4
*CAP
1 *614:A3 0.000101429
2 *605:A3 1.47608e-05
3 *944:A 8.59499e-05
4 *601:Y 0.000358944
5 *111:25 0.000242427
6 *111:12 0.00057113
7 *605:A3 *605:B1 6.08467e-05
8 *605:A3 *115:24 6.08467e-05
9 *614:A3 *605:B1 0.000134976
10 *614:A3 *362:8 0.000107496
11 *614:A3 *463:75 0.000107496
12 *944:A *415:12 0.000215118
13 *111:12 *627:A1 6.08467e-05
14 *111:12 *629:A2 0.000562431
15 *111:12 *694:DE 1.5254e-05
16 *111:12 *831:A 2.86829e-05
17 *111:12 *838:A 0.000111352
18 *111:12 *282:10 0.000183443
19 *111:12 *415:12 0.000693811
20 *601:B1 *111:12 0.000318803
21 *614:A2 *614:A3 0.000146927
22 *868:A *111:12 0.000261128
23 *109:19 *614:A3 8.36586e-06
24 *109:19 *111:25 0.00017561
*RES
1 *601:Y *111:12 36.3194 
2 *111:12 *944:A 12.2151 
3 *111:12 *111:25 7.993 
4 *111:25 *605:A3 14.4725 
5 *111:25 *614:A3 18.1049 
*END

*D_NET *112 0.00215954
*CONN
*I *604:C I *D sky130_fd_sc_hd__or3_1
*I *603:C I *D sky130_fd_sc_hd__or3_1
*I *614:B1 I *D sky130_fd_sc_hd__a31oi_4
*I *602:Y O *D sky130_fd_sc_hd__nor2b_1
*CAP
1 *604:C 3.8234e-05
2 *603:C 0.000121185
3 *614:B1 0.000215939
4 *602:Y 0.000160811
5 *112:25 0.000276319
6 *112:10 0.00049365
7 *603:C *603:B 7.16754e-05
8 *604:C *603:B 4.56831e-05
9 *614:B1 *362:8 0.000271044
10 *614:B1 *463:75 5.84241e-05
11 *112:10 *605:B1 0.000168511
12 *112:10 *183:40 0.000114584
13 *112:10 *378:23 3.16131e-05
14 *112:25 *604:A 1.39717e-06
15 *112:25 *605:B1 9.04668e-05
*RES
1 *602:Y *112:10 18.5201 
2 *112:10 *614:B1 19.4881 
3 *112:10 *112:25 7.57775 
4 *112:25 *603:C 12.191 
5 *112:25 *604:C 10.5271 
*END

*D_NET *113 0.00152641
*CONN
*I *605:B1 I *D sky130_fd_sc_hd__a32o_1
*I *603:X O *D sky130_fd_sc_hd__or3_1
*CAP
1 *605:B1 0.000304599
2 *603:X 0.000304599
3 *605:B1 *603:B 0.000109513
4 *605:B1 *115:24 8.35465e-05
5 *605:B1 *183:40 0.000263589
6 *605:B1 *355:12 1.77537e-06
7 *605:B1 *378:23 3.98648e-06
8 *605:A3 *605:B1 6.08467e-05
9 *614:A3 *605:B1 0.000134976
10 *112:10 *605:B1 0.000168511
11 *112:25 *605:B1 9.04668e-05
*RES
1 *603:X *605:B1 37.0289 
*END

*D_NET *114 0.000766578
*CONN
*I *605:B2 I *D sky130_fd_sc_hd__a32o_1
*I *604:X O *D sky130_fd_sc_hd__or3_1
*CAP
1 *605:B2 0.00028074
2 *604:X 0.00028074
3 *605:B2 *115:24 0.000123633
4 *522:B *605:B2 8.02509e-05
5 *522:D *605:B2 1.21461e-06
*RES
1 *604:X *605:B2 34.3456 
*END

*D_NET *115 0.00435217
*CONN
*I *606:B1 I *D sky130_fd_sc_hd__o311a_1
*I *605:X O *D sky130_fd_sc_hd__a32o_1
*CAP
1 *606:B1 0
2 *605:X 0.00104078
3 *115:24 0.00104078
4 *115:24 *605:A1 0.000161994
5 *115:24 *606:A2 2.30636e-05
6 *115:24 *606:A3 0.000432135
7 *115:24 *615:A 0
8 *115:24 *712:D 0.000227114
9 *115:24 *116:10 1.19185e-05
10 *115:24 *184:18 5.05252e-05
11 *115:24 *184:31 0.000318522
12 *115:24 *355:12 8.68133e-05
13 *115:24 *368:27 0.000301947
14 *115:24 *378:23 0.00025718
15 *522:C *115:24 0.000127497
16 *605:A3 *115:24 6.08467e-05
17 *605:B1 *115:24 8.35465e-05
18 *605:B2 *115:24 0.000123633
19 *109:19 *115:24 3.87022e-06
*RES
1 *605:X *115:24 48.963 
2 *115:24 *606:B1 9.24915 
*END

*D_NET *116 0.00149436
*CONN
*I *841:A I *D sky130_fd_sc_hd__buf_4
*I *612:A I *D sky130_fd_sc_hd__xor2_1
*I *606:X O *D sky130_fd_sc_hd__o311a_1
*CAP
1 *841:A 9.77342e-05
2 *612:A 4.56034e-05
3 *606:X 0.000278899
4 *116:10 0.000422236
5 *612:A *612:B 2.57986e-05
6 *612:A *350:24 0.000122325
7 *841:A *712:DE 7.16734e-05
8 *116:10 *606:A3 0.000208621
9 *116:10 *606:C1 2.48716e-05
10 *116:10 *712:D 4.1979e-08
11 *116:10 *712:DE 0.000160375
12 *31:35 *612:A 2.42585e-05
13 *31:35 *841:A 0
14 *31:35 *116:10 0
15 *115:24 *116:10 1.19185e-05
*RES
1 *606:X *116:10 19.7687 
2 *116:10 *612:A 15.9615 
3 *116:10 *841:A 16.4116 
*END

*D_NET *117 0.00287473
*CONN
*I *608:B I *D sky130_fd_sc_hd__nand2_1
*I *607:Y O *D sky130_fd_sc_hd__xnor2_1
*CAP
1 *608:B 0.000579479
2 *607:Y 0.000579479
3 *608:B *501:A 3.48806e-05
4 *608:B *521:A 0.000433163
5 *608:B *607:A 2.54623e-05
6 *608:B *608:A 7.60137e-05
7 *608:B *617:S 2.15184e-05
8 *608:B *699:DE 0
9 *608:B *171:16 0.000194219
10 *608:B *187:12 0.000733964
11 *608:B *414:110 3.59437e-05
12 *608:B *421:8 5.04829e-06
13 *31:6 *608:B 9.19075e-05
14 *31:35 *608:B 6.36477e-05
*RES
1 *607:Y *608:B 47.4281 
*END

*D_NET *118 0.000732998
*CONN
*I *609:B I *D sky130_fd_sc_hd__xor2_1
*I *608:Y O *D sky130_fd_sc_hd__nand2_1
*CAP
1 *609:B 0.000149398
2 *608:Y 0.000149398
3 *609:B *609:A 0.000168334
4 *609:B *185:14 0
5 *609:B *351:192 0.000121494
6 *609:B *394:33 0.000144375
*RES
1 *608:Y *609:B 33.0676 
*END

*D_NET *119 0.000708502
*CONN
*I *611:A2 I *D sky130_fd_sc_hd__o21ai_1
*I *609:X O *D sky130_fd_sc_hd__xor2_1
*CAP
1 *611:A2 0.000255404
2 *609:X 0.000255404
3 *611:A2 *683:D 6.27718e-05
4 *611:A2 *351:184 5.05094e-05
5 *611:A2 *351:192 8.44129e-05
*RES
1 *609:X *611:A2 34.4877 
*END

*D_NET *120 0.000705427
*CONN
*I *611:B1 I *D sky130_fd_sc_hd__o21ai_1
*I *610:Y O *D sky130_fd_sc_hd__nand2_1
*CAP
1 *611:B1 0.000262651
2 *610:Y 0.000262651
3 *611:B1 *683:D 0.00012448
4 *611:B1 *683:CLK 5.56461e-05
*RES
1 *610:Y *611:B1 32.6874 
*END

*D_NET *121 0.000983143
*CONN
*I *854:A I *D sky130_fd_sc_hd__buf_4
*I *615:B I *D sky130_fd_sc_hd__maj3_2
*I *613:Y O *D sky130_fd_sc_hd__inv_1
*CAP
1 *854:A 7.20764e-05
2 *615:B 0
3 *613:Y 8.69251e-05
4 *121:8 0.000159002
5 *854:A *616:A 4.66876e-05
6 *854:A *621:B 6.50727e-05
7 *854:A *666:A 7.92757e-06
8 *854:A *415:61 0.000266832
9 *121:8 *666:A 8.4101e-05
10 *121:8 *184:18 7.06457e-06
11 *121:8 *200:16 8.938e-05
12 *121:8 *377:21 0
13 *121:8 *415:61 9.80747e-05
*RES
1 *613:Y *121:8 13.047 
2 *121:8 *615:B 9.24915 
3 *121:8 *854:A 12.7456 
*END

*D_NET *122 0.000979192
*CONN
*I *615:A I *D sky130_fd_sc_hd__maj3_2
*I *943:A I *D sky130_fd_sc_hd__buf_6
*I *614:Y O *D sky130_fd_sc_hd__a31oi_4
*CAP
1 *615:A 0.000230521
2 *943:A 0
3 *614:Y 6.16587e-05
4 *122:6 0.000292179
5 *615:A *665:D 0.000106954
6 *615:A *415:61 9.35753e-06
7 *615:A *463:75 2.58616e-05
8 *122:6 *463:75 6.97525e-05
9 *522:C *615:A 0
10 *522:D *615:A 0.000143047
11 *35:12 *615:A 0
12 *41:14 *615:A 3.98606e-05
13 *115:24 *615:A 0
*RES
1 *614:Y *122:6 11.0817 
2 *122:6 *943:A 9.24915 
3 *122:6 *615:A 25.7876 
*END

*D_NET *123 0.00260674
*CONN
*I *616:A I *D sky130_fd_sc_hd__xnor2_2
*I *615:X O *D sky130_fd_sc_hd__maj3_2
*CAP
1 *616:A 0.000786322
2 *615:X 0.000786322
3 *616:A *621:A 0.000140499
4 *616:A *621:B 2.64056e-05
5 *616:A *696:CLK 0.000205984
6 *616:A *699:CLK 0.000537603
7 *616:A *351:194 0
8 *616:A *451:14 7.69206e-05
9 *854:A *616:A 4.66876e-05
*RES
1 *615:X *616:A 47.0902 
*END

*D_NET *124 0.0013271
*CONN
*I *619:A2 I *D sky130_fd_sc_hd__o21ai_1
*I *617:Y O *D sky130_fd_sc_hd__mux2i_1
*CAP
1 *619:A2 0.000414961
2 *617:Y 0.000414961
3 *619:A2 *619:B1 0.000117376
4 *619:A2 *956:A 1.4106e-05
5 *619:A2 *185:10 0.000106293
6 *619:A2 *185:14 0.000190483
7 *619:A2 *420:65 6.89158e-05
*RES
1 *617:Y *619:A2 38.2278 
*END

*D_NET *125 0.0012076
*CONN
*I *619:B1 I *D sky130_fd_sc_hd__o21ai_1
*I *618:Y O *D sky130_fd_sc_hd__nand2_1
*CAP
1 *619:B1 0.000294788
2 *618:Y 0.000294788
3 *619:B1 *683:CLK 4.66568e-05
4 *619:B1 *697:D 5.08824e-05
5 *619:B1 *420:65 0.000275749
6 *619:B1 *420:69 0.000127358
7 *619:A2 *619:B1 0.000117376
*RES
1 *618:Y *619:B1 36.0388 
*END

*D_NET *126 0.000491818
*CONN
*I *622:B1 I *D sky130_fd_sc_hd__a21oi_1
*I *621:Y O *D sky130_fd_sc_hd__nor2_1
*CAP
1 *622:B1 0.000138815
2 *621:Y 0.000138815
3 *622:B1 *696:D 9.60216e-05
4 *622:B1 *184:18 0.000118166
*RES
1 *621:Y *622:B1 30.6083 
*END

*D_NET *127 0.000859009
*CONN
*I *624:A2 I *D sky130_fd_sc_hd__o21ai_1
*I *622:Y O *D sky130_fd_sc_hd__a21oi_1
*CAP
1 *624:A2 0.000240218
2 *622:Y 0.000240218
3 *624:A2 *623:B 1.94224e-05
4 *624:A2 *696:D 0.00025014
5 *624:A2 *283:12 1.83757e-05
6 *624:A2 *351:202 8.02755e-05
7 *624:A2 *354:228 1.03594e-05
*RES
1 *622:Y *624:A2 34.3456 
*END

*D_NET *128 0.000606319
*CONN
*I *624:B1 I *D sky130_fd_sc_hd__o21ai_1
*I *623:Y O *D sky130_fd_sc_hd__nand2_1
*CAP
1 *624:B1 0.000140416
2 *623:Y 0.000140416
3 *624:B1 *509:S 0.000145927
4 *624:B1 *632:A 1.01689e-05
5 *624:B1 *632:B 7.09666e-06
6 *624:B1 *633:S 0.000158002
7 *624:B1 *696:D 4.29314e-06
*RES
1 *623:Y *624:B1 31.9934 
*END

*D_NET *129 0.000768595
*CONN
*I *626:A I *D sky130_fd_sc_hd__xnor2_2
*I *625:Y O *D sky130_fd_sc_hd__nand2_2
*CAP
1 *626:A 9.63567e-05
2 *625:Y 9.63567e-05
3 *626:A *626:B 0
4 *626:A *695:CLK 0.000295967
5 *601:B1 *626:A 1.65872e-05
6 *41:14 *626:A 0.000171288
7 *109:19 *626:A 9.20398e-05
*RES
1 *625:Y *626:A 32.8239 
*END

*D_NET *130 0.00184532
*CONN
*I *629:A2 I *D sky130_fd_sc_hd__o21ai_1
*I *627:Y O *D sky130_fd_sc_hd__mux2i_1
*CAP
1 *629:A2 0.000356447
2 *627:Y 0.000356447
3 *629:A2 *601:A1 0
4 *629:A2 *601:A2 4.7372e-05
5 *629:A2 *627:A1 0.000158651
6 *629:A2 *629:A1 3.27437e-05
7 *629:A2 *831:A 1.45799e-05
8 *629:A2 *132:12 4.24488e-05
9 *629:A2 *381:44 0.000200433
10 *629:A2 *408:91 7.37686e-05
11 *111:12 *629:A2 0.000562431
*RES
1 *627:Y *629:A2 41.8201 
*END

*D_NET *131 0.00267396
*CONN
*I *629:B1 I *D sky130_fd_sc_hd__o21ai_1
*I *628:Y O *D sky130_fd_sc_hd__nand2_1
*CAP
1 *629:B1 0.000405908
2 *628:Y 0.000405908
3 *629:B1 *509:A0 5.42307e-05
4 *629:B1 *509:S 0
5 *629:B1 *601:A2 0.00013863
6 *629:B1 *633:A0 5.65074e-05
7 *629:B1 *634:A 0.000146645
8 *629:B1 *132:12 0.000755317
9 *629:B1 *182:14 3.89073e-05
10 *629:B1 *351:202 3.79511e-05
11 *629:B1 *354:208 0
12 *629:B1 *354:219 0.00032974
13 *629:B1 *398:10 0.000193905
14 *629:B1 *408:107 0.000110314
*RES
1 *628:Y *629:B1 46.2866 
*END

*D_NET *132 0.00686082
*CONN
*I *632:A I *D sky130_fd_sc_hd__xnor2_2
*I *630:Y O *D sky130_fd_sc_hd__nand2_2
*CAP
1 *632:A 0.000311959
2 *630:Y 0.0016123
3 *132:12 0.00192426
4 *632:A *632:B 0.000778507
5 *632:A *633:S 0.000512554
6 *632:A *796:A 0
7 *632:A *830:A 0
8 *132:12 *601:A2 4.77739e-05
9 *132:12 *632:B 0.000208621
10 *132:12 *408:107 3.04755e-06
11 *532:A1 *132:12 0.000205898
12 *624:B1 *632:A 1.01689e-05
13 *629:A2 *132:12 4.24488e-05
14 *629:B1 *132:12 0.000755317
15 *50:18 *132:12 0.000447977
*RES
1 *630:Y *132:12 42.3956 
2 *132:12 *632:A 28.0387 
*END

*D_NET *133 0.00228263
*CONN
*I *632:B I *D sky130_fd_sc_hd__xnor2_2
*I *631:Y O *D sky130_fd_sc_hd__xnor2_1
*CAP
1 *632:B 0.000464422
2 *631:Y 0.000464422
3 *632:B *509:S 0.000323456
4 *632:B *811:A 3.61045e-05
5 *624:B1 *632:B 7.09666e-06
6 *632:A *632:B 0.000778507
7 *132:12 *632:B 0.000208621
*RES
1 *631:Y *632:B 44.1751 
*END

*D_NET *134 0.000531386
*CONN
*I *635:A2 I *D sky130_fd_sc_hd__o21ai_1
*I *633:Y O *D sky130_fd_sc_hd__mux2i_1
*CAP
1 *635:A2 0.000137998
2 *633:Y 0.000137998
3 *635:A2 *633:A0 2.61147e-05
4 *635:A2 *635:B1 0.000111708
5 *635:A2 *694:D 6.92705e-05
6 *635:A2 *354:215 4.82966e-05
*RES
1 *633:Y *635:A2 22.5493 
*END

*D_NET *135 0.000240378
*CONN
*I *635:B1 I *D sky130_fd_sc_hd__o21ai_1
*I *634:Y O *D sky130_fd_sc_hd__nand2_1
*CAP
1 *635:B1 2.21971e-05
2 *634:Y 2.21971e-05
3 *635:B1 *633:A0 1.92172e-05
4 *635:B1 *354:215 6.50586e-05
5 *635:A2 *635:B1 0.000111708
*RES
1 *634:Y *635:B1 19.7763 
*END

*D_NET *136 0.000734007
*CONN
*I *638:A2 I *D sky130_fd_sc_hd__o21ai_1
*I *636:Y O *D sky130_fd_sc_hd__mux2i_1
*CAP
1 *638:A2 0.000200849
2 *636:Y 0.000200849
3 *638:A2 *636:A0 0.00025233
4 *638:A2 *639:S 5.69156e-05
5 *638:A2 *416:91 2.30636e-05
*RES
1 *636:Y *638:A2 23.6826 
*END

*D_NET *137 0.00109482
*CONN
*I *638:B1 I *D sky130_fd_sc_hd__o21ai_1
*I *637:Y O *D sky130_fd_sc_hd__nand2_1
*CAP
1 *638:B1 0.000476647
2 *637:Y 0.000476647
3 *638:B1 *180:10 7.97944e-05
4 *638:B1 *196:14 0
5 *638:B1 *196:27 0
6 *638:B1 *354:185 6.17289e-05
*RES
1 *637:Y *638:B1 38.2222 
*END

*D_NET *138 0.000420476
*CONN
*I *641:A2 I *D sky130_fd_sc_hd__o21ai_1
*I *639:Y O *D sky130_fd_sc_hd__mux2i_1
*CAP
1 *641:A2 0.000131436
2 *639:Y 0.000131436
3 *641:A2 *180:10 5.28741e-05
4 *641:A2 *196:14 0.000104731
*RES
1 *639:Y *641:A2 30.6083 
*END

*D_NET *139 0.000486591
*CONN
*I *641:B1 I *D sky130_fd_sc_hd__o21ai_1
*I *640:Y O *D sky130_fd_sc_hd__nand2_1
*CAP
1 *641:B1 0.000205367
2 *640:Y 0.000205367
3 *641:B1 *640:A 4.17531e-06
4 *641:B1 *692:CLK 8.03393e-06
5 *641:B1 *180:10 6.36477e-05
6 *641:B1 *196:14 0
*RES
1 *640:Y *641:B1 31.6076 
*END

*D_NET *140 0.00193865
*CONN
*I *643:B1 I *D sky130_fd_sc_hd__a21oi_2
*I *642:Y O *D sky130_fd_sc_hd__nor2_2
*CAP
1 *643:B1 0.000358027
2 *642:Y 0.000358027
3 *643:B1 *644:B 7.19906e-05
4 *643:B1 *645:A1 0.000421676
5 *643:B1 *807:A 9.04224e-05
6 *643:B1 *827:A 0
7 *643:B1 *179:40 2.291e-05
8 *643:B1 *278:14 0
9 *643:B1 *354:144 0.000119805
10 *643:B1 *459:20 0.000495788
*RES
1 *642:Y *643:B1 41.4104 
*END

*D_NET *141 0.00216819
*CONN
*I *645:A1 I *D sky130_fd_sc_hd__o21ai_1
*I *643:Y O *D sky130_fd_sc_hd__a21oi_2
*CAP
1 *645:A1 0.000378547
2 *643:Y 0.000378547
3 *645:A1 *471:A_N 0
4 *645:A1 *511:A1 0
5 *645:A1 *645:A2 0.000284048
6 *645:A1 *645:B1 9.98029e-06
7 *645:A1 *807:A 1.92172e-05
8 *645:A1 *354:131 1.00981e-05
9 *645:A1 *354:144 3.61993e-05
10 *645:A1 *459:20 0.000629874
11 *643:B1 *645:A1 0.000421676
*RES
1 *643:Y *645:A1 42.5225 
*END

*D_NET *142 0.00203244
*CONN
*I *645:B1 I *D sky130_fd_sc_hd__o21ai_1
*I *644:Y O *D sky130_fd_sc_hd__nand2_1
*CAP
1 *645:B1 0.00057131
2 *644:Y 0.00057131
3 *645:B1 *471:A_N 1.07248e-05
4 *645:B1 *511:A1 0
5 *645:B1 *645:A2 5.79544e-05
6 *645:B1 *691:D 0.000120584
7 *645:B1 *708:CLK 0
8 *645:B1 *179:10 3.34802e-05
9 *645:B1 *179:27 1.5254e-05
10 *645:B1 *354:144 0.000523665
11 *645:B1 *354:157 0.00011818
12 *645:A1 *645:B1 9.98029e-06
*RES
1 *644:Y *645:B1 39.8916 
*END

*D_NET *143 0.0016111
*CONN
*I *648:A1 I *D sky130_fd_sc_hd__o21ai_1
*I *646:Y O *D sky130_fd_sc_hd__mux2i_1
*CAP
1 *648:A1 0.000319651
2 *646:Y 0.000319651
3 *648:A1 *513:A0 4.7216e-05
4 *648:A1 *690:D 7.75787e-05
5 *648:A1 *806:A 8.62625e-06
6 *648:A1 *826:A 0
7 *648:A1 *164:12 0.000332414
8 *648:A1 *351:69 0.000158346
9 *648:A1 *351:73 0.000191541
10 *648:A1 *354:51 0
11 *648:A1 *416:52 0.000156076
*RES
1 *646:Y *648:A1 39.4679 
*END

*D_NET *144 0.000363112
*CONN
*I *648:B1 I *D sky130_fd_sc_hd__o21ai_1
*I *647:Y O *D sky130_fd_sc_hd__nand2_1
*CAP
1 *648:B1 7.17886e-05
2 *647:Y 7.17886e-05
3 *648:B1 resp_msg[2] 7.28922e-05
4 *648:B1 *354:122 0.000123698
5 *648:B1 *354:131 2.29454e-05
*RES
1 *647:Y *648:B1 21.9947 
*END

*D_NET *145 0.000589454
*CONN
*I *651:A2 I *D sky130_fd_sc_hd__o21ai_1
*I *649:Y O *D sky130_fd_sc_hd__mux2i_1
*CAP
1 *651:A2 0.000175944
2 *649:Y 0.000175944
3 *651:A2 *649:S 7.06457e-05
4 *651:A2 *652:B 9.76506e-05
5 *651:A2 *689:D 6.92705e-05
*RES
1 *649:Y *651:A2 23.6585 
*END

*D_NET *146 0.000856207
*CONN
*I *651:B1 I *D sky130_fd_sc_hd__o21ai_1
*I *650:Y O *D sky130_fd_sc_hd__nand2_1
*CAP
1 *651:B1 0.000203724
2 *650:Y 0.000203724
3 *651:B1 *514:A1 0.000307428
4 *651:B1 *651:A1 6.08697e-06
5 *651:B1 *354:57 6.92705e-05
6 *651:B1 *354:63 1.67749e-05
7 *651:B1 *354:82 4.91997e-05
*RES
1 *650:Y *651:B1 33.791 
*END

*D_NET *147 0.000407405
*CONN
*I *653:A I *D sky130_fd_sc_hd__xor2_1
*I *652:Y O *D sky130_fd_sc_hd__nand2_1
*CAP
1 *653:A 0.000160223
2 *652:Y 0.000160223
3 *653:A *652:B 3.14978e-05
4 *653:A *655:A1 7.02172e-06
5 *653:A *655:A2 4.84406e-05
*RES
1 *652:Y *653:A 22.5734 
*END

*D_NET *148 0.000771655
*CONN
*I *655:A2 I *D sky130_fd_sc_hd__o21ai_1
*I *653:X O *D sky130_fd_sc_hd__xor2_1
*CAP
1 *655:A2 0.000103042
2 *653:X 0.000103042
3 *655:A2 *655:A1 0.000471216
4 *655:A2 *682:D 2.7837e-05
5 *655:A2 *170:10 1.8078e-05
6 *653:A *655:A2 4.84406e-05
*RES
1 *653:X *655:A2 23.6585 
*END

*D_NET *149 0.000235371
*CONN
*I *655:B1 I *D sky130_fd_sc_hd__o21ai_1
*I *654:Y O *D sky130_fd_sc_hd__nand2_1
*CAP
1 *655:B1 0.000117685
2 *654:Y 0.000117685
*RES
1 *654:Y *655:B1 29.7455 
*END

*D_NET *150 0.000501888
*CONN
*I *660:A2 I *D sky130_fd_sc_hd__a221o_1
*I *656:Y O *D sky130_fd_sc_hd__inv_1
*CAP
1 *660:A2 6.23261e-05
2 *656:Y 6.23261e-05
3 *660:A2 *656:A 3.20544e-05
4 *660:A2 *660:A1 6.00767e-05
5 *660:A2 *703:CLK 0.000210465
6 *660:A2 *449:6 7.46401e-05
*RES
1 *656:Y *660:A2 21.8802 
*END

*D_NET *151 0.000653536
*CONN
*I *659:B I *D sky130_fd_sc_hd__nor2_4
*I *657:Y O *D sky130_fd_sc_hd__inv_1
*CAP
1 *659:B 0.000180178
2 *657:Y 0.000180178
3 *659:B *671:B1 0.000127179
4 *659:B *240:26 3.88213e-05
5 *659:B *426:20 0.000127179
*RES
1 *657:Y *659:B 31.8554 
*END

*D_NET *152 0.000159611
*CONN
*I *662:A2 I *D sky130_fd_sc_hd__o21ai_0
*I *661:Y O *D sky130_fd_sc_hd__inv_1
*CAP
1 *662:A2 4.74662e-05
2 *661:Y 4.74662e-05
3 *662:A2 *240:26 6.46783e-05
*RES
1 *661:Y *662:A2 20.0536 
*END

*D_NET *153 0.000463572
*CONN
*I *669:A2 I *D sky130_fd_sc_hd__a21oi_1
*I *662:Y O *D sky130_fd_sc_hd__o21ai_0
*CAP
1 *669:A2 0.000115946
2 *662:Y 0.000115946
3 *669:A2 *168:10 1.03594e-05
4 *669:A2 *168:21 0.000137777
5 *669:A2 *240:26 6.27718e-05
6 *669:A2 *453:79 1.37421e-05
7 *680:D *669:A2 7.03112e-06
*RES
1 *662:Y *669:A2 30.8842 
*END

*D_NET *154 0.00121935
*CONN
*I *667:C I *D sky130_fd_sc_hd__and4_4
*I *663:Y O *D sky130_fd_sc_hd__nor4_4
*CAP
1 *667:C 0.000356512
2 *663:Y 0.000356512
3 *667:C *688:CLK 0.000256285
4 *667:C *155:12 0.000250038
5 *667:C *275:12 0
*RES
1 *663:Y *667:C 35.1789 
*END

*D_NET *155 0.00353139
*CONN
*I *667:D I *D sky130_fd_sc_hd__and4_4
*I *664:Y O *D sky130_fd_sc_hd__nor4_4
*CAP
1 *667:D 0
2 *664:Y 0.00112494
3 *155:12 0.00112494
4 *155:12 *524:C1 0
5 *155:12 *677:A2 0.000190108
6 *155:12 *275:12 0
7 *155:12 *370:25 0
8 *155:12 *372:10 0.00021217
9 *155:12 *380:34 7.14746e-05
10 *155:12 *410:10 3.30446e-05
11 *155:12 *462:24 5.29927e-05
12 *473:A3 *155:12 3.25751e-05
13 *524:B2 *155:12 0.000417478
14 *667:C *155:12 0.000250038
15 *874:A *155:12 2.16355e-05
16 *45:10 *155:12 0
*RES
1 *664:Y *155:12 41.9992 
2 *155:12 *667:D 9.24915 
*END

*D_NET *156 0.00561289
*CONN
*I *667:A I *D sky130_fd_sc_hd__and4_4
*I *665:Y O *D sky130_fd_sc_hd__nor4_4
*CAP
1 *667:A 0.00060555
2 *665:Y 0.00112209
3 *156:16 0.00172764
4 *667:A *532:B1 0.000309003
5 *667:A *157:14 3.81525e-05
6 *667:A *158:18 4.18926e-05
7 *156:16 *533:B 5.97908e-05
8 *156:16 *600:A 0.000195139
9 *156:16 *600:B_N 0.000331074
10 *156:16 *602:A 5.79499e-05
11 *156:16 *603:A 0.000164283
12 *156:16 *625:B 0
13 *156:16 *665:B 0.00039617
14 *156:16 *198:41 0.000122098
15 *156:16 *378:10 0.00013832
16 *156:16 *382:18 0
17 *534:A *156:16 2.10465e-05
18 *33:10 *156:16 1.22289e-05
19 *57:12 *156:16 0.00027045
*RES
1 *665:Y *156:16 49.9511 
2 *156:16 *667:A 18.8703 
*END

*D_NET *157 0.0026581
*CONN
*I *667:B I *D sky130_fd_sc_hd__and4_4
*I *666:Y O *D sky130_fd_sc_hd__nor4_4
*CAP
1 *667:B 0
2 *666:Y 0.000798531
3 *157:14 0.000798531
4 *157:14 *533:A_N 4.7687e-05
5 *157:14 *666:C 4.47713e-05
6 *157:14 *677:A2 0.000147699
7 *157:14 *880:A 0.000124622
8 *157:14 *158:18 0.000204651
9 *157:14 *382:18 0.000159319
10 *157:14 *412:64 0
11 *534:C *157:14 0
12 *667:A *157:14 3.81525e-05
13 *917:A *157:14 0.000239162
14 *58:16 *157:14 5.49769e-05
*RES
1 *666:Y *157:14 43.8097 
2 *157:14 *667:B 9.24915 
*END

*D_NET *158 0.00816786
*CONN
*I *671:A1 I *D sky130_fd_sc_hd__o21ai_1
*I *668:A2 I *D sky130_fd_sc_hd__o21ai_1
*I *667:X O *D sky130_fd_sc_hd__and4_4
*CAP
1 *671:A1 0.00012242
2 *668:A2 2.39434e-05
3 *667:X 0.000902573
4 *158:24 0.00189357
5 *158:18 0.00264978
6 *668:A2 *668:B1 0.000276221
7 *668:A2 *672:A 9.81288e-06
8 *668:A2 *672:B_N 1.50924e-05
9 *671:A1 *662:A1 0
10 *671:A1 *426:20 0.000159354
11 *158:18 *688:DE 7.14723e-06
12 *158:18 *176:14 0.000264443
13 *158:18 *351:69 1.32043e-05
14 *158:24 *557:B 0.0001578
15 *158:24 *664:B 2.77625e-06
16 *158:24 *668:B1 0.00031835
17 *158:24 *672:B_N 0.000143939
18 *158:24 *673:B1_N 0.000125837
19 *158:24 *677:A1 5.481e-05
20 *158:24 *677:A2 6.46815e-05
21 *158:24 *688:CLK 5.04423e-06
22 *158:24 *411:63 0.000218234
23 *158:24 *411:77 6.02362e-06
24 *158:24 *444:14 0.000216458
25 *667:A *158:18 4.18926e-05
26 *83:10 *158:24 0.00023957
27 *85:10 *158:18 8.36586e-06
28 *86:16 *158:18 2.18698e-05
29 *157:14 *158:18 0.000204651
*RES
1 *667:X *158:18 36.6898 
2 *158:18 *158:24 31.9741 
3 *158:24 *668:A2 11.0817 
4 *158:24 *671:A1 21.3269 
*END

*D_NET *159 0.000597427
*CONN
*I *669:A1 I *D sky130_fd_sc_hd__a21oi_1
*I *668:Y O *D sky130_fd_sc_hd__o21ai_1
*CAP
1 *669:A1 0.000168653
2 *668:Y 0.000168653
3 *669:A1 *672:A 0.00026012
*RES
1 *668:Y *669:A1 21.4401 
*END

*D_NET *160 0.00105687
*CONN
*I *671:B1 I *D sky130_fd_sc_hd__o21ai_1
*I *670:Y O *D sky130_fd_sc_hd__nand2_1
*CAP
1 *671:B1 0.000367385
2 *670:Y 0.000367385
3 *671:B1 *670:A 1.31657e-05
4 *671:B1 *853:A 0.000101118
5 *671:B1 *240:26 3.25494e-05
6 *671:B1 *426:20 4.8088e-05
7 *566:B *671:B1 0
8 *659:B *671:B1 0.000127179
*RES
1 *670:Y *671:B1 35.87 
*END

*D_NET *161 0.000748839
*CONN
*I *672:B_N I *D sky130_fd_sc_hd__nor2b_1
*I *671:Y O *D sky130_fd_sc_hd__o21ai_1
*CAP
1 *672:B_N 0.000179384
2 *671:Y 0.000179384
3 *672:B_N *668:B1 4.9e-05
4 *672:B_N *671:A2 6.27718e-05
5 *672:B_N *672:A 5.79081e-05
6 *672:B_N *240:26 8.36586e-06
7 *672:B_N *411:77 1.00766e-05
8 *672:B_N *426:20 4.29164e-05
9 *668:A2 *672:B_N 1.50924e-05
10 *158:24 *672:B_N 0.000143939
*RES
1 *671:Y *672:B_N 32.8803 
*END

*D_NET *162 0.00374051
*CONN
*I *675:B I *D sky130_fd_sc_hd__xnor2_2
*I *674:Y O *D sky130_fd_sc_hd__nand2_2
*CAP
1 *675:B 0.000929529
2 *674:Y 0.000929529
3 *675:B *558:B 4.33655e-05
4 *675:B *674:A 0.00026881
5 *675:B *674:B 1.62206e-05
6 *675:B *905:A 0.000644065
7 *675:B *275:8 1.00937e-05
8 *558:A *675:B 5.51483e-06
9 *675:A *675:B 0.00089338
*RES
1 *674:Y *675:B 42.7321 
*END

*D_NET *163 0.00262201
*CONN
*I *677:A2 I *D sky130_fd_sc_hd__o21ai_1
*I *675:Y O *D sky130_fd_sc_hd__xnor2_2
*CAP
1 *677:A2 0.000676344
2 *675:Y 0.000676344
3 *677:A2 *485:C 0.000417517
4 *677:A2 *663:B 0.000109427
5 *677:A2 *688:CLK 0.000179967
6 *677:A2 *275:12 0
7 *485:B *677:A2 0.000159917
8 *155:12 *677:A2 0.000190108
9 *157:14 *677:A2 0.000147699
10 *158:24 *677:A2 6.46815e-05
*RES
1 *675:Y *677:A2 47.2408 
*END

*D_NET *164 0.00366492
*CONN
*I *677:B1 I *D sky130_fd_sc_hd__o21ai_1
*I *676:Y O *D sky130_fd_sc_hd__nand2_1
*CAP
1 *677:B1 0
2 *676:Y 0.00106957
3 *164:12 0.00106957
4 *164:12 *664:C 0.000188496
5 *164:12 *351:69 0.000482477
6 *164:12 *351:81 0.000434578
7 *164:12 *354:47 0
8 *470:C1 *164:12 0
9 *483:B1 *164:12 0
10 *648:A1 *164:12 0.000332414
11 *86:16 *164:12 8.78089e-05
*RES
1 *676:Y *164:12 48.7714 
2 *164:12 *677:B1 9.24915 
*END

*D_NET *165 0.0100026
*CONN
*P clk I
*I *914:A I *D sky130_fd_sc_hd__clkbuf_8
*CAP
1 clk 0.00498806
2 *914:A 0
3 *165:18 0.00498806
4 *165:18 *351:135 1.32315e-05
5 *86:40 *165:18 1.32315e-05
*RES
1 clk *165:18 15.5463 
2 *165:18 *914:A 13.7491 
*END

*D_NET *412 0.00942054
*CONN
*I *926:A I *D sky130_fd_sc_hd__clkbuf_8
*I *927:A I *D sky130_fd_sc_hd__clkbuf_8
*I *913:A I *D sky130_fd_sc_hd__clkbuf_8
*I *912:A I *D sky130_fd_sc_hd__clkbuf_8
*I *914:X O *D sky130_fd_sc_hd__clkbuf_8
*CAP
1 *926:A 7.12026e-05
2 *927:A 3.7228e-05
3 *913:A 7.46248e-05
4 *912:A 0.000141168
5 *914:X 7.73367e-05
6 *412:94 0.00150034
7 *412:64 0.00276411
8 *412:51 0.00129775
9 *412:35 0.000243325
10 *412:19 0.000424595
11 *412:13 0.00103251
12 *412:8 0.00065772
13 *412:13 *595:B 6.53576e-05
14 *412:13 *458:10 3.00174e-06
15 *412:19 *458:10 8.62065e-05
16 *412:64 *425:33 3.92385e-05
17 *412:64 *463:12 0
18 *412:94 *424:8 7.01935e-06
19 *412:94 *425:33 4.75721e-06
20 *485:B *412:13 8.51933e-05
21 *485:B *412:19 3.32036e-05
22 *534:C *412:64 0
23 *543:A *412:94 4.89251e-05
24 *544:A_N *412:94 5.39635e-06
25 *595:A *412:13 0
26 *666:B *412:64 0.000106567
27 *666:B *412:94 2.60879e-06
28 *666:C *412:64 0
29 *860:A *926:A 8.8868e-05
30 *860:A *412:94 1.62266e-06
31 *884:A *412:8 2.84786e-05
32 *884:A *412:64 7.86825e-06
33 *963:A *412:19 4.87301e-05
34 *58:16 *412:64 4.16054e-05
35 *63:6 *412:94 7.84903e-05
36 *73:14 *412:94 7.62627e-06
37 *157:14 *412:64 0
38 *271:8 *412:64 0
39 *351:54 *412:13 0.000101219
40 *351:69 *412:13 2.41211e-05
41 *351:135 *412:13 1.46079e-05
42 *389:20 *412:64 0
43 *411:8 *913:A 7.62705e-05
44 *411:8 *412:35 9.16447e-05
*RES
1 *914:X *412:8 15.5817 
2 *412:8 *412:13 15.5353 
3 *412:13 *412:19 11.3543 
4 *412:19 *912:A 12.3477 
5 *412:13 *412:35 8.39428 
6 *412:35 *913:A 11.2385 
7 *914:X *412:51 13.7491 
8 *412:51 *412:64 27.9794 
9 *412:64 *927:A 14.7378 
10 *412:64 *412:94 18.3889 
11 *412:94 *926:A 11.5821 
*END

*D_NET *411 0.0137591
*CONN
*I *704:CLK I *D sky130_fd_sc_hd__edfxtp_1
*I *681:CLK I *D sky130_fd_sc_hd__dfxtp_2
*I *680:CLK I *D sky130_fd_sc_hd__dfxtp_1
*I *705:CLK I *D sky130_fd_sc_hd__edfxtp_1
*I *698:CLK I *D sky130_fd_sc_hd__edfxtp_1
*I *682:CLK I *D sky130_fd_sc_hd__edfxtp_1
*I *928:A I *D sky130_fd_sc_hd__clkinv_2
*I *706:CLK I *D sky130_fd_sc_hd__edfxtp_1
*I *689:CLK I *D sky130_fd_sc_hd__edfxtp_1
*I *913:X O *D sky130_fd_sc_hd__clkbuf_8
*CAP
1 *704:CLK 0
2 *681:CLK 0
3 *680:CLK 0.000205965
4 *705:CLK 0
5 *698:CLK 0
6 *682:CLK 0.000652968
7 *928:A 1.47608e-05
8 *706:CLK 0
9 *689:CLK 0.000834502
10 *913:X 0.000445768
11 *411:91 0.00103303
12 *411:85 0.000682815
13 *411:79 0.00059476
14 *411:77 0.0011213
15 *411:63 0.00139417
16 *411:18 0.00149559
17 *411:10 0.000787098
18 *411:8 0.000915929
19 *680:CLK *453:79 6.46815e-05
20 *689:CLK *489:B 2.1558e-06
21 *689:CLK *706:DE 2.57986e-05
22 *689:CLK *453:37 4.5358e-05
23 *411:8 *913:A 7.62705e-05
24 *411:8 *412:35 9.16447e-05
25 *411:10 *704:DE 0
26 *411:18 *704:DE 0
27 *411:18 *706:DE 3.17749e-05
28 *411:18 *455:22 4.96391e-05
29 *411:63 *704:DE 8.37933e-05
30 *411:77 *565:A 1.24946e-05
31 *411:77 *668:B1 1.94257e-05
32 *411:77 *673:B1_N 0.000472981
33 *411:77 *426:20 2.54028e-05
34 *411:77 *444:14 3.36648e-05
35 *411:77 *453:79 3.39346e-05
36 *411:79 *453:79 0.000106062
37 *411:85 *515:S 0
38 *411:85 *413:10 0
39 *411:85 *413:12 0
40 *411:91 *413:12 0
41 *466:A_N *411:10 0.000188554
42 *466:A_N *411:18 0.00018643
43 *466:A_N *411:63 3.20407e-05
44 *466:B *411:8 0.000261135
45 *592:A *682:CLK 0
46 *672:A *411:77 0.000112367
47 *672:B_N *411:77 1.00766e-05
48 *678:A0 *411:10 8.36586e-06
49 *678:A0 *411:63 0.000186476
50 *680:D *680:CLK 0.000317478
51 *682:D *682:CLK 5.76487e-05
52 *682:DE *682:CLK 4.41474e-05
53 *689:D *689:CLK 3.91685e-05
54 *704:D *411:63 0.000136084
55 *706:D *411:18 1.13461e-05
56 *818:A *689:CLK 3.67708e-05
57 *825:A *689:CLK 0.000156475
58 *888:A *411:18 7.41007e-05
59 *960:A *928:A 6.08467e-05
60 *158:24 *411:63 0.000218234
61 *158:24 *411:77 6.02362e-06
62 *177:12 *689:CLK 0
63 *177:23 *411:18 3.286e-05
64 *276:10 *689:CLK 0.000161878
65 *401:10 *928:A 6.08467e-05
66 *401:10 *411:18 6.01944e-06
*RES
1 *913:X *411:8 25.01 
2 *411:8 *411:10 3.493 
3 *411:10 *411:18 20.0891 
4 *411:18 *689:CLK 35.2124 
5 *411:18 *706:CLK 9.24915 
6 *411:10 *928:A 14.4725 
7 *411:8 *411:63 17.0355 
8 *411:63 *411:77 27.0173 
9 *411:77 *411:79 2.94181 
10 *411:79 *411:85 15.815 
11 *411:85 *411:91 13.7022 
12 *411:91 *682:CLK 26.9889 
13 *411:91 *698:CLK 13.7491 
14 *411:85 *705:CLK 9.24915 
15 *411:79 *680:CLK 16.0973 
16 *411:77 *681:CLK 9.24915 
17 *411:63 *704:CLK 9.24915 
*END

*D_NET *410 0.0220071
*CONN
*I *695:CLK I *D sky130_fd_sc_hd__edfxtp_1
*I *694:CLK I *D sky130_fd_sc_hd__edfxtp_1
*I *710:CLK I *D sky130_fd_sc_hd__edfxtp_1
*I *693:CLK I *D sky130_fd_sc_hd__edfxtp_1
*I *709:CLK I *D sky130_fd_sc_hd__edfxtp_1
*I *692:CLK I *D sky130_fd_sc_hd__edfxtp_1
*I *707:CLK I *D sky130_fd_sc_hd__edfxtp_1
*I *691:CLK I *D sky130_fd_sc_hd__edfxtp_1
*I *690:CLK I *D sky130_fd_sc_hd__edfxtp_1
*I *708:CLK I *D sky130_fd_sc_hd__edfxtp_1
*I *688:CLK I *D sky130_fd_sc_hd__edfxtp_1
*I *912:X O *D sky130_fd_sc_hd__clkbuf_8
*CAP
1 *695:CLK 0.000230199
2 *694:CLK 0
3 *710:CLK 0.000400689
4 *693:CLK 9.45532e-05
5 *709:CLK 8.55112e-05
6 *692:CLK 0.000195725
7 *707:CLK 0
8 *691:CLK 0.000118888
9 *690:CLK 0.000647469
10 *708:CLK 0.000414233
11 *688:CLK 0.000666924
12 *912:X 0.00010417
13 *410:141 0.000549112
14 *410:101 0.00071742
15 *410:72 0.00153241
16 *410:49 0.00129798
17 *410:45 0.000236879
18 *410:43 0.000628764
19 *410:39 0.000597803
20 *410:35 0.000966552
21 *410:29 0.00119387
22 *410:10 0.00151004
23 *688:CLK *485:C 6.24779e-05
24 *691:CLK *448:12 2.65831e-05
25 *692:CLK *639:S 0.000146655
26 *693:CLK *639:S 0.00019028
27 *693:CLK *413:92 0.000401126
28 *693:CLK *416:91 0.000159016
29 *708:CLK *708:DE 0
30 *710:CLK *476:A2 1.3808e-05
31 *710:CLK *847:A 2.58616e-05
32 *410:29 *601:A1 9.28197e-05
33 *410:35 *476:A2 4.24488e-05
34 *410:39 *476:A2 6.91252e-05
35 *410:43 *413:60 0.000139817
36 *410:45 *707:DE 8.37933e-05
37 *410:141 *601:A1 3.67267e-05
38 resp_msg[5] *708:CLK 5.54078e-05
39 *471:A_N *410:49 0
40 *471:B *410:72 6.04767e-05
41 *474:B_N *410:39 6.94589e-05
42 *477:B *410:39 3.94997e-05
43 *485:A *688:CLK 0.000266055
44 *486:A *688:CLK 0.00011349
45 *511:A1 *708:CLK 3.41758e-05
46 *512:A0 *410:72 0.000816294
47 *512:A1 *708:CLK 0.000167002
48 *512:A1 *410:49 1.09738e-05
49 *529:A2 *710:CLK 0.000652011
50 *529:A2 *410:35 0.000231671
51 *529:A2 *410:141 5.23577e-05
52 *529:B1 *410:29 0.000410556
53 *601:B1 *695:CLK 0.000330242
54 *601:B1 *410:141 0
55 *626:A *695:CLK 0.000295967
56 *639:A1 *692:CLK 0.000186451
57 *641:B1 *692:CLK 8.03393e-06
58 *645:B1 *708:CLK 0
59 *663:B *688:CLK 5.85071e-05
60 *663:B *410:29 1.48571e-05
61 *663:D *410:29 2.58616e-05
62 *667:C *688:CLK 0.000256285
63 *677:A1 *688:CLK 3.82228e-05
64 *677:A2 *688:CLK 0.000179967
65 *688:D *688:CLK 0.00041553
66 *690:D *690:CLK 3.1103e-05
67 *691:DE *691:CLK 6.78596e-05
68 *692:DE *692:CLK 0
69 *692:DE *709:CLK 8.43687e-05
70 *692:DE *410:101 0.000173782
71 *694:DE *695:CLK 0.00020502
72 *694:DE *410:141 0
73 *707:D *410:45 0.000133166
74 *707:D *410:49 0.000128571
75 *795:A *708:CLK 9.20398e-05
76 *826:A *691:CLK 0
77 *829:A *410:49 9.07429e-06
78 *883:A *710:CLK 0.000405969
79 *885:A *410:39 0
80 *902:A *410:72 1.84293e-05
81 *962:A *410:29 2.99747e-05
82 *41:14 *695:CLK 0.000209988
83 *47:18 *710:CLK 3.99086e-06
84 *47:18 *410:35 5.18062e-06
85 *47:18 *410:39 9.90495e-05
86 *109:10 *410:141 3.58321e-05
87 *109:19 *695:CLK 5.2504e-06
88 *109:19 *410:141 3.67528e-06
89 *155:12 *410:10 3.30446e-05
90 *158:24 *688:CLK 5.04423e-06
91 *178:10 *410:72 4.60308e-05
92 *179:27 *410:72 2.39581e-05
93 *180:23 *410:39 0.000340043
94 *180:23 *410:43 0.000160135
95 *195:12 *410:45 8.26466e-05
96 *195:12 *410:101 0.000160854
97 *196:14 *692:CLK 0
98 *197:23 *710:CLK 0.000229614
99 *280:12 *410:39 5.59112e-05
100 *280:12 *410:43 3.00174e-06
101 *282:10 *695:CLK 6.08467e-05
102 *354:41 *688:CLK 0.000163492
103 *354:47 *688:CLK 5.37077e-05
104 *354:198 *410:39 0
105 *371:12 *410:39 4.40506e-05
106 *380:34 *410:39 0.000212506
107 *382:18 *688:CLK 6.27718e-05
108 *382:18 *410:29 4.38909e-05
109 *408:81 *695:CLK 1.41689e-05
*RES
1 *912:X *410:10 20.4964 
2 *410:10 *688:CLK 39.5189 
3 *410:10 *410:29 16.8942 
4 *410:29 *410:35 8.7192 
5 *410:35 *410:39 19.2048 
6 *410:39 *410:43 7.57775 
7 *410:43 *410:45 4.05102 
8 *410:45 *410:49 7.993 
9 *410:49 *708:CLK 25.3035 
10 *410:49 *410:72 24.4657 
11 *410:72 *690:CLK 18.7256 
12 *410:72 *691:CLK 21.2198 
13 *410:45 *707:CLK 9.24915 
14 *410:43 *410:101 11.8155 
15 *410:101 *692:CLK 24.6489 
16 *410:101 *709:CLK 11.6364 
17 *410:39 *693:CLK 18.9335 
18 *410:35 *710:CLK 23.8617 
19 *410:29 *410:141 7.64553 
20 *410:141 *694:CLK 13.7491 
21 *410:141 *695:CLK 24.8137 
*END

*D_NET *424 0.0140877
*CONN
*I *701:CLK I *D sky130_fd_sc_hd__edfxtp_1
*I *685:CLK I *D sky130_fd_sc_hd__edfxtp_1
*I *702:CLK I *D sky130_fd_sc_hd__edfxtp_1
*I *686:CLK I *D sky130_fd_sc_hd__edfxtp_1
*I *687:CLK I *D sky130_fd_sc_hd__edfxtp_1
*I *679:CLK I *D sky130_fd_sc_hd__dfxtp_2
*I *703:CLK I *D sky130_fd_sc_hd__edfxtp_1
*I *929:A I *D sky130_fd_sc_hd__clkinv_2
*I *700:CLK I *D sky130_fd_sc_hd__edfxtp_1
*I *926:X O *D sky130_fd_sc_hd__clkbuf_8
*CAP
1 *701:CLK 0.000272152
2 *685:CLK 0.000292435
3 *702:CLK 0
4 *686:CLK 3.57807e-05
5 *687:CLK 0.000113969
6 *679:CLK 0
7 *703:CLK 0.000739832
8 *929:A 2.52739e-05
9 *700:CLK 0.000285675
10 *926:X 4.82848e-05
11 *424:68 0.00128171
12 *424:62 0.00112306
13 *424:60 0.00150619
14 *424:50 0.00136531
15 *424:46 0.000774137
16 *424:44 0.000522006
17 *424:33 0.000617727
18 *424:8 0.00079614
19 *703:CLK *660:A1 7.66631e-07
20 *703:CLK *954:A 2.58616e-05
21 *703:CLK *449:6 9.93665e-05
22 *424:68 *580:C 0
23 resp_msg[14] *424:68 4.76318e-05
24 *493:A *424:68 5.0636e-05
25 *496:S *424:50 8.48999e-05
26 *543:A *424:8 3.529e-05
27 *543:B_N *424:33 7.93204e-05
28 *544:A_N *424:33 4.12994e-05
29 *544:B *424:8 3.12627e-05
30 *561:B *700:CLK 0.000208621
31 *561:C *700:CLK 0.000238971
32 *566:B *703:CLK 0.000452038
33 *581:A1 *424:68 0.000169642
34 *581:C1 *424:68 0
35 *585:B *424:60 9.22013e-06
36 *585:B *424:62 2.5386e-05
37 *587:A2 *424:62 0.000174205
38 *587:A3 *424:62 0
39 *588:B *424:44 7.7321e-05
40 *591:A0 *424:33 5.00956e-05
41 *594:A2 *424:44 0
42 *594:A2 *424:46 0
43 *660:A2 *703:CLK 0.000210465
44 *679:D *703:CLK 0.000100923
45 *679:D *424:68 1.18084e-05
46 *686:D *424:60 0
47 *686:D *424:62 0
48 *686:DE *424:60 0
49 *686:DE *424:62 0
50 *687:D *687:CLK 0.000136084
51 *687:D *424:68 0
52 *687:DE *687:CLK 8.37933e-05
53 *702:D *424:50 0.000136084
54 *702:DE *424:50 3.42041e-05
55 *822:A *685:CLK 0.000165857
56 *822:A *701:CLK 8.90486e-05
57 *822:A *424:46 5.01107e-05
58 *922:A *424:33 2.94426e-05
59 *922:A *424:44 9.562e-06
60 *922:A *424:46 8.21849e-06
61 *950:A *703:CLK 7.92757e-06
62 *968:A *703:CLK 3.00829e-05
63 *63:6 *424:8 0.000261128
64 *73:14 *424:33 3.31733e-05
65 *79:6 *700:CLK 4.90394e-05
66 *86:48 *700:CLK 8.97568e-05
67 *190:14 *701:CLK 0.000222149
68 *346:10 *424:62 0
69 *351:135 *424:33 0
70 *376:8 *424:60 6.27782e-05
71 *391:37 *424:33 0.000160617
72 *405:14 *424:8 1.88422e-05
73 *405:14 *424:33 0
74 *408:41 *424:50 0.00013511
75 *409:12 *703:CLK 4.46057e-05
76 *412:94 *424:8 7.01935e-06
77 *414:57 *929:A 2.65667e-05
78 *418:10 *424:62 0.000145939
79 *423:23 *703:CLK 2.58757e-05
*RES
1 *926:X *424:8 16.691 
2 *424:8 *700:CLK 22.874 
3 *424:8 *424:33 20.4523 
4 *424:33 *929:A 14.4725 
5 *424:33 *424:44 3.90826 
6 *424:44 *424:46 3.07775 
7 *424:46 *424:50 15.2063 
8 *424:50 *424:60 26.796 
9 *424:60 *424:62 13.0438 
10 *424:62 *424:68 14.7781 
11 *424:68 *703:CLK 35.0753 
12 *424:68 *679:CLK 13.7491 
13 *424:62 *687:CLK 17.2456 
14 *424:60 *686:CLK 14.4725 
15 *424:50 *702:CLK 9.24915 
16 *424:46 *685:CLK 22.0204 
17 *424:44 *701:CLK 21.306 
*END

*D_NET *425 0.0165335
*CONN
*I *699:CLK I *D sky130_fd_sc_hd__edfxtp_1
*I *696:CLK I *D sky130_fd_sc_hd__edfxtp_1
*I *712:CLK I *D sky130_fd_sc_hd__edfxtp_1
*I *683:CLK I *D sky130_fd_sc_hd__edfxtp_1
*I *697:CLK I *D sky130_fd_sc_hd__edfxtp_1
*I *684:CLK I *D sky130_fd_sc_hd__edfxtp_1
*I *713:CLK I *D sky130_fd_sc_hd__edfxtp_1
*I *930:A I *D sky130_fd_sc_hd__clkinv_2
*I *711:CLK I *D sky130_fd_sc_hd__edfxtp_1
*I *927:X O *D sky130_fd_sc_hd__clkbuf_8
*CAP
1 *699:CLK 0.000432415
2 *696:CLK 0.000143122
3 *712:CLK 0
4 *683:CLK 0.000606869
5 *697:CLK 0
6 *684:CLK 0.000826819
7 *713:CLK 0.000238764
8 *930:A 0
9 *711:CLK 0.00100695
10 *927:X 0
11 *425:111 0.000827175
12 *425:102 0.000850343
13 *425:72 0.000775776
14 *425:55 0.00106037
15 *425:42 0.000756311
16 *425:33 0.000659124
17 *425:12 0.00147514
18 *425:4 0.000860668
19 *699:CLK *451:14 0
20 *425:72 *956:A 5.65046e-05
21 *505:A *425:102 0.000117159
22 *534:A *425:12 2.09463e-05
23 *534:B *425:12 4.29314e-06
24 *535:B *425:102 5.61938e-05
25 *536:A *425:102 6.27718e-05
26 *537:B1 *425:33 0
27 *537:B1 *425:42 0
28 *538:B *425:102 9.68443e-05
29 *595:A *711:CLK 0.000139684
30 *597:A *683:CLK 4.82966e-05
31 *598:B1 *683:CLK 0
32 *606:A2 *425:102 0.000301947
33 *606:C1 *699:CLK 0
34 *607:B *699:CLK 0.000336766
35 *610:B *683:CLK 0.000118128
36 *611:B1 *683:CLK 5.56461e-05
37 *616:A *696:CLK 0.000205984
38 *616:A *699:CLK 0.000537603
39 *618:B *683:CLK 9.46208e-05
40 *619:B1 *683:CLK 4.66568e-05
41 *621:A *696:CLK 2.71182e-05
42 *665:A *425:102 4.43331e-05
43 *665:B *425:102 0.00015607
44 *665:D *425:102 4.44312e-05
45 *665:D *425:111 1.50924e-05
46 *666:B *425:33 0
47 *684:D *684:CLK 0.000153623
48 *711:DE *711:CLK 6.64392e-05
49 *712:D *425:111 0.000135069
50 *712:DE *699:CLK 0
51 *712:DE *425:111 3.61138e-05
52 *713:D *713:CLK 2.14228e-05
53 *713:DE *425:42 9.90332e-05
54 *801:A *683:CLK 0.00011818
55 *895:A *711:CLK 6.14273e-05
56 *30:16 *711:CLK 0.000267521
57 *31:35 *699:CLK 6.29536e-05
58 *33:10 *425:102 0.00038981
59 *53:12 *425:12 2.15326e-05
60 *58:16 *711:CLK 1.78942e-05
61 *59:12 *711:CLK 0
62 *171:16 *699:CLK 0.000213116
63 *172:10 *684:CLK 0.000183811
64 *172:10 *425:42 0
65 *172:20 *425:42 0
66 *184:18 *696:CLK 1.71784e-05
67 *188:8 *711:CLK 2.45315e-05
68 *188:8 *425:12 1.93103e-06
69 *189:14 *425:42 0
70 *200:16 *425:102 7.28567e-06
71 *200:16 *425:111 0.000196939
72 *271:8 *711:CLK 6.37372e-05
73 *272:12 *711:CLK 0
74 *350:24 *699:CLK 0.000122098
75 *351:184 *683:CLK 0
76 *351:184 *425:72 0
77 *355:12 *425:102 0.000119367
78 *368:27 *425:102 0.000181742
79 *389:20 *425:12 2.47295e-05
80 *389:20 *425:33 0.000112768
81 *406:16 *711:CLK 0.000290091
82 *408:62 *684:CLK 0.000209636
83 *408:62 *713:CLK 1.03403e-05
84 *408:62 *425:42 8.36586e-06
85 *408:62 *425:55 9.43419e-05
86 *408:62 *425:72 2.86829e-05
87 *412:64 *425:33 3.92385e-05
88 *412:94 *425:33 4.75721e-06
89 *420:54 *683:CLK 0
90 *420:54 *684:CLK 2.08133e-05
91 *420:54 *425:72 0
*RES
1 *927:X *425:4 9.24915 
2 *425:4 *425:12 13.7738 
3 *425:12 *711:CLK 41.388 
4 *425:12 *425:33 10.4845 
5 *425:33 *930:A 13.7491 
6 *425:33 *425:42 10.9675 
7 *425:42 *713:CLK 17.6796 
8 *425:42 *425:55 1.832 
9 *425:55 *684:CLK 28.9646 
10 *425:55 *425:72 4.32351 
11 *425:72 *697:CLK 13.7491 
12 *425:72 *683:CLK 31.4154 
13 *425:4 *425:102 28.8017 
14 *425:102 *712:CLK 9.24915 
15 *425:102 *425:111 12.9878 
16 *425:111 *696:CLK 18.129 
17 *425:111 *699:CLK 30.115 
*END

*D_NET *166 0.0013228
*CONN
*I *853:A I *D sky130_fd_sc_hd__buf_6
*I *659:A I *D sky130_fd_sc_hd__nor2_4
*I *658:X O *D sky130_fd_sc_hd__or2_4
*CAP
1 *853:A 8.54204e-05
2 *659:A 8.2519e-05
3 *658:X 0.000280287
4 *166:6 0.000448227
5 *659:A *286:8 4.80635e-06
6 *853:A *351:24 0
7 *853:A *426:20 0.000177772
8 *166:6 *658:A 6.08467e-05
9 *166:6 *658:B 8.18038e-05
10 *566:B *853:A 0
11 *671:B1 *853:A 0.000101118
*RES
1 *658:X *166:6 16.0732 
2 *166:6 *659:A 11.1059 
3 *166:6 *853:A 21.9056 
*END

*D_NET *167 0.00261678
*CONN
*I *916:A I *D sky130_fd_sc_hd__buf_12
*I *915:A I *D sky130_fd_sc_hd__buf_12
*I *673:Y O *D sky130_fd_sc_hd__o21bai_4
*CAP
1 *916:A 0.000250436
2 *915:A 0.000673657
3 *673:Y 0
4 *167:6 0.000924093
5 *915:A *673:A2 0.000130006
6 *915:A *919:A 0.000103161
7 *915:A *924:A 0.000133626
8 *915:A *413:10 7.48797e-05
9 *916:A *673:A1 9.50523e-05
10 *916:A *673:A2 1.37421e-05
11 *916:A *924:A 0.000218131
12 *916:A *453:10 0
*RES
1 *673:Y *167:6 13.7491 
2 *167:6 *915:A 31.5732 
3 *167:6 *916:A 21.1927 
*END

*D_NET *168 0.00115701
*CONN
*I *657:A I *D sky130_fd_sc_hd__inv_1
*I *662:B1 I *D sky130_fd_sc_hd__o21ai_0
*I *668:A1 I *D sky130_fd_sc_hd__o21ai_1
*I *680:Q O *D sky130_fd_sc_hd__dfxtp_1
*CAP
1 *657:A 4.89481e-05
2 *662:B1 1.92463e-05
3 *668:A1 0
4 *680:Q 0.00016474
5 *168:21 0.000222243
6 *168:10 0.000318788
7 *657:A *240:26 2.96015e-05
8 *662:B1 *240:26 6.27718e-05
9 *168:10 *453:79 0.000142538
10 *669:A2 *168:10 1.03594e-05
11 *669:A2 *168:21 0.000137777
*RES
1 *680:Q *168:10 17.2744 
2 *168:10 *668:A1 13.7491 
3 *168:10 *168:21 7.993 
4 *168:21 *662:B1 9.97254 
5 *168:21 *657:A 10.7622 
*END

*D_NET *169 0.00321739
*CONN
*I *559:B I *D sky130_fd_sc_hd__nand2b_1
*I *658:A I *D sky130_fd_sc_hd__or2_4
*I *949:A I *D sky130_fd_sc_hd__buf_4
*I *681:Q O *D sky130_fd_sc_hd__dfxtp_2
*CAP
1 *559:B 0.000210818
2 *658:A 1.47608e-05
3 *949:A 0
4 *681:Q 0.000281114
5 *169:19 0.000277417
6 *169:10 0.000332953
7 *559:B *924:A 0.0002212
8 *559:B *931:A 0.000223619
9 *559:B *266:23 1.47046e-05
10 *559:B *351:24 8.71824e-05
11 *559:B *445:10 0.00013905
12 *658:A *658:B 6.08467e-05
13 *169:10 *924:A 0.000306281
14 *169:10 *444:14 1.36815e-05
15 *169:10 *453:79 0.000109421
16 *169:19 *924:A 0.000174175
17 *494:B1 *559:B 1.47046e-05
18 *566:B *559:B 0.000373291
19 *566:B *169:10 8.62625e-06
20 *566:B *169:19 0.000161966
21 *83:10 *169:10 0.000130732
22 *166:6 *658:A 6.08467e-05
*RES
1 *681:Q *169:10 21.0117 
2 *169:10 *949:A 13.7491 
3 *169:10 *169:19 3.07775 
4 *169:19 *658:A 14.4725 
5 *169:19 *559:B 24.4763 
*END

*D_NET *170 0.00164285
*CONN
*I *467:A I *D sky130_fd_sc_hd__nor2b_4
*I *952:A I *D sky130_fd_sc_hd__buf_6
*I *682:Q O *D sky130_fd_sc_hd__edfxtp_1
*CAP
1 *467:A 0.000227255
2 *952:A 0
3 *682:Q 0.0003407
4 *170:10 0.000567955
5 *467:A *467:B_N 7.57637e-05
6 *467:A *395:12 6.84737e-05
7 *170:10 *682:D 0.000295985
8 *170:10 *395:12 4.86366e-05
9 *655:A2 *170:10 1.8078e-05
*RES
1 *682:Q *170:10 20.3247 
2 *170:10 *952:A 13.7491 
3 *170:10 *467:A 20.5642 
*END

*D_NET *171 0.00277566
*CONN
*I *501:A I *D sky130_fd_sc_hd__inv_1
*I *521:A I *D sky130_fd_sc_hd__xor2_1
*I *683:Q O *D sky130_fd_sc_hd__edfxtp_1
*CAP
1 *501:A 2.51589e-06
2 *521:A 6.75511e-05
3 *683:Q 0.000639343
4 *171:16 0.00070941
5 *521:A *414:110 0.00012316
6 *171:16 *607:B 0.000165042
7 *171:16 *699:CLK 0.000213116
8 *171:16 *421:8 0.000113968
9 *608:B *501:A 3.48806e-05
10 *608:B *521:A 0.000433163
11 *608:B *171:16 0.000194219
12 *31:6 *171:16 4.14014e-05
13 *31:35 *171:16 3.78883e-05
*RES
1 *683:Q *171:16 36.7787 
2 *171:16 *521:A 13.8548 
3 *171:16 *501:A 9.62893 
*END

*D_NET *172 0.00422085
*CONN
*I *552:A1 I *D sky130_fd_sc_hd__a21oi_1
*I *550:B I *D sky130_fd_sc_hd__nand2b_1
*I *908:A I *D sky130_fd_sc_hd__buf_4
*I *684:Q O *D sky130_fd_sc_hd__edfxtp_1
*CAP
1 *552:A1 0.000261814
2 *550:B 3.39988e-07
3 *908:A 0.000305518
4 *684:Q 0.000423701
5 *172:20 0.000522259
6 *172:10 0.000901916
7 *552:A1 *551:A 6.08467e-05
8 *552:A1 *189:14 9.32983e-05
9 *908:A *550:A_N 6.78763e-05
10 *908:A *596:S 0.000215587
11 *908:A *272:12 0
12 *908:A *389:20 6.94808e-05
13 *908:A *391:31 7.54269e-06
14 *908:A *391:37 2.41274e-06
15 *908:A *406:16 2.82898e-05
16 *172:10 *684:CLK 0.000183811
17 *172:10 *189:14 0.000148144
18 *172:10 *391:10 4.18989e-05
19 *172:10 *408:62 0.000139817
20 *172:10 *425:42 0
21 *172:10 *463:33 0.00019673
22 *172:20 *666:B 5.56367e-05
23 *172:20 *389:20 6.17949e-05
24 *172:20 *391:10 9.75356e-05
25 *172:20 *391:31 4.97617e-05
26 *172:20 *425:42 0
27 *552:A2 *552:A1 9.84918e-05
28 *553:A2 *550:B 2.63241e-07
29 *553:A2 *908:A 4.90394e-05
30 *553:A2 *172:20 0.000137038
*RES
1 *684:Q *172:10 25.5808 
2 *172:10 *172:20 11.2859 
3 *172:20 *908:A 26.8059 
4 *172:20 *550:B 9.42999 
5 *172:10 *552:A1 19.464 
*END

*D_NET *173 0.00213691
*CONN
*I *552:B1 I *D sky130_fd_sc_hd__a21oi_1
*I *907:A I *D sky130_fd_sc_hd__buf_4
*I *685:Q O *D sky130_fd_sc_hd__edfxtp_1
*CAP
1 *552:B1 5.52875e-05
2 *907:A 0.000107129
3 *685:Q 0.000455496
4 *173:12 0.000617912
5 *907:A *591:S 6.50586e-05
6 *907:A *272:12 7.65399e-05
7 *907:A *405:8 0.000122378
8 *907:A *414:57 8.14875e-05
9 *173:12 *684:DE 9.43419e-05
10 *173:12 *701:D 0.000142446
11 *173:12 *272:12 5.56367e-05
12 *173:12 *351:135 9.38979e-05
13 *173:12 *351:150 1.33419e-05
14 *173:12 *414:72 7.09196e-05
15 *553:B1 *552:B1 2.57986e-05
16 *553:B1 *173:12 5.92342e-05
17 *30:16 *173:12 0
*RES
1 *685:Q *173:12 31.3238 
2 *173:12 *907:A 13.3002 
3 *173:12 *552:B1 10.5271 
*END

*D_NET *174 0.00249909
*CONN
*I *546:B_N I *D sky130_fd_sc_hd__nor2b_1
*I *878:A I *D sky130_fd_sc_hd__buf_4
*I *547:A I *D sky130_fd_sc_hd__nor2b_1
*I *686:Q O *D sky130_fd_sc_hd__edfxtp_1
*CAP
1 *546:B_N 7.81602e-05
2 *878:A 0.0001321
3 *547:A 0.000396285
4 *686:Q 0
5 *174:23 0.000377066
6 *174:4 0.000563091
7 *546:B_N *574:A_N 0
8 *546:B_N *190:18 0.000328363
9 *546:B_N *356:10 0.000224395
10 *546:B_N *390:12 6.50586e-05
11 *547:A *547:B_N 0.000184498
12 *878:A *376:16 4.57371e-05
13 *174:23 *547:B_N 4.92359e-05
14 *174:23 *376:16 2.19131e-05
15 *174:23 *390:12 3.31882e-05
*RES
1 *686:Q *174:4 9.24915 
2 *174:4 *547:A 25.7946 
3 *174:4 *174:23 8.02665 
4 *174:23 *878:A 16.8269 
5 *174:23 *546:B_N 17.9784 
*END

*D_NET *175 0.00265454
*CONN
*I *542:A I *D sky130_fd_sc_hd__xnor2_1
*I *490:A I *D sky130_fd_sc_hd__inv_1
*I *906:A I *D sky130_fd_sc_hd__buf_4
*I *687:Q O *D sky130_fd_sc_hd__edfxtp_1
*CAP
1 *542:A 4.17105e-05
2 *490:A 9.63516e-05
3 *906:A 0
4 *687:Q 5.81004e-05
5 *175:17 0.000594451
6 *175:6 0.000514489
7 *490:A *570:C1 0.000160001
8 *490:A *931:A 4.05018e-05
9 *490:A *266:23 1.03594e-05
10 *542:A *388:16 2.23108e-05
11 *175:6 *351:24 0.000135765
12 *175:6 *427:14 0.000111802
13 *175:17 *570:C1 0.000189598
14 *175:17 *577:D 6.4266e-05
15 *175:17 *931:A 1.44309e-05
16 *175:17 *388:16 5.47736e-05
17 *175:17 *388:31 4.55535e-05
18 *175:17 *404:8 5.46797e-05
19 *175:17 *404:20 2.71614e-05
20 *175:17 *427:14 0.000308582
21 *494:B1 *490:A 3.39578e-05
22 *575:B1 *175:17 0
23 *578:C1 *175:17 0
24 *862:A *542:A 4.24629e-05
25 *77:10 *490:A 1.13587e-05
26 *77:25 *175:17 2.18741e-05
*RES
1 *687:Q *175:6 11.3591 
2 *175:6 *906:A 9.24915 
3 *175:6 *175:17 18.5487 
4 *175:17 *490:A 17.2067 
5 *175:17 *542:A 15.0271 
*END

*D_NET *176 0.00433038
*CONN
*I *568:B I *D sky130_fd_sc_hd__maj3_2
*I *905:A I *D sky130_fd_sc_hd__buf_4
*I *688:Q O *D sky130_fd_sc_hd__edfxtp_1
*CAP
1 *568:B 0
2 *905:A 0.00022026
3 *688:Q 0.000565091
4 *176:14 0.00078535
5 *905:A *558:B 0.000324166
6 *905:A *674:A 0.000182
7 *905:A *674:B 0.000158306
8 *905:A *842:A 2.95757e-05
9 *905:A *941:A 0.000171273
10 *905:A *354:41 7.89406e-05
11 *176:14 *688:DE 3.31733e-05
12 *176:14 *842:A 6.08467e-05
13 *176:14 *351:52 7.90692e-05
14 *176:14 *351:54 0.000332543
15 *176:14 *351:135 4.70104e-05
16 *176:14 *408:81 0.000136421
17 *568:A *905:A 1.07248e-05
18 *568:C *176:14 9.7431e-05
19 *675:B *905:A 0.000644065
20 *85:10 *176:14 4.54077e-05
21 *86:16 *905:A 5.04879e-05
22 *86:40 *905:A 1.37925e-05
23 *158:18 *176:14 0.000264443
*RES
1 *688:Q *176:14 37.8803 
2 *176:14 *905:A 31.3633 
3 *176:14 *568:B 9.24915 
*END

*D_NET *177 0.00402298
*CONN
*I *466:B I *D sky130_fd_sc_hd__nand2b_4
*I *469:A I *D sky130_fd_sc_hd__nor2b_2
*I *904:A I *D sky130_fd_sc_hd__buf_4
*I *689:Q O *D sky130_fd_sc_hd__edfxtp_1
*CAP
1 *466:B 0.000319089
2 *469:A 6.03687e-05
3 *904:A 3.42267e-05
4 *689:Q 0.00050724
5 *177:23 0.000641616
6 *177:12 0.000803625
7 *466:B *466:A_N 9.36917e-05
8 *466:B *664:B 0
9 *466:B *401:10 0.000130808
10 *466:B *411:8 0.000261135
11 *469:A *469:B_N 0.000107496
12 *469:A *193:14 6.08467e-05
13 *904:A *402:8 0.000111352
14 *904:A *413:56 4.61271e-05
15 *904:A *416:52 0.000208621
16 *177:12 *513:A0 0
17 *177:12 *513:A1 0.000148144
18 *177:12 *689:CLK 0
19 *177:12 *351:81 0.000148932
20 *177:23 *888:A 0.000165051
21 *177:23 *401:10 5.05252e-05
22 *177:23 *411:18 3.286e-05
23 *177:23 *455:22 0
24 *6:10 *466:B 3.03825e-05
25 *9:8 *469:A 6.08467e-05
*RES
1 *689:Q *177:12 25.3438 
2 *177:12 *904:A 16.1364 
3 *177:12 *177:23 6.81502 
4 *177:23 *469:A 15.5817 
5 *177:23 *466:B 23.506 
*END

*D_NET *178 0.00242321
*CONN
*I *468:A I *D sky130_fd_sc_hd__nor2b_4
*I *465:B I *D sky130_fd_sc_hd__and2b_2
*I *936:A I *D sky130_fd_sc_hd__buf_4
*I *690:Q O *D sky130_fd_sc_hd__edfxtp_1
*CAP
1 *468:A 0.00035836
2 *465:B 0
3 *936:A 1.41955e-05
4 *690:Q 0.000317277
5 *178:21 0.000520027
6 *178:10 0.00049314
7 *468:A *468:B_N 0.000317001
8 *468:A *480:B 5.8334e-05
9 *468:A *462:24 0.000114659
10 *936:A *513:A0 6.27718e-05
11 *936:A *416:72 2.58616e-05
12 *178:10 *826:A 0
13 *178:10 *275:12 0
14 *178:10 *410:72 4.60308e-05
15 *5:10 *468:A 9.43419e-05
16 *20:10 *468:A 1.21461e-06
*RES
1 *690:Q *178:10 19.2155 
2 *178:10 *936:A 14.4725 
3 *178:10 *178:21 3.07775 
4 *178:21 *465:B 13.7491 
5 *178:21 *468:A 23.5357 
*END

*D_NET *179 0.00405456
*CONN
*I *472:A_N I *D sky130_fd_sc_hd__nand2b_1
*I *881:A I *D sky130_fd_sc_hd__buf_4
*I *902:A I *D sky130_fd_sc_hd__buf_4
*I *471:B I *D sky130_fd_sc_hd__and2b_1
*I *691:Q O *D sky130_fd_sc_hd__edfxtp_1
*CAP
1 *472:A_N 0.000252829
2 *881:A 4.49493e-05
3 *902:A 4.84284e-05
4 *471:B 9.99901e-05
5 *691:Q 0.000114019
6 *179:40 0.000398775
7 *179:27 0.000417453
8 *179:10 0.000482037
9 *471:B *410:72 6.04767e-05
10 *472:A_N *524:A1 0.000261135
11 *472:A_N *642:A 4.46684e-05
12 *472:A_N *379:10 0.000338245
13 *472:A_N *384:6 0.000261135
14 *881:A *416:72 8.85947e-05
15 *902:A *410:72 1.84293e-05
16 *179:10 *448:12 9.34398e-05
17 *179:27 *471:A_N 5.41227e-05
18 *179:27 *512:A0 0.000340162
19 *179:27 *410:72 2.39581e-05
20 *179:40 *642:A 1.59362e-06
21 *179:40 *278:14 2.97405e-05
22 *179:40 *379:10 3.20264e-05
23 *482:B *881:A 0.000205681
24 *643:B1 *179:40 2.291e-05
25 *645:B1 *179:10 3.34802e-05
26 *645:B1 *179:27 1.5254e-05
27 *11:10 *179:27 0.00027103
*RES
1 *691:Q *179:10 16.1666 
2 *179:10 *471:B 15.6059 
3 *179:10 *179:27 13.156 
4 *179:27 *902:A 10.5513 
5 *179:27 *179:40 7.1625 
6 *179:40 *881:A 16.1364 
7 *179:40 *472:A_N 23.506 
*END

*D_NET *180 0.00655735
*CONN
*I *474:B_N I *D sky130_fd_sc_hd__or2b_1
*I *475:A I *D sky130_fd_sc_hd__or2b_1
*I *901:A I *D sky130_fd_sc_hd__buf_4
*I *692:Q O *D sky130_fd_sc_hd__edfxtp_1
*CAP
1 *474:B_N 0.000114514
2 *475:A 0.000422139
3 *901:A 0.000112291
4 *692:Q 0.000817225
5 *180:23 0.00098402
6 *180:10 0.00137688
7 *474:B_N *876:A 7.92757e-06
8 *474:B_N *196:33 3.82228e-05
9 *474:B_N *354:198 9.99386e-06
10 *474:B_N *371:12 1.44467e-05
11 *474:B_N *380:34 2.16355e-05
12 *474:B_N *410:39 6.94589e-05
13 *475:A *196:27 7.92757e-06
14 *475:A *196:33 0.000632154
15 *901:A *511:A0 1.19856e-05
16 *901:A *511:S 0
17 *901:A *512:S 1.61631e-05
18 *901:A *641:A1 0
19 *901:A *708:D 4.31539e-05
20 *180:10 *641:A1 0.000309797
21 *180:10 *692:D 0.000298402
22 *180:10 *692:DE 3.81987e-05
23 *180:23 *636:A0 0.000179671
24 *180:23 *708:DE 0.000106124
25 *180:23 *354:185 0.000193689
26 *180:23 *354:198 2.75427e-05
27 *180:23 *410:39 0.000340043
28 *180:23 *410:43 0.000160135
29 *180:23 *413:60 7.28994e-06
30 *638:B1 *180:10 7.97944e-05
31 *641:A2 *180:10 5.28741e-05
32 *641:B1 *180:10 6.36477e-05
*RES
1 *692:Q *180:10 33.7361 
2 *180:10 *901:A 12.2151 
3 *180:10 *180:23 20.0353 
4 *180:23 *475:A 21.1278 
5 *180:23 *474:B_N 16.9985 
*END

*D_NET *181 0.00120804
*CONN
*I *882:A I *D sky130_fd_sc_hd__buf_4
*I *528:A1 I *D sky130_fd_sc_hd__a21boi_0
*I *693:Q O *D sky130_fd_sc_hd__edfxtp_1
*CAP
1 *882:A 0
2 *528:A1 9.98997e-05
3 *693:Q 0.000360142
4 *181:12 0.000460042
5 *181:12 *710:DE 2.96496e-05
6 *181:12 *847:A 0
7 *181:12 *408:107 0.000220561
8 *181:12 *413:92 1.11613e-05
9 *528:A2 *528:A1 2.65831e-05
*RES
1 *693:Q *181:12 26.3436 
2 *181:12 *528:A1 11.6364 
3 *181:12 *882:A 9.24915 
*END

*D_NET *182 0.00416214
*CONN
*I *600:B_N I *D sky130_fd_sc_hd__nor2b_1
*I *532:B1 I *D sky130_fd_sc_hd__a21oi_1
*I *900:A I *D sky130_fd_sc_hd__buf_4
*I *601:A2 I *D sky130_fd_sc_hd__a31oi_4
*I *694:Q O *D sky130_fd_sc_hd__edfxtp_1
*CAP
1 *600:B_N 0.000205268
2 *532:B1 0.000115883
3 *900:A 0
4 *601:A2 0.000558762
5 *694:Q 0.000179477
6 *182:43 0.000488456
7 *182:14 0.000570935
8 *600:B_N *198:41 7.77309e-06
9 *601:A2 *408:107 9.32076e-05
10 *182:14 *694:D 4.5175e-06
11 *182:14 *351:238 0
12 *182:14 *354:208 0.000109978
13 *182:14 *398:10 6.64392e-05
14 *182:14 *408:107 7.16754e-05
15 *182:43 *601:A3 0.000116014
16 *530:A2 *600:B_N 3.40805e-05
17 *532:A1 *532:B1 2.78122e-05
18 *532:A1 *182:43 2.12616e-05
19 *539:A3 *532:B1 1.43698e-05
20 *629:A2 *601:A2 4.7372e-05
21 *629:B1 *601:A2 0.00013863
22 *629:B1 *182:14 3.89073e-05
23 *630:B *532:B1 3.82228e-05
24 *667:A *532:B1 0.000309003
25 *50:18 *601:A2 0.00011252
26 *50:18 *182:43 0.000219456
27 *109:10 *182:43 0.00019327
28 *132:12 *601:A2 4.77739e-05
29 *156:16 *600:B_N 0.000331074
*RES
1 *694:Q *182:14 23.3297 
2 *182:14 *601:A2 21.2816 
3 *182:14 *900:A 9.24915 
4 *601:A2 *182:43 15.7115 
5 *182:43 *532:B1 13.3002 
6 *182:43 *600:B_N 24.6489 
*END

*D_NET *183 0.00649588
*CONN
*I *533:B I *D sky130_fd_sc_hd__nand2b_4
*I *602:A I *D sky130_fd_sc_hd__nor2b_1
*I *517:A I *D sky130_fd_sc_hd__xor2_1
*I *508:A0 I *D sky130_fd_sc_hd__mux2_4
*I *695:Q O *D sky130_fd_sc_hd__edfxtp_1
*CAP
1 *533:B 0.000402525
2 *602:A 2.7349e-05
3 *517:A 2.53139e-05
4 *508:A0 8.24337e-05
5 *695:Q 0.000497305
6 *183:40 0.000982132
7 *183:25 0.00114375
8 *183:10 0.00114592
9 *508:A0 *508:A1 0.000154385
10 *508:A0 *508:S 6.27782e-05
11 *508:A0 *831:A 0.000150277
12 *508:A0 *408:91 1.4106e-05
13 *508:A0 *415:12 0.000114271
14 *517:A *378:23 1.43439e-05
15 *517:A *378:32 1.02267e-05
16 *533:B *463:75 0.000180772
17 *183:10 *634:A 3.22723e-06
18 *183:10 *231:14 3.06627e-05
19 *183:10 *351:202 0.000203865
20 *183:10 *408:107 0
21 *183:25 resp_msg[7] 2.21495e-05
22 *183:25 *633:S 9.30552e-05
23 *183:25 *665:D 0.000112361
24 *183:25 *231:14 0.000140143
25 *183:25 *378:23 4.51244e-06
26 *183:25 *378:32 0.000210531
27 *183:40 *378:23 8.51393e-05
28 *605:B1 *183:40 0.000263589
29 *864:A *533:B 2.30636e-05
30 *52:8 *533:B 6.33732e-05
31 *112:10 *183:40 0.000114584
32 *156:16 *533:B 5.97908e-05
33 *156:16 *602:A 5.79499e-05
*RES
1 *695:Q *183:10 22.4038 
2 *183:10 *508:A0 18.9094 
3 *183:10 *183:25 18.8372 
4 *183:25 *517:A 10.274 
5 *183:25 *183:40 13.8439 
6 *183:40 *602:A 14.7506 
7 *183:40 *533:B 21.3148 
*END

*D_NET *184 0.00746967
*CONN
*I *899:A I *D sky130_fd_sc_hd__buf_4
*I *505:A I *D sky130_fd_sc_hd__inv_1
*I *516:A I *D sky130_fd_sc_hd__xor2_1
*I *696:Q O *D sky130_fd_sc_hd__edfxtp_1
*CAP
1 *899:A 0.000266947
2 *505:A 0.000102589
3 *516:A 1.47608e-05
4 *696:Q 0.00138245
5 *184:31 0.000540093
6 *184:18 0.00156777
7 *505:A *538:B 4.11692e-05
8 *505:A *606:A3 5.04829e-06
9 *505:A *355:12 2.16355e-05
10 *505:A *394:33 7.93204e-05
11 *505:A *425:102 0.000117159
12 *516:A *200:20 6.08467e-05
13 *516:A *377:21 6.08467e-05
14 *899:A *606:A3 8.07484e-05
15 *899:A *394:33 0.000153578
16 *899:A *415:61 0.000356342
17 *184:18 *613:A 9.18685e-06
18 *184:18 *621:A 5.92517e-05
19 *184:18 *621:B 0.000397416
20 *184:18 *696:D 0.000143579
21 *184:18 *696:DE 3.44641e-05
22 *184:18 *696:CLK 1.71784e-05
23 *184:18 *200:16 8.22857e-06
24 *184:18 *355:12 5.77352e-05
25 *184:18 *377:21 0.000311249
26 *184:18 *415:61 0.000517206
27 *184:31 *355:12 0.000333062
28 *622:B1 *184:18 0.000118166
29 *852:A *899:A 0.000161956
30 *857:A *899:A 0
31 *857:A *184:31 8.61152e-06
32 *37:10 *899:A 0
33 *38:10 *899:A 3.12316e-05
34 *39:10 *899:A 3.37311e-05
35 *115:24 *184:18 5.05252e-05
36 *115:24 *184:31 0.000318522
37 *121:8 *184:18 7.06457e-06
*RES
1 *696:Q *184:18 44.9765 
2 *184:18 *516:A 14.4725 
3 *184:18 *184:31 11.7303 
4 *184:31 *505:A 13.0892 
5 *184:31 *899:A 28.6999 
*END

*D_NET *185 0.00275375
*CONN
*I *504:A0 I *D sky130_fd_sc_hd__mux2_4
*I *519:B I *D sky130_fd_sc_hd__nand2b_1
*I *518:A I *D sky130_fd_sc_hd__nor2b_1
*I *898:A I *D sky130_fd_sc_hd__buf_4
*I *697:Q O *D sky130_fd_sc_hd__edfxtp_1
*CAP
1 *504:A0 3.93069e-05
2 *519:B 4.83927e-06
3 *518:A 0
4 *898:A 0.000241208
5 *697:Q 0.000214345
6 *185:20 0.000339961
7 *185:14 0.000444734
8 *185:10 0.000594795
9 *504:A0 *504:A1 5.04829e-06
10 *504:A0 *504:S 7.16058e-05
11 *504:A0 *713:D 7.92757e-06
12 *898:A *519:A_N 0.00011818
13 *898:A *537:A1 6.08467e-05
14 *185:10 *504:A1 9.29919e-05
15 *185:10 *611:A1 1.43298e-05
16 *185:14 *504:A1 5.37077e-05
17 *185:14 *617:A1 0
18 *185:14 *394:33 0
19 *185:14 *415:61 0
20 *185:20 *519:A_N 0.000153149
21 *609:B *185:14 0
22 *619:A2 *185:10 0.000106293
23 *619:A2 *185:14 0.000190483
*RES
1 *697:Q *185:10 19.3493 
2 *185:10 *185:14 12.1455 
3 *185:14 *185:20 3.54464 
4 *185:20 *898:A 15.5186 
5 *185:20 *518:A 9.24915 
6 *185:14 *519:B 9.42397 
7 *185:10 *504:A0 15.0513 
*END

*D_NET *186 0.000804341
*CONN
*I *897:A I *D sky130_fd_sc_hd__buf_4
*I *467:B_N I *D sky130_fd_sc_hd__nor2b_4
*I *698:Q O *D sky130_fd_sc_hd__edfxtp_1
*CAP
1 *897:A 0
2 *467:B_N 0.000204512
3 *698:Q 3.36334e-05
4 *186:6 0.000238146
5 *186:6 *395:12 2.41274e-06
6 *186:6 *413:35 3.64243e-05
7 *467:A *467:B_N 7.57637e-05
8 *7:8 *467:B_N 0.000213449
*RES
1 *698:Q *186:6 10.2498 
2 *186:6 *467:B_N 24.2687 
3 *186:6 *897:A 9.24915 
*END

*D_NET *187 0.00520984
*CONN
*I *896:A I *D sky130_fd_sc_hd__buf_6
*I *521:B I *D sky130_fd_sc_hd__xor2_1
*I *699:Q O *D sky130_fd_sc_hd__edfxtp_1
*CAP
1 *896:A 7.53324e-05
2 *521:B 5.07134e-05
3 *699:Q 0.00161424
4 *187:12 0.00174029
5 *521:B *699:DE 0
6 *521:B *394:33 3.34802e-05
7 *896:A *699:DE 0
8 *896:A *394:33 5.18794e-05
9 *187:12 *502:B 0.000759667
10 *187:12 *503:A2 2.52287e-06
11 *187:12 *607:A 2.16355e-05
12 *187:12 *699:D 6.08467e-05
13 *187:12 *421:8 3.55126e-05
14 *503:B1 *187:12 2.97556e-05
15 *608:B *187:12 0.000733964
*RES
1 *699:Q *187:12 41.2744 
2 *187:12 *521:B 15.1659 
3 *187:12 *896:A 15.9964 
*END

*D_NET *188 0.004387
*CONN
*I *551:B I *D sky130_fd_sc_hd__nor2_1
*I *596:A0 I *D sky130_fd_sc_hd__mux2i_1
*I *550:A_N I *D sky130_fd_sc_hd__nand2b_1
*I *895:A I *D sky130_fd_sc_hd__buf_4
*I *700:Q O *D sky130_fd_sc_hd__edfxtp_1
*CAP
1 *551:B 0.0002107
2 *596:A0 0
3 *550:A_N 0.000157506
4 *895:A 0.000161394
5 *700:Q 0.000392245
6 *188:25 0.000200296
7 *188:21 0.000342314
8 *188:8 0.000642463
9 *550:A_N *596:S 6.36477e-05
10 *550:A_N *272:12 0
11 *551:B *820:A 0.000313916
12 *551:B *271:8 2.6524e-05
13 *895:A *666:C 6.92705e-05
14 *895:A *711:CLK 6.14273e-05
15 *895:A *271:8 0.000315626
16 *895:A *393:14 0.000115934
17 *895:A *406:16 0.000172886
18 *188:8 *711:CLK 2.45315e-05
19 *188:8 *425:12 1.93103e-06
20 *188:21 *271:8 0.000235476
21 *188:21 *406:16 0.000183252
22 *188:25 *596:A1 6.27718e-05
23 *188:25 *596:S 0.000145849
24 *598:A2 *551:B 0.000202596
25 *908:A *550:A_N 6.78763e-05
26 *30:16 *550:A_N 0.000200925
27 *30:16 *551:B 7.90533e-06
28 *30:16 *188:21 7.74044e-06
*RES
1 *700:Q *188:8 19.1867 
2 *188:8 *895:A 21.151 
3 *188:8 *188:21 4.32351 
4 *188:21 *188:25 6.3326 
5 *188:25 *550:A_N 22.8808 
6 *188:25 *596:A0 9.24915 
7 *188:21 *551:B 21.468 
*END

*D_NET *189 0.000769732
*CONN
*I *893:A I *D sky130_fd_sc_hd__buf_4
*I *551:A I *D sky130_fd_sc_hd__nor2_1
*I *701:Q O *D sky130_fd_sc_hd__edfxtp_1
*CAP
1 *893:A 0
2 *551:A 2.4672e-05
3 *701:Q 0.000174959
4 *189:14 0.000199632
5 *189:14 *391:10 6.08467e-05
6 *189:14 *414:89 7.33372e-06
7 *189:14 *425:42 0
8 *552:A1 *551:A 6.08467e-05
9 *552:A1 *189:14 9.32983e-05
10 *172:10 *189:14 0.000148144
*RES
1 *701:Q *189:14 23.1903 
2 *189:14 *551:A 9.97254 
3 *189:14 *893:A 9.24915 
*END

*D_NET *190 0.00431535
*CONN
*I *948:A I *D sky130_fd_sc_hd__buf_4
*I *546:A I *D sky130_fd_sc_hd__nor2b_1
*I *892:A I *D sky130_fd_sc_hd__buf_4
*I *547:B_N I *D sky130_fd_sc_hd__nor2b_1
*I *702:Q O *D sky130_fd_sc_hd__edfxtp_1
*CAP
1 *948:A 0
2 *546:A 2.06324e-05
3 *892:A 0
4 *547:B_N 0.000415512
5 *702:Q 4.98804e-05
6 *190:18 0.000611453
7 *190:14 0.000593967
8 *190:6 0.000427274
9 *547:B_N *686:DE 0
10 *190:6 *408:41 1.52443e-05
11 *190:14 *588:A 0.000623462
12 *190:14 *701:CLK 0.000222149
13 *190:14 *821:A 0.000141544
14 *190:14 *822:A 0.000370801
15 *190:14 *356:10 7.14917e-05
16 *190:18 *356:10 4.82966e-05
17 *546:B_N *190:18 0.000328363
18 *547:A *547:B_N 0.000184498
19 *594:A2 *190:14 0.000141544
20 *174:23 *547:B_N 4.92359e-05
*RES
1 *702:Q *190:6 10.2498 
2 *190:6 *190:14 23.478 
3 *190:14 *190:18 5.73894 
4 *190:18 *547:B_N 30.0906 
5 *190:18 *892:A 9.24915 
6 *190:14 *546:A 9.82786 
7 *190:6 *948:A 9.24915 
*END

*D_NET *191 0.0052615
*CONN
*I *884:A I *D sky130_fd_sc_hd__buf_4
*I *542:B I *D sky130_fd_sc_hd__xnor2_1
*I *890:A I *D sky130_fd_sc_hd__buf_4
*I *555:B I *D sky130_fd_sc_hd__maj3_1
*I *703:Q O *D sky130_fd_sc_hd__edfxtp_1
*CAP
1 *884:A 0.00102218
2 *542:B 7.63241e-05
3 *890:A 0
4 *555:B 3.1964e-05
5 *703:Q 0
6 *191:33 0.000381147
7 *191:14 0.000642015
8 *191:4 0.00132741
9 *542:B *388:10 2.09695e-05
10 *542:B *388:16 8.41174e-05
11 *555:B *711:DE 6.27782e-05
12 *555:B *452:37 5.66985e-05
13 *884:A *595:A 1.86458e-05
14 *884:A *412:8 2.84786e-05
15 *884:A *412:64 7.86825e-06
16 *191:14 *711:DE 0.000395492
17 *191:14 *354:24 6.46815e-05
18 *191:14 *354:41 4.76794e-05
19 *191:14 *452:37 9.46346e-05
20 *191:33 *388:10 2.8212e-05
21 *191:33 *414:38 0.000185159
22 *549:B *542:B 1.4106e-05
23 *549:B *191:33 0.000549865
24 *862:A *542:B 3.64168e-05
25 *942:A *884:A 2.22974e-05
26 *73:14 *191:14 2.37851e-05
27 *75:12 *884:A 3.85659e-05
*RES
1 *703:Q *191:4 9.24915 
2 *191:4 *191:14 17.5475 
3 *191:14 *555:B 10.5513 
4 *191:14 *191:33 19.3412 
5 *191:33 *890:A 9.24915 
6 *191:33 *542:B 12.2151 
7 *191:4 *884:A 34.4285 
*END

*D_NET *192 0.000583941
*CONN
*I *889:A I *D sky130_fd_sc_hd__buf_4
*I *567:A I *D sky130_fd_sc_hd__inv_1
*I *704:Q O *D sky130_fd_sc_hd__edfxtp_1
*CAP
1 *889:A 0
2 *567:A 0.000175318
3 *704:Q 2.93321e-05
4 *192:6 0.00020465
5 *567:A *678:A0 0
6 *567:A *354:41 3.89082e-05
7 *567:A *354:47 5.46384e-06
8 *192:6 *557:B 8.75663e-05
9 *558:A *567:A 4.27031e-05
*RES
1 *704:Q *192:6 10.2498 
2 *192:6 *567:A 22.5372 
3 *192:6 *889:A 9.24915 
*END

*D_NET *193 0.00368981
*CONN
*I *903:A I *D sky130_fd_sc_hd__buf_4
*I *469:B_N I *D sky130_fd_sc_hd__nor2b_2
*I *466:A_N I *D sky130_fd_sc_hd__nand2b_4
*I *705:Q O *D sky130_fd_sc_hd__edfxtp_1
*CAP
1 *903:A 9.52004e-05
2 *469:B_N 3.68121e-05
3 *466:A_N 0.000171969
4 *705:Q 0.000700589
5 *193:14 0.000375014
6 *193:8 0.000962022
7 *466:A_N *401:10 0.000165481
8 *466:A_N *411:10 0.000188554
9 *466:A_N *411:18 0.00018643
10 *466:A_N *411:63 3.20407e-05
11 *469:B_N *664:D 0.000164829
12 *469:B_N *455:22 1.41689e-05
13 *903:A *704:DE 0
14 *903:A *455:22 3.01797e-05
15 *193:8 *225:18 0.000136061
16 *193:14 *704:DE 0
17 *193:14 *455:22 0.000122737
18 *466:B *466:A_N 9.36917e-05
19 *469:A *469:B_N 0.000107496
20 *469:A *193:14 6.08467e-05
21 *9:8 *469:B_N 4.56831e-05
*RES
1 *705:Q *193:8 24.1781 
2 *193:8 *193:14 9.41316 
3 *193:14 *466:A_N 25.4794 
4 *193:14 *469:B_N 11.6364 
5 *193:8 *903:A 15.9964 
*END

*D_NET *194 0.00268844
*CONN
*I *468:B_N I *D sky130_fd_sc_hd__nor2b_4
*I *887:A I *D sky130_fd_sc_hd__buf_6
*I *706:Q O *D sky130_fd_sc_hd__edfxtp_1
*CAP
1 *468:B_N 0.000142808
2 *887:A 0.000262332
3 *706:Q 0.000166752
4 *194:10 0.000571891
5 *468:B_N *480:B 0.000219249
6 *468:B_N *277:22 0.0001467
7 *468:B_N *351:69 5.71941e-06
8 *887:A *465:A_N 6.08467e-05
9 *887:A *277:22 6.27718e-05
10 *887:A *385:6 0.000159032
11 *887:A *385:13 6.08467e-05
12 *887:A *413:56 7.23063e-05
13 *194:10 *646:A0 0.000139684
14 *194:10 *277:22 0.000160001
15 *194:10 *351:69 7.28994e-06
16 *194:10 *416:52 0.000133207
17 *468:A *468:B_N 0.000317001
*RES
1 *706:Q *194:10 18.3822 
2 *194:10 *887:A 20.5973 
3 *194:10 *468:B_N 19.9081 
*END

*D_NET *195 0.00443623
*CONN
*I *886:A I *D sky130_fd_sc_hd__buf_4
*I *472:B I *D sky130_fd_sc_hd__nand2b_1
*I *471:A_N I *D sky130_fd_sc_hd__and2b_1
*I *707:Q O *D sky130_fd_sc_hd__edfxtp_1
*CAP
1 *886:A 0
2 *472:B 3.64212e-05
3 *471:A_N 0.000167799
4 *707:Q 0.0010809
5 *195:27 0.000266894
6 *195:12 0.00147917
7 *471:A_N *410:49 0
8 *471:A_N *459:20 0
9 *472:B *524:A1 7.60584e-05
10 *472:B *384:6 0.000174228
11 *195:12 *692:DE 0.000135774
12 *195:12 *278:14 0.000285383
13 *195:12 *410:45 8.26466e-05
14 *195:12 *410:101 0.000160854
15 *195:27 *524:A1 5.46384e-06
16 *195:27 *384:6 6.27718e-05
17 *482:A *471:A_N 5.23435e-05
18 *482:A *472:B 4.19058e-05
19 *482:A *195:27 0.000262769
20 *645:A1 *471:A_N 0
21 *645:B1 *471:A_N 1.07248e-05
22 *11:10 *471:A_N 0
23 *179:27 *471:A_N 5.41227e-05
*RES
1 *707:Q *195:12 32.1355 
2 *195:12 *471:A_N 18.0727 
3 *195:12 *195:27 11.2079 
4 *195:27 *472:B 11.2626 
5 *195:27 *886:A 9.24915 
*END

*D_NET *196 0.00480065
*CONN
*I *475:B_N I *D sky130_fd_sc_hd__or2b_1
*I *474:A I *D sky130_fd_sc_hd__or2b_1
*I *876:A I *D sky130_fd_sc_hd__buf_4
*I *639:A0 I *D sky130_fd_sc_hd__mux2i_1
*I *708:Q O *D sky130_fd_sc_hd__edfxtp_1
*CAP
1 *475:B_N 0
2 *474:A 0
3 *876:A 0.00032649
4 *639:A0 0
5 *708:Q 0.000574321
6 *196:33 0.000543229
7 *196:27 0.000720764
8 *196:14 0.00107835
9 *876:A *380:34 1.9547e-05
10 *196:14 *637:A 0
11 *196:14 *639:A1 0
12 *196:14 *692:CLK 0
13 *196:14 *292:15 0
14 *196:27 *639:A1 0
15 *196:27 *692:DE 0.000180452
16 *196:27 *197:10 0
17 *196:27 *197:23 0
18 *196:27 *351:238 0.000353122
19 *196:33 *371:12 0.000169041
20 *474:B_N *876:A 7.92757e-06
21 *474:B_N *196:33 3.82228e-05
22 *475:A *196:27 7.92757e-06
23 *475:A *196:33 0.000632154
24 *527:B *196:33 4.4379e-05
25 *638:B1 *196:14 0
26 *638:B1 *196:27 0
27 *641:A2 *196:14 0.000104731
28 *641:B1 *196:14 0
*RES
1 *708:Q *196:14 26.0838 
2 *196:14 *639:A0 13.7491 
3 *196:14 *196:27 18.6825 
4 *196:27 *196:33 9.5006 
5 *196:33 *876:A 14.6987 
6 *196:33 *474:A 9.24915 
7 *196:27 *475:B_N 9.24915 
*END

*D_NET *197 0.00571451
*CONN
*I *883:A I *D sky130_fd_sc_hd__buf_6
*I *527:A I *D sky130_fd_sc_hd__and2_1
*I *528:B1_N I *D sky130_fd_sc_hd__a21boi_0
*I *709:Q O *D sky130_fd_sc_hd__edfxtp_1
*CAP
1 *883:A 0.000106739
2 *527:A 0
3 *528:B1_N 0
4 *709:Q 0.00134051
5 *197:23 0.000423273
6 *197:10 0.00165704
7 *883:A *476:A2 6.27718e-05
8 *883:A *710:CLK 0.000405969
9 *883:A *381:8 6.27718e-05
10 *197:10 *639:A1 0.000264366
11 *197:10 *692:DE 0.000256146
12 *197:10 *709:D 2.93504e-05
13 *197:10 *847:A 4.20567e-05
14 *197:23 *710:CLK 0.000229614
15 *197:23 *847:A 1.93122e-05
16 *197:23 *966:A 0.000201317
17 *197:23 *351:238 0
18 *47:18 *883:A 6.56138e-05
19 *47:18 *197:23 0.000547657
20 *196:27 *197:10 0
21 *196:27 *197:23 0
*RES
1 *709:Q *197:10 37.6456 
2 *197:10 *528:B1_N 13.7491 
3 *197:10 *197:23 17.9997 
4 *197:23 *527:A 9.24915 
5 *197:23 *883:A 14.4335 
*END

*D_NET *198 0.0100612
*CONN
*I *633:A0 I *D sky130_fd_sc_hd__mux2i_1
*I *631:B I *D sky130_fd_sc_hd__xnor2_1
*I *531:C1 I *D sky130_fd_sc_hd__a211oi_2
*I *600:A I *D sky130_fd_sc_hd__nor2b_1
*I *530:B1_N I *D sky130_fd_sc_hd__a21boi_1
*I *663:B I *D sky130_fd_sc_hd__nor4_4
*I *710:Q O *D sky130_fd_sc_hd__edfxtp_1
*CAP
1 *633:A0 0.000203943
2 *631:B 0
3 *531:C1 9.64353e-05
4 *600:A 0.00021913
5 *530:B1_N 0
6 *663:B 0.000256091
7 *710:Q 0.000716705
8 *198:78 0.000294301
9 *198:41 0.000373306
10 *198:24 0.00102081
11 *198:20 0.0012345
12 *198:14 0.00133458
13 *531:C1 *529:B1 6.46815e-05
14 *531:C1 *531:B1 1.60442e-05
15 *531:C1 *601:A1 1.02917e-05
16 *600:A *934:A 2.24484e-05
17 *600:A *382:18 0
18 *633:A0 *509:A0 3.25494e-05
19 *633:A0 *354:208 4.25785e-05
20 *633:A0 *354:215 6.50727e-05
21 *663:B *663:D 6.27718e-05
22 *663:B *688:CLK 5.85071e-05
23 *663:B *382:18 0.00016195
24 *663:B *410:29 1.48571e-05
25 *198:14 *509:A0 0.000110458
26 *198:14 *509:A1 0.00015901
27 *198:14 *509:S 5.23435e-05
28 *198:14 *710:D 2.12721e-05
29 *198:14 *710:DE 3.20264e-05
30 *198:20 *354:208 0.00066008
31 *198:24 *601:A1 0.000575286
32 *198:41 *630:A 0.000154646
33 *198:41 *934:A 0.000325698
34 *198:78 *509:A0 0.000138334
35 *198:78 *354:208 2.09447e-05
36 *530:A2 *198:41 0
37 *531:A1 *531:C1 0.000182497
38 *531:A1 *198:20 0.000194873
39 *531:A1 *198:24 4.19058e-05
40 *539:A3 *600:A 0
41 *600:B_N *198:41 7.77309e-06
42 *629:B1 *633:A0 5.65074e-05
43 *635:A2 *633:A0 2.61147e-05
44 *635:B1 *633:A0 1.92172e-05
45 *677:A2 *663:B 0.000109427
46 *962:A *663:B 0.000168228
47 *962:A *198:24 3.73707e-05
48 *41:14 *600:A 8.19184e-05
49 *47:18 *531:C1 5.03545e-06
50 *48:6 *198:24 0.000114594
51 *50:18 *531:C1 3.44872e-05
52 *50:18 *198:20 0.000112367
53 *156:16 *600:A 0.000195139
54 *156:16 *198:41 0.000122098
*RES
1 *710:Q *198:14 35.5282 
2 *198:14 *198:20 13.6722 
3 *198:20 *198:24 10.7304 
4 *198:24 *663:B 17.3994 
5 *198:24 *198:41 10.4845 
6 *198:41 *530:B1_N 13.7491 
7 *198:41 *600:A 20.2081 
8 *198:20 *531:C1 22.0531 
9 *198:14 *198:78 7.1625 
10 *198:78 *631:B 13.7491 
11 *198:78 *633:A0 19.7928 
*END

*D_NET *199 0.00178336
*CONN
*I *533:A_N I *D sky130_fd_sc_hd__nand2b_4
*I *880:A I *D sky130_fd_sc_hd__buf_4
*I *711:Q O *D sky130_fd_sc_hd__edfxtp_1
*CAP
1 *533:A_N 0.000221651
2 *880:A 0.000252184
3 *711:Q 0.000155173
4 *199:8 0.000629008
5 *533:A_N *463:75 0.000130515
6 *880:A *382:18 6.27718e-05
7 *880:A *415:12 5.31465e-05
8 *199:8 *711:D 0.000106598
9 *157:14 *533:A_N 4.7687e-05
10 *157:14 *880:A 0.000124622
*RES
1 *711:Q *199:8 16.4137 
2 *199:8 *880:A 21.4297 
3 *199:8 *533:A_N 19.4928 
*END

*D_NET *200 0.00523163
*CONN
*I *516:B I *D sky130_fd_sc_hd__xor2_1
*I *534:B I *D sky130_fd_sc_hd__maj3_1
*I *879:A I *D sky130_fd_sc_hd__buf_4
*I *712:Q O *D sky130_fd_sc_hd__edfxtp_1
*CAP
1 *516:B 0
2 *534:B 0.000397152
3 *879:A 2.04017e-05
4 *712:Q 0.00112961
5 *200:20 0.000531266
6 *200:16 0.00124332
7 *534:B *604:A 3.42484e-05
8 *534:B *665:B 2.46387e-05
9 *534:B *368:6 0.000216458
10 *534:B *425:12 4.29314e-06
11 *879:A *603:A 0.000117376
12 *879:A *666:A 2.54243e-05
13 *200:16 *613:A 1.16216e-05
14 *200:16 *665:D 4.24488e-05
15 *200:16 *666:A 0.000364356
16 *200:16 *368:27 2.58757e-05
17 *200:16 *377:21 3.98267e-05
18 *200:16 *415:61 9.47181e-05
19 *200:16 *425:102 7.28567e-06
20 *200:16 *425:111 0.000196939
21 *200:20 *603:A 2.37325e-05
22 *200:20 *666:A 0.000133896
23 *200:20 *377:21 0.000100376
24 *200:20 *389:20 0
25 *516:A *200:20 6.08467e-05
26 *522:D *200:16 1.82824e-05
27 *534:A *534:B 0.00025527
28 *53:12 *534:B 1.43698e-05
29 *121:8 *200:16 8.938e-05
30 *184:18 *200:16 8.22857e-06
*RES
1 *712:Q *200:16 39.5767 
2 *200:16 *200:20 4.62973 
3 *200:20 *879:A 10.5271 
4 *200:20 *534:B 28.8984 
5 *200:16 *516:B 9.24915 
*END

*D_NET *201 0.00188023
*CONN
*I *617:A0 I *D sky130_fd_sc_hd__mux2i_1
*I *877:A I *D sky130_fd_sc_hd__buf_4
*I *519:A_N I *D sky130_fd_sc_hd__nand2b_1
*I *518:B_N I *D sky130_fd_sc_hd__nor2b_1
*I *713:Q O *D sky130_fd_sc_hd__edfxtp_1
*CAP
1 *617:A0 6.08567e-05
2 *877:A 0.000122836
3 *519:A_N 0.00010603
4 *518:B_N 0
5 *713:Q 0.000142063
6 *201:32 0.000183693
7 *201:14 0.00029564
8 *201:10 0.000331673
9 *617:A0 *414:110 9.9028e-05
10 *877:A *375:10 6.3657e-05
11 *877:A *414:110 0.000165444
12 *201:10 *713:D 3.79836e-05
13 *201:14 *375:10 0
14 *898:A *519:A_N 0.00011818
15 *185:20 *519:A_N 0.000153149
*RES
1 *713:Q *201:10 16.4425 
2 *201:10 *201:14 8.82351 
3 *201:14 *518:B_N 9.24915 
4 *201:14 *519:A_N 12.9385 
5 *201:10 *201:32 4.5 
6 *201:32 *877:A 13.3002 
7 *201:32 *617:A0 11.6364 
*END

*D_NET *202 0.00147263
*CONN
*I *682:D I *D sky130_fd_sc_hd__edfxtp_1
*I *655:Y O *D sky130_fd_sc_hd__o21ai_1
*CAP
1 *682:D 0.000495411
2 *655:Y 0.000495411
3 *682:D *655:A1 1.27683e-05
4 *682:D *682:DE 8.75716e-05
5 *682:D *682:CLK 5.76487e-05
6 *655:A2 *682:D 2.7837e-05
7 *170:10 *682:D 0.000295985
*RES
1 *655:Y *682:D 33.0024 
*END

*D_NET *203 0.000780411
*CONN
*I *683:D I *D sky130_fd_sc_hd__edfxtp_1
*I *611:Y O *D sky130_fd_sc_hd__o21ai_1
*CAP
1 *683:D 0.000173502
2 *611:Y 0.000173502
3 *683:D *610:A 0
4 *683:D *683:DE 0.000144599
5 *683:D *351:192 0.000101555
6 *611:A2 *683:D 6.27718e-05
7 *611:B1 *683:D 0.00012448
*RES
1 *611:Y *683:D 33.6517 
*END

*D_NET *204 0.00107521
*CONN
*I *684:D I *D sky130_fd_sc_hd__edfxtp_1
*I *598:Y O *D sky130_fd_sc_hd__o21ai_1
*CAP
1 *684:D 0.000296101
2 *598:Y 0.000296101
3 *684:D *684:DE 8.36635e-05
4 *684:D *684:CLK 0.000153623
5 *684:D *820:A 0.000122858
6 *684:D *463:33 0.000122858
*RES
1 *598:Y *684:D 36.8469 
*END

*D_NET *205 0.000613272
*CONN
*I *685:D I *D sky130_fd_sc_hd__edfxtp_1
*I *594:Y O *D sky130_fd_sc_hd__o21ai_1
*CAP
1 *685:D 0.000218111
2 *594:Y 0.000218111
3 *685:D *685:DE 8.37933e-05
4 *685:D *821:A 4.43331e-05
5 *685:D *420:13 4.89251e-05
*RES
1 *594:Y *685:D 32.5788 
*END

*D_NET *206 0.000422918
*CONN
*I *686:D I *D sky130_fd_sc_hd__edfxtp_1
*I *587:Y O *D sky130_fd_sc_hd__a31oi_1
*CAP
1 *686:D 0.000158997
2 *587:Y 0.000158997
3 *686:D *686:DE 6.46135e-05
4 *686:D *424:60 0
5 *686:D *424:62 0
6 *99:10 *686:D 4.03114e-05
*RES
1 *587:Y *686:D 31.2579 
*END

*D_NET *207 0.00103913
*CONN
*I *687:D I *D sky130_fd_sc_hd__edfxtp_1
*I *581:X O *D sky130_fd_sc_hd__a211o_1
*CAP
1 *687:D 0.000428621
2 *581:X 0.000428621
3 *687:D *581:A1 4.58003e-05
4 *687:D *687:CLK 0.000136084
5 *687:D *424:68 0
*RES
1 *581:X *687:D 35.6157 
*END

*D_NET *208 0.00133833
*CONN
*I *688:D I *D sky130_fd_sc_hd__edfxtp_1
*I *677:Y O *D sky130_fd_sc_hd__o21ai_1
*CAP
1 *688:D 0.000314946
2 *677:Y 0.000314946
3 *688:D *688:CLK 0.00041553
4 *688:D *354:41 1.25579e-05
5 *688:D *354:47 1.07403e-05
6 *85:10 *688:D 1.82679e-05
7 *86:16 *688:D 0.000251341
*RES
1 *677:Y *688:D 36.1072 
*END

*D_NET *209 0.00108232
*CONN
*I *689:D I *D sky130_fd_sc_hd__edfxtp_1
*I *651:Y O *D sky130_fd_sc_hd__o21ai_1
*CAP
1 *689:D 0.000299875
2 *651:Y 0.000299875
3 *689:D *489:B 0
4 *689:D *652:B 1.41853e-05
5 *689:D *655:A1 6.08467e-05
6 *689:D *689:DE 0.000137121
7 *689:D *689:CLK 3.91685e-05
8 *689:D *818:A 9.2346e-06
9 *689:D *354:82 0.000152743
10 *651:A2 *689:D 6.92705e-05
*RES
1 *651:Y *689:D 33.9519 
*END

*D_NET *210 0.00114207
*CONN
*I *690:D I *D sky130_fd_sc_hd__edfxtp_1
*I *648:Y O *D sky130_fd_sc_hd__o21ai_1
*CAP
1 *690:D 0.0002832
2 *648:Y 0.0002832
3 *690:D *690:DE 8.06219e-05
4 *690:D *690:CLK 3.1103e-05
5 *690:D *826:A 0.000146507
6 *690:D *351:73 0.000170592
7 *690:D *354:122 6.92705e-05
8 *648:A1 *690:D 7.75787e-05
*RES
1 *648:Y *690:D 36.3161 
*END

*D_NET *211 0.00141987
*CONN
*I *691:D I *D sky130_fd_sc_hd__edfxtp_1
*I *645:Y O *D sky130_fd_sc_hd__o21ai_1
*CAP
1 *691:D 0.000443439
2 *645:Y 0.000443439
3 *691:D *511:A0 0
4 *691:D *645:A2 0.00012568
5 *691:D *691:DE 6.92705e-05
6 *691:D *448:12 0.000217454
7 *645:B1 *691:D 0.000120584
*RES
1 *645:Y *691:D 40.1986 
*END

*D_NET *212 0.000507459
*CONN
*I *692:D I *D sky130_fd_sc_hd__edfxtp_1
*I *641:Y O *D sky130_fd_sc_hd__o21ai_1
*CAP
1 *692:D 0.000104529
2 *641:Y 0.000104529
3 *180:10 *692:D 0.000298402
*RES
1 *641:Y *692:D 21.7053 
*END

*D_NET *213 0.000409852
*CONN
*I *693:D I *D sky130_fd_sc_hd__edfxtp_1
*I *638:Y O *D sky130_fd_sc_hd__o21ai_1
*CAP
1 *693:D 8.63432e-05
2 *638:Y 8.63432e-05
3 *693:D *639:S 0.000237166
*RES
1 *638:Y *693:D 21.1507 
*END

*D_NET *214 0.00172442
*CONN
*I *694:D I *D sky130_fd_sc_hd__edfxtp_1
*I *635:Y O *D sky130_fd_sc_hd__o21ai_1
*CAP
1 *694:D 0.000774373
2 *635:Y 0.000774373
3 *694:D *694:DE 9.17835e-05
4 *694:D *354:215 1.00981e-05
5 *635:A2 *694:D 6.92705e-05
6 *182:14 *694:D 4.5175e-06
*RES
1 *635:Y *694:D 33.2676 
*END

*D_NET *215 0.000651793
*CONN
*I *695:D I *D sky130_fd_sc_hd__edfxtp_1
*I *629:Y O *D sky130_fd_sc_hd__o21ai_1
*CAP
1 *695:D 0.000153464
2 *629:Y 0.000153464
3 *695:D *694:DE 3.15919e-05
4 *695:D *381:44 0.000158373
5 *695:D *408:107 0.0001549
*RES
1 *629:Y *695:D 33.8566 
*END

*D_NET *216 0.00157456
*CONN
*I *696:D I *D sky130_fd_sc_hd__edfxtp_1
*I *624:Y O *D sky130_fd_sc_hd__o21ai_1
*CAP
1 *696:D 0.00046524
2 *624:Y 0.00046524
3 *696:D *623:B 0.000122844
4 *696:D *633:S 2.72051e-05
5 *696:D *351:202 0
6 *622:B1 *696:D 9.60216e-05
7 *624:A2 *696:D 0.00025014
8 *624:B1 *696:D 4.29314e-06
9 *184:18 *696:D 0.000143579
*RES
1 *624:Y *696:D 39.3502 
*END

*D_NET *217 0.000892777
*CONN
*I *697:D I *D sky130_fd_sc_hd__edfxtp_1
*I *619:Y O *D sky130_fd_sc_hd__o21ai_1
*CAP
1 *697:D 0.000301876
2 *619:Y 0.000301876
3 *697:D *351:167 6.77912e-05
4 *697:D *351:184 0.000170352
5 *619:B1 *697:D 5.08824e-05
*RES
1 *619:Y *697:D 36.2923 
*END

*D_NET *218 0.000824046
*CONN
*I *698:D I *D sky130_fd_sc_hd__edfxtp_1
*I *515:X O *D sky130_fd_sc_hd__mux2_4
*CAP
1 *698:D 0.000312036
2 *515:X 0.000312036
3 *698:D *515:S 0.000114271
4 *698:D *698:DE 8.5703e-05
*RES
1 *515:X *698:D 35.4884 
*END

*D_NET *219 0.000569463
*CONN
*I *699:D I *D sky130_fd_sc_hd__edfxtp_1
*I *503:Y O *D sky130_fd_sc_hd__o21ai_1
*CAP
1 *699:D 8.92289e-05
2 *503:Y 8.92289e-05
3 *699:D *503:A2 7.97098e-06
4 *699:D *607:A 0.000143657
5 *699:D *699:DE 3.14375e-05
6 *699:D *351:192 5.34249e-06
7 *699:D *451:10 0.000136702
8 *503:B1 *699:D 5.04829e-06
9 *187:12 *699:D 6.08467e-05
*RES
1 *503:Y *699:D 31.2579 
*END

*D_NET *220 0.000467645
*CONN
*I *700:D I *D sky130_fd_sc_hd__edfxtp_1
*I *500:Y O *D sky130_fd_sc_hd__o21ai_2
*CAP
1 *700:D 0.00018136
2 *500:Y 0.00018136
3 *700:D *700:DE 6.62418e-05
4 *700:D *272:12 0
5 *30:16 *700:D 3.86835e-05
*RES
1 *500:Y *700:D 32.2707 
*END

*D_NET *221 0.000861436
*CONN
*I *701:D I *D sky130_fd_sc_hd__edfxtp_1
*I *497:X O *D sky130_fd_sc_hd__mux2_4
*CAP
1 *701:D 0.000197603
2 *497:X 0.000197603
3 *701:D *351:135 5.23435e-05
4 *701:D *408:62 0.000161243
5 *701:D *414:72 2.95757e-05
6 *701:D *414:89 8.06219e-05
7 *173:12 *701:D 0.000142446
*RES
1 *497:X *701:D 33.5487 
*END

*D_NET *222 0.000947371
*CONN
*I *702:D I *D sky130_fd_sc_hd__edfxtp_1
*I *496:X O *D sky130_fd_sc_hd__mux2_4
*CAP
1 *702:D 0.000325272
2 *496:X 0.000325272
3 *702:D *496:A0 4.14221e-05
4 *702:D *496:S 0.000119321
5 *702:D *424:50 0.000136084
*RES
1 *496:X *702:D 36.0551 
*END

*D_NET *223 0.000900715
*CONN
*I *703:D I *D sky130_fd_sc_hd__edfxtp_1
*I *494:Y O *D sky130_fd_sc_hd__o21ai_1
*CAP
1 *703:D 0.000284402
2 *494:Y 0.000284402
3 *703:D *494:A2 0.000261128
4 *703:D *968:A 7.07828e-05
*RES
1 *494:Y *703:D 33.4764 
*END

*D_NET *224 0.00137604
*CONN
*I *704:D I *D sky130_fd_sc_hd__edfxtp_1
*I *678:X O *D sky130_fd_sc_hd__mux2_4
*CAP
1 *704:D 0.000387543
2 *678:X 0.000387543
3 *704:D *678:A0 0.00015244
4 *704:D *678:A1 0.000261128
5 *704:D *958:A 5.13058e-05
6 *704:D *411:63 0.000136084
*RES
1 *678:X *704:D 38.1128 
*END

*D_NET *225 0.00315573
*CONN
*I *705:D I *D sky130_fd_sc_hd__edfxtp_1
*I *514:X O *D sky130_fd_sc_hd__mux2_4
*CAP
1 *705:D 0
2 *514:X 0.000941519
3 *225:18 0.000941519
4 *225:18 *514:A0 0.000301947
5 *225:18 *514:A1 1.50924e-05
6 *225:18 *705:DE 3.44641e-05
7 *225:18 *706:DE 2.58757e-05
8 *225:18 *416:8 0.000330627
9 *225:18 *416:12 0.000213809
10 *225:18 *453:18 0.00016857
11 *225:18 *453:37 4.62432e-05
12 *193:8 *225:18 0.000136061
*RES
1 *514:X *225:18 47.6352 
2 *225:18 *705:D 9.24915 
*END

*D_NET *226 0.00101549
*CONN
*I *706:D I *D sky130_fd_sc_hd__edfxtp_1
*I *513:X O *D sky130_fd_sc_hd__mux2_4
*CAP
1 *706:D 0.000332444
2 *513:X 0.000332444
3 *706:D *513:A0 8.6594e-05
4 *706:D *706:DE 6.46815e-05
5 *706:D *354:47 0.000145396
6 *706:D *411:18 1.13461e-05
7 *706:D *416:52 4.25818e-05
*RES
1 *513:X *706:D 37.2621 
*END

*D_NET *227 0.00103327
*CONN
*I *707:D I *D sky130_fd_sc_hd__edfxtp_1
*I *512:X O *D sky130_fd_sc_hd__mux2_4
*CAP
1 *707:D 0.00035239
2 *512:X 0.00035239
3 *707:D *512:A0 1.61631e-05
4 *707:D *829:A 5.05893e-05
5 *707:D *410:45 0.000133166
6 *707:D *410:49 0.000128571
*RES
1 *512:X *707:D 35.8944 
*END

*D_NET *228 0.00114771
*CONN
*I *708:D I *D sky130_fd_sc_hd__edfxtp_1
*I *511:X O *D sky130_fd_sc_hd__mux2_4
*CAP
1 *708:D 0.000273035
2 *511:X 0.000273035
3 *708:D *511:A0 0.000160617
4 *708:D *512:S 1.00981e-05
5 *708:D *708:DE 0.000387768
6 *708:D *292:15 0
7 *708:D *354:161 0
8 *901:A *708:D 4.31539e-05
*RES
1 *511:X *708:D 36.1044 
*END

*D_NET *229 0.00107408
*CONN
*I *709:D I *D sky130_fd_sc_hd__edfxtp_1
*I *510:X O *D sky130_fd_sc_hd__mux2_4
*CAP
1 *709:D 0.000301561
2 *510:X 0.000301561
3 *709:D *510:A1 4.89392e-05
4 *709:D *709:DE 0.000174022
5 *709:D *710:DE 0.000218651
6 *197:10 *709:D 2.93504e-05
*RES
1 *510:X *709:D 36.7314 
*END

*D_NET *230 0.000962521
*CONN
*I *710:D I *D sky130_fd_sc_hd__edfxtp_1
*I *509:X O *D sky130_fd_sc_hd__mux2_4
*CAP
1 *710:D 0.000354151
2 *509:X 0.000354151
3 *710:D *509:A1 9.28544e-05
4 *710:D *710:DE 1.37566e-05
5 *710:D *408:107 0.000126335
6 *198:14 *710:D 2.12721e-05
*RES
1 *509:X *710:D 34.749 
*END

*D_NET *231 0.00543417
*CONN
*I *711:D I *D sky130_fd_sc_hd__edfxtp_1
*I *508:X O *D sky130_fd_sc_hd__mux2_4
*CAP
1 *711:D 0.000455444
2 *508:X 0.0013531
3 *231:14 0.00180855
4 *711:D *711:DE 6.13018e-05
5 *231:14 *602:B_N 5.98993e-05
6 *231:14 *633:S 0.000314209
7 *231:14 *665:D 1.80042e-05
8 *231:14 *378:23 0.000733643
9 *231:14 *378:32 1.4106e-05
10 *36:8 *231:14 0.000208627
11 *58:16 *711:D 0.000129882
12 *183:10 *231:14 3.06627e-05
13 *183:25 *231:14 0.000140143
14 *199:8 *711:D 0.000106598
*RES
1 *508:X *231:14 42.4447 
2 *231:14 *711:D 21.3419 
*END

*D_NET *232 0.00211437
*CONN
*I *712:D I *D sky130_fd_sc_hd__edfxtp_1
*I *507:Y O *D sky130_fd_sc_hd__o21ai_1
*CAP
1 *712:D 0.000714752
2 *507:Y 0.000714752
3 *712:D *507:A1 0.000137915
4 *712:D *507:A2 6.12919e-06
5 *712:D *606:A2 7.26748e-05
6 *712:D *397:20 9.43419e-05
7 *712:D *425:111 0.000135069
8 *507:B1 *712:D 4.29314e-06
9 *522:D *712:D 7.28994e-06
10 *115:24 *712:D 0.000227114
11 *116:10 *712:D 4.1979e-08
*RES
1 *507:Y *712:D 40.4706 
*END

*D_NET *233 0.00180967
*CONN
*I *713:D I *D sky130_fd_sc_hd__edfxtp_1
*I *504:X O *D sky130_fd_sc_hd__mux2_4
*CAP
1 *713:D 0.000643949
2 *504:X 0.000643949
3 *713:D *504:A1 6.27782e-05
4 *713:D *504:S 0.000284947
5 *713:D *609:A 2.58616e-05
6 *713:D *713:DE 8.08533e-05
7 *713:D *713:CLK 2.14228e-05
8 *504:A0 *713:D 7.92757e-06
9 *201:10 *713:D 3.79836e-05
*RES
1 *504:X *713:D 36.8846 
*END

*D_NET *234 0.000597282
*CONN
*I *515:A1 I *D sky130_fd_sc_hd__mux2_4
*I *592:X O *D sky130_fd_sc_hd__dlymetal6s2s_1
*CAP
1 *515:A1 0.000278486
2 *592:X 0.000278486
3 *515:A1 *515:A0 4.03096e-05
*RES
1 *592:X *515:A1 25.3464 
*END

*D_NET *243 0.000544371
*CONN
*I *647:A I *D sky130_fd_sc_hd__nand2_1
*I *791:X O *D sky130_fd_sc_hd__clkdlybuf4s50_1
*CAP
1 *647:A 0.000234276
2 *791:X 0.000234276
3 *647:A resp_msg[2] 0
4 *647:A *824:A 7.58194e-05
5 *647:A *826:A 0
*RES
1 *791:X *647:A 31.9934 
*END

*D_NET *244 0.000451702
*CONN
*I *644:A I *D sky130_fd_sc_hd__nand2_1
*I *792:X O *D sky130_fd_sc_hd__clkdlybuf4s50_1
*CAP
1 *644:A 0.000143592
2 *792:X 0.000143592
3 *644:A *792:A 2.65831e-05
4 *644:A *807:A 0
5 *644:A *827:A 0.000137936
*RES
1 *792:X *644:A 30.8842 
*END

*D_NET *245 0.0015515
*CONN
*I *514:A1 I *D sky130_fd_sc_hd__mux2_4
*I *793:X O *D sky130_fd_sc_hd__clkdlybuf4s50_1
*CAP
1 *514:A1 0.000487895
2 *793:X 0.000487895
3 *514:A1 resp_msg[0] 0
4 *514:A1 *514:A0 2.30636e-05
5 *514:A1 *514:S 3.5063e-05
6 *514:A1 *651:A1 0
7 *514:A1 *793:A 1.43848e-05
8 *514:A1 *825:A 0
9 *514:A1 *276:10 0
10 *514:A1 *354:63 0
11 *514:A1 *416:12 0.000146193
12 *514:A1 *447:19 0
13 *514:A1 *453:18 3.44863e-05
14 *650:A *514:A1 0
15 *651:B1 *514:A1 0.000307428
16 *225:18 *514:A1 1.50924e-05
*RES
1 *793:X *514:A1 41.3218 
*END

*D_NET *246 0.000225255
*CONN
*I *640:A I *D sky130_fd_sc_hd__nand2_1
*I *794:X O *D sky130_fd_sc_hd__clkdlybuf4s50_1
*CAP
1 *640:A 9.55664e-05
2 *794:X 9.55664e-05
3 *640:A *640:B 2.99471e-05
4 *641:B1 *640:A 4.17531e-06
*RES
1 *794:X *640:A 20.9096 
*END

*D_NET *413 0.0209254
*CONN
*I *705:DE I *D sky130_fd_sc_hd__edfxtp_1
*I *704:DE I *D sky130_fd_sc_hd__edfxtp_1
*I *710:DE I *D sky130_fd_sc_hd__edfxtp_1
*I *709:DE I *D sky130_fd_sc_hd__edfxtp_1
*I *707:DE I *D sky130_fd_sc_hd__edfxtp_1
*I *708:DE I *D sky130_fd_sc_hd__edfxtp_1
*I *706:DE I *D sky130_fd_sc_hd__edfxtp_1
*I *698:DE I *D sky130_fd_sc_hd__edfxtp_1
*I *915:X O *D sky130_fd_sc_hd__buf_12
*CAP
1 *705:DE 1.65908e-05
2 *704:DE 0.000652325
3 *710:DE 0.00047749
4 *709:DE 0.000128987
5 *707:DE 3.56881e-05
6 *708:DE 0.000527935
7 *706:DE 0.000288705
8 *698:DE 0.000137627
9 *915:X 0.000158356
10 *413:92 0.00171834
11 *413:60 0.000654349
12 *413:56 0.00316943
13 *413:37 0.00229801
14 *413:35 0.00188059
15 *413:12 0.00157388
16 *413:10 0.000425408
17 *704:DE *678:S 2.97532e-05
18 *704:DE *416:8 0
19 *704:DE *453:18 0
20 *704:DE *455:22 0
21 *706:DE *453:37 0.000304859
22 *708:DE *512:S 0.000179286
23 *413:10 *515:S 0
24 *413:12 *515:S 0
25 *413:35 *515:S 3.52873e-06
26 *413:35 *416:52 0.000203756
27 *413:56 *416:52 9.40762e-05
28 *413:56 *416:80 7.92757e-06
29 *413:56 *416:91 0.000198463
30 *413:56 *459:20 8.86088e-05
31 *413:56 *462:24 4.21676e-05
32 *413:92 *639:S 0.00016682
33 *413:92 *416:91 1.65872e-05
34 resp_msg[5] *708:DE 5.25043e-05
35 *465:A_N *413:56 0.000145706
36 *487:A *704:DE 2.09356e-05
37 *488:A *704:DE 0.000131915
38 *488:A *413:37 4.9e-05
39 *488:A *413:56 5.04829e-06
40 *488:B *704:DE 7.26748e-05
41 *488:B *413:37 7.26606e-05
42 *512:A1 *708:DE 5.68225e-06
43 *514:A0 *706:DE 5.84391e-05
44 *514:A0 *413:37 8.72115e-06
45 *523:A *413:56 3.76702e-05
46 *524:A2 *413:56 1.94941e-05
47 *649:A0 *706:DE 7.80572e-05
48 *649:A0 *413:37 1.94224e-05
49 *664:C *413:35 2.90033e-05
50 *664:C *413:56 0.00123416
51 *689:CLK *706:DE 2.57986e-05
52 *693:CLK *413:92 0.000401126
53 *698:D *698:DE 8.5703e-05
54 *706:D *706:DE 6.46815e-05
55 *708:D *708:DE 0.000387768
56 *708:CLK *708:DE 0
57 *709:D *709:DE 0.000174022
58 *709:D *710:DE 0.000218651
59 *710:D *710:DE 1.37566e-05
60 *809:A *710:DE 0
61 *829:A *708:DE 0.000134394
62 *829:A *413:56 0.000112367
63 *829:A *413:60 3.60437e-05
64 *887:A *413:56 7.23063e-05
65 *903:A *704:DE 0
66 *904:A *413:56 4.61271e-05
67 *915:A *413:10 7.48797e-05
68 *5:10 *413:56 3.86207e-06
69 *42:6 *413:56 1.14417e-05
70 *180:23 *708:DE 0.000106124
71 *180:23 *413:60 7.28994e-06
72 *181:12 *710:DE 2.96496e-05
73 *181:12 *413:92 1.11613e-05
74 *186:6 *413:35 3.64243e-05
75 *193:14 *704:DE 0
76 *198:14 *710:DE 3.20264e-05
77 *225:18 *705:DE 3.44641e-05
78 *225:18 *706:DE 2.58757e-05
79 *276:10 *706:DE 1.60687e-05
80 *354:161 *708:DE 0
81 *354:185 *708:DE 0
82 *380:12 *710:DE 0.00015324
83 *385:6 *413:56 6.55312e-05
84 *385:13 *413:56 1.65872e-05
85 *395:12 *413:35 1.07378e-05
86 *402:8 *413:56 0.000459036
87 *408:107 *710:DE 0.000198452
88 *410:43 *413:60 0.000139817
89 *410:45 *707:DE 8.37933e-05
90 *411:10 *704:DE 0
91 *411:18 *704:DE 0
92 *411:18 *706:DE 3.17749e-05
93 *411:63 *704:DE 8.37933e-05
94 *411:85 *413:10 0
95 *411:85 *413:12 0
96 *411:91 *413:12 0
*RES
1 *915:X *413:10 17.829 
2 *413:10 *413:12 6.19214 
3 *413:12 *698:DE 17.3579 
4 *413:12 *413:35 26.9183 
5 *413:35 *413:37 1.832 
6 *413:37 *706:DE 23.2343 
7 *413:37 *413:56 48.1208 
8 *413:56 *413:60 7.57775 
9 *413:60 *708:DE 31.0232 
10 *413:60 *707:DE 14.7076 
11 *413:56 *413:92 21.8615 
12 *413:92 *709:DE 17.2308 
13 *413:92 *710:DE 29.2731 
14 *413:35 *704:DE 29.8277 
15 *413:10 *705:DE 14.153 
*END

*D_NET *414 0.0214556
*CONN
*I *699:DE I *D sky130_fd_sc_hd__edfxtp_1
*I *712:DE I *D sky130_fd_sc_hd__edfxtp_1
*I *713:DE I *D sky130_fd_sc_hd__edfxtp_1
*I *701:DE I *D sky130_fd_sc_hd__edfxtp_1
*I *700:DE I *D sky130_fd_sc_hd__edfxtp_1
*I *702:DE I *D sky130_fd_sc_hd__edfxtp_1
*I *711:DE I *D sky130_fd_sc_hd__edfxtp_1
*I *703:DE I *D sky130_fd_sc_hd__edfxtp_1
*I *916:X O *D sky130_fd_sc_hd__buf_12
*CAP
1 *699:DE 0.000578801
2 *712:DE 0.000553352
3 *713:DE 0.000104886
4 *701:DE 0
5 *700:DE 0.00026435
6 *702:DE 0.000484579
7 *711:DE 0.00110917
8 *703:DE 0.000118419
9 *916:X 0.000428101
10 *414:110 0.00223028
11 *414:89 0.0018506
12 *414:72 0.000742628
13 *414:57 0.00132332
14 *414:38 0.00220347
15 *414:21 0.0019895
16 *414:8 0.000671887
17 *702:DE *424:50 3.42041e-05
18 *703:DE *968:A 9.67296e-05
19 *711:DE *711:CLK 6.64392e-05
20 *712:DE *699:CLK 0
21 *712:DE *425:111 3.61138e-05
22 *713:DE *425:42 9.90332e-05
23 *414:8 *958:A 0
24 *414:38 *452:37 0
25 *414:57 *929:A 2.65667e-05
26 *414:110 *608:A 1.65872e-05
27 *414:110 *617:S 0.000118166
28 *507:A1 *712:DE 4.69495e-06
29 *521:A *414:110 0.00012316
30 *521:B *699:DE 0
31 *554:B1_N *702:DE 0.000107729
32 *555:B *711:DE 6.27782e-05
33 *556:A2 *711:DE 0.000324885
34 *556:B1 *711:DE 1.83827e-06
35 *562:C1 *414:38 3.79625e-05
36 *588:B *414:57 6.72604e-05
37 *591:A0 *414:57 7.48633e-05
38 *591:S *414:57 0.000160617
39 *606:C1 *712:DE 1.51716e-05
40 *608:B *699:DE 0
41 *608:B *414:110 3.59437e-05
42 *617:A0 *414:110 9.9028e-05
43 *617:A1 *414:110 0.000237521
44 *674:A *414:8 0
45 *678:A0 *414:8 0
46 *699:D *699:DE 3.14375e-05
47 *700:D *700:DE 6.62418e-05
48 *701:D *414:72 2.95757e-05
49 *701:D *414:89 8.06219e-05
50 *711:D *711:DE 6.13018e-05
51 *713:D *713:DE 8.08533e-05
52 *841:A *712:DE 7.16734e-05
53 *846:A *702:DE 0
54 *849:A *414:38 0.000543087
55 *856:A *414:38 0
56 *858:A *702:DE 0.000160482
57 *860:A *414:38 0.000113309
58 *861:A *414:38 5.41227e-05
59 *877:A *414:110 0.000165444
60 *896:A *699:DE 0
61 *907:A *414:57 8.14875e-05
62 *922:A *414:38 0.000107622
63 *31:35 *699:DE 0
64 *31:35 *712:DE 0
65 *40:10 *712:DE 0
66 *40:10 *414:110 0.000224395
67 *58:16 *711:DE 0.000175175
68 *65:18 *414:38 0.000113374
69 *66:8 *702:DE 5.20546e-06
70 *116:10 *712:DE 0.000160375
71 *173:12 *414:72 7.09196e-05
72 *189:14 *414:89 7.33372e-06
73 *191:14 *711:DE 0.000395492
74 *191:33 *414:38 0.000185159
75 *272:12 *700:DE 0.000455896
76 *272:12 *414:57 3.30707e-05
77 *272:12 *414:72 0.000102647
78 *351:135 *700:DE 0.000459373
79 *351:135 *414:72 0.000285645
80 *351:192 *699:DE 0.000107922
81 *354:24 *414:38 0
82 *354:41 *711:DE 0.000178051
83 *356:10 *702:DE 0
84 *376:16 *702:DE 0
85 *394:33 *699:DE 0
86 *394:33 *712:DE 0
87 *397:20 *712:DE 7.50698e-05
88 *403:8 *414:8 0
89 *408:12 *414:8 0
90 *408:22 *702:DE 3.51317e-05
91 *408:22 *414:8 4.50124e-05
92 *408:22 *414:21 3.94722e-05
93 *408:22 *414:38 0.000152988
*RES
1 *916:X *414:8 23.4709 
2 *414:8 *703:DE 16.5161 
3 *414:8 *414:21 3.3953 
4 *414:21 *711:DE 36.6929 
5 *414:21 *414:38 27.9251 
6 *414:38 *702:DE 28.8251 
7 *414:38 *414:57 19.6431 
8 *414:57 *700:DE 24.3351 
9 *414:57 *414:72 9.65401 
10 *414:72 *701:DE 9.24915 
11 *414:72 *414:89 14.3413 
12 *414:89 *713:DE 21.0396 
13 *414:89 *414:110 27.721 
14 *414:110 *712:DE 27.2701 
15 *414:110 *699:DE 25.9048 
*END

*D_NET *334 0.00136908
*CONN
*I *617:A1 I *D sky130_fd_sc_hd__mux2i_1
*I *836:X O *D sky130_fd_sc_hd__buf_4
*CAP
1 *617:A1 0.00049871
2 *836:X 0.00049871
3 *617:A1 *836:A 5.56461e-05
4 *617:A1 *397:20 2.65667e-05
5 *617:A1 *414:110 0.000237521
6 *617:A1 *415:61 5.19205e-05
7 *185:14 *617:A1 0
*RES
1 *836:X *617:A1 38.4263 
*END

*D_NET *335 0.000255822
*CONN
*I *583:B I *D sky130_fd_sc_hd__xor2_2
*I *837:X O *D sky130_fd_sc_hd__buf_6
*CAP
1 *583:B 0.000127911
2 *837:X 0.000127911
3 *583:B *574:A_N 0
4 *583:B *390:12 0
*RES
1 *837:X *583:B 20.9116 
*END

*D_NET *333 0.00240227
*CONN
*I *596:S I *D sky130_fd_sc_hd__mux2i_1
*I *591:S I *D sky130_fd_sc_hd__mux2i_1
*I *835:X O *D sky130_fd_sc_hd__buf_6
*CAP
1 *596:S 0.000400197
2 *591:S 0.000236408
3 *835:X 0.000636605
4 *591:S *351:135 8.36859e-05
5 *591:S *405:8 1.92336e-05
6 *591:S *405:14 0.000127764
7 *591:S *414:57 0.000160617
8 *596:S *406:16 0.000223097
9 *550:A_N *596:S 6.36477e-05
10 *596:A1 *596:S 1.65872e-05
11 *907:A *591:S 6.50586e-05
12 *908:A *596:S 0.000215587
13 *188:25 *596:S 0.000145849
14 *272:12 *591:S 7.92757e-06
*RES
1 *835:X *591:S 35.3154 
2 *835:X *596:S 29.2528 
*END

*D_NET *415 0.0123065
*CONN
*I *621:B I *D sky130_fd_sc_hd__nor2_1
*I *608:A I *D sky130_fd_sc_hd__nand2_1
*I *617:S I *D sky130_fd_sc_hd__mux2i_1
*I *622:A1 I *D sky130_fd_sc_hd__a21oi_1
*I *627:S I *D sky130_fd_sc_hd__mux2i_1
*I *633:S I *D sky130_fd_sc_hd__mux2i_1
*I *917:X O *D sky130_fd_sc_hd__buf_6
*CAP
1 *621:B 7.59091e-05
2 *608:A 3.33306e-05
3 *617:S 2.29525e-05
4 *622:A1 0.000484836
5 *627:S 0
6 *633:S 0.000750904
7 *917:X 0.000794627
8 *415:61 0.000684547
9 *415:53 0.000793326
10 *415:40 0.000892063
11 *415:31 0.000353414
12 *415:12 0.00158087
13 *633:S *633:A1 6.50727e-05
14 *508:A0 *415:12 0.000114271
15 *522:D *415:61 0
16 *606:A2 *415:61 5.23435e-05
17 *608:B *608:A 7.60137e-05
18 *608:B *617:S 2.15184e-05
19 *615:A *415:61 9.35753e-06
20 *616:A *621:B 2.64056e-05
21 *617:A1 *415:61 5.19205e-05
22 *620:A *622:A1 4.87301e-05
23 *620:A *415:40 0
24 *621:A *621:B 0.00022067
25 *624:B1 *633:S 0.000158002
26 *627:A1 *415:12 3.31745e-05
27 *632:A *633:S 0.000512554
28 *696:D *633:S 2.72051e-05
29 *796:A *633:S 5.33945e-05
30 *831:A *415:12 0.000399194
31 *854:A *621:B 6.50727e-05
32 *854:A *415:61 0.000266832
33 *880:A *415:12 5.31465e-05
34 *899:A *415:61 0.000356342
35 *944:A *415:12 0.000215118
36 *35:12 *415:61 5.68225e-06
37 *111:12 *415:12 0.000693811
38 *121:8 *415:61 9.80747e-05
39 *183:25 *633:S 9.30552e-05
40 *184:18 *621:B 0.000397416
41 *184:18 *415:61 0.000517206
42 *185:14 *415:61 0
43 *200:16 *415:61 9.47181e-05
44 *231:14 *633:S 0.000314209
45 *281:8 *633:S 0
46 *283:12 *622:A1 0.000110739
47 *368:27 *415:61 6.62029e-05
48 *377:27 *415:61 8.40838e-05
49 *381:44 *415:40 0
50 *381:44 *415:53 0
51 *394:33 *415:61 0.000383956
52 *408:91 *415:12 1.95082e-05
53 *414:110 *608:A 1.65872e-05
54 *414:110 *617:S 0.000118166
*RES
1 *917:X *415:12 35.6004 
2 *415:12 *633:S 44.5945 
3 *415:12 *415:31 1.00149 
4 *415:31 *627:S 13.7491 
5 *415:31 *415:40 7.64553 
6 *415:40 *622:A1 21.1278 
7 *415:40 *415:53 6.332 
8 *415:53 *415:61 31.9112 
9 *415:61 *617:S 10.5271 
10 *415:61 *608:A 10.5513 
11 *415:53 *621:B 14.6023 
*END

*D_NET *247 0.00080599
*CONN
*I *637:A I *D sky130_fd_sc_hd__nand2_1
*I *795:X O *D sky130_fd_sc_hd__clkdlybuf4s50_1
*CAP
1 *637:A 0.000236029
2 *795:X 0.000236029
3 *637:A resp_msg[5] 6.73186e-05
4 *637:A *640:B 4.33655e-05
5 *637:A *829:A 6.08467e-05
6 *637:A *292:15 0
7 *637:A *354:157 9.39797e-05
8 *637:A *354:161 6.31954e-05
9 *637:A *354:185 5.22654e-06
10 *196:14 *637:A 0
*RES
1 *795:X *637:A 35.0423 
*END

*D_NET *416 0.0133784
*CONN
*I *642:B I *D sky130_fd_sc_hd__nor2_2
*I *639:S I *D sky130_fd_sc_hd__mux2i_1
*I *636:S I *D sky130_fd_sc_hd__mux2i_1
*I *964:A I *D sky130_fd_sc_hd__buf_4
*I *646:S I *D sky130_fd_sc_hd__mux2i_1
*I *649:S I *D sky130_fd_sc_hd__mux2i_1
*I *652:B I *D sky130_fd_sc_hd__nand2_1
*I *918:X O *D sky130_fd_sc_hd__buf_8
*CAP
1 *642:B 0
2 *639:S 0.000570326
3 *636:S 0
4 *964:A 0
5 *646:S 0.00067702
6 *649:S 0.00028346
7 *652:B 0.000166443
8 *918:X 0.00014712
9 *416:91 0.000869968
10 *416:80 0.000426354
11 *416:72 0.000803732
12 *416:52 0.00111446
13 *416:12 0.000683724
14 *416:8 0.0014954
15 *649:S *453:37 6.64392e-05
16 *416:52 *513:A0 0.000158368
17 *416:72 *513:A0 5.04364e-05
18 *416:80 *459:20 0.00029761
19 *416:91 *459:20 9.81698e-05
20 *482:B *416:72 0.000111083
21 *488:A *416:8 8.76221e-06
22 *488:A *416:52 6.08467e-05
23 *514:A1 *416:12 0.000146193
24 *524:A2 *416:80 0.000160047
25 *524:A2 *416:91 0.000510839
26 *636:A0 *416:91 0.000303851
27 *638:A2 *639:S 5.69156e-05
28 *638:A2 *416:91 2.30636e-05
29 *639:A1 *639:S 0.000182735
30 *642:A *416:80 0.000187153
31 *648:A1 *416:52 0.000156076
32 *649:A0 *416:8 6.00843e-05
33 *649:A0 *416:12 0.00012659
34 *649:A1 *649:S 2.65667e-05
35 *651:A2 *649:S 7.06457e-05
36 *651:A2 *652:B 9.76506e-05
37 *653:A *652:B 3.14978e-05
38 *655:A1 *652:B 0.000171273
39 *664:C *416:52 2.07353e-05
40 *689:D *652:B 1.41853e-05
41 *692:DE *639:S 5.18012e-05
42 *692:CLK *639:S 0.000146655
43 *693:D *639:S 0.000237166
44 *693:DE *639:S 3.42041e-05
45 *693:CLK *639:S 0.00019028
46 *693:CLK *416:91 0.000159016
47 *704:DE *416:8 0
48 *706:D *416:52 4.25818e-05
49 *829:A *416:91 0.000110458
50 *881:A *416:72 8.85947e-05
51 *904:A *416:52 0.000208621
52 *936:A *416:72 2.58616e-05
53 *11:10 *416:80 5.1674e-06
54 *194:10 *416:52 0.000133207
55 *225:18 *416:8 0.000330627
56 *225:18 *416:12 0.000213809
57 *276:10 *416:52 6.27782e-05
58 *354:47 *416:52 6.38519e-05
59 *402:8 *416:52 0.000150293
60 *413:35 *416:52 0.000203756
61 *413:56 *416:52 9.40762e-05
62 *413:56 *416:80 7.92757e-06
63 *413:56 *416:91 0.000198463
64 *413:92 *639:S 0.00016682
65 *413:92 *416:91 1.65872e-05
*RES
1 *918:X *416:8 19.7337 
2 *416:8 *416:12 11.7303 
3 *416:12 *652:B 15.181 
4 *416:12 *649:S 16.0973 
5 *416:8 *416:52 40.9803 
6 *416:52 *646:S 9.24915 
7 *646:S *416:72 21.3057 
8 *416:72 *416:80 14.7409 
9 *416:80 *964:A 9.24915 
10 *416:80 *416:91 13.6722 
11 *416:91 *636:S 9.24915 
12 *416:91 *639:S 36.8261 
13 *416:72 *642:B 9.24915 
*END

*D_NET *417 0.000676154
*CONN
*I *673:A2 I *D sky130_fd_sc_hd__o21bai_4
*I *919:X O *D sky130_fd_sc_hd__buf_6
*CAP
1 *673:A2 0.000235014
2 *919:X 0.000235014
3 *673:A2 *453:18 0
4 *678:A1 *673:A2 6.23779e-05
5 *915:A *673:A2 0.000130006
6 *916:A *673:A2 1.37421e-05
*RES
1 *919:X *673:A2 33.8981 
*END

*D_NET *418 0.00126985
*CONN
*I *585:B I *D sky130_fd_sc_hd__nand3b_1
*I *584:A2 I *D sky130_fd_sc_hd__a21bo_1
*I *920:X O *D sky130_fd_sc_hd__buf_4
*CAP
1 *585:B 0.000121784
2 *584:A2 0
3 *920:X 0.000247525
4 *418:10 0.000369309
5 *585:B *424:60 9.22013e-06
6 *585:B *424:62 2.5386e-05
7 *418:10 *920:A 4.89251e-05
8 *418:10 *424:62 0.000145939
9 *585:A_N *585:B 1.41761e-05
10 *585:A_N *418:10 1.82832e-05
11 *585:C *585:B 8.07939e-05
12 *587:A2 *585:B 0.000151741
13 *587:A2 *418:10 3.67708e-05
*RES
1 *920:X *418:10 21.4269 
2 *418:10 *584:A2 13.7491 
3 *418:10 *585:B 18.3808 
*END

*D_NET *337 0.00183673
*CONN
*I *570:A2 I *D sky130_fd_sc_hd__o2111ai_1
*I *577:D I *D sky130_fd_sc_hd__or4_1
*I *839:X O *D sky130_fd_sc_hd__buf_4
*CAP
1 *570:A2 0
2 *577:D 0.000172162
3 *839:X 0.000415828
4 *337:8 0.00058799
5 *577:D *570:C1 5.77352e-05
6 *337:8 *563:B 4.02438e-05
7 *337:8 *570:A1 1.92172e-05
8 *563:A *337:8 1.84293e-05
9 *578:D1 *577:D 0.000107496
10 *578:D1 *337:8 0.00011818
11 *77:10 *577:D 7.50872e-05
12 *77:25 *577:D 0.000135905
13 *80:16 *337:8 1.40978e-05
14 *81:8 *337:8 1.00937e-05
15 *175:17 *577:D 6.4266e-05
*RES
1 *839:X *337:8 16.5072 
2 *337:8 *577:D 23.4354 
3 *337:8 *570:A2 9.24915 
*END

*D_NET *336 0.000715869
*CONN
*I *627:A1 I *D sky130_fd_sc_hd__mux2i_1
*I *838:X O *D sky130_fd_sc_hd__buf_4
*CAP
1 *627:A1 0.000149749
2 *838:X 0.000149749
3 *627:A1 *381:44 0.000158651
4 *627:A1 *408:91 5.04829e-06
5 *627:A1 *415:12 3.31745e-05
6 *629:A2 *627:A1 0.000158651
7 *111:12 *627:A1 6.08467e-05
*RES
1 *838:X *627:A1 32.4086 
*END

*D_NET *338 0.000297834
*CONN
*I *622:A2 I *D sky130_fd_sc_hd__a21oi_1
*I *840:X O *D sky130_fd_sc_hd__buf_4
*CAP
1 *622:A2 7.09953e-05
2 *840:X 7.09953e-05
3 *832:A *622:A2 0.000115934
4 *283:12 *622:A2 3.99098e-05
*RES
1 *840:X *622:A2 20.9096 
*END

*D_NET *339 0.0028697
*CONN
*I *607:B I *D sky130_fd_sc_hd__xnor2_1
*I *841:X O *D sky130_fd_sc_hd__buf_4
*CAP
1 *607:B 0.000615436
2 *841:X 0.000615436
3 *607:B *607:A 0.000944126
4 *607:B *699:CLK 0.000336766
5 *607:B *836:A 0.000145602
6 *607:B *451:10 1.71306e-05
7 *607:B *451:14 3.01634e-05
8 *171:16 *607:B 0.000165042
*RES
1 *841:X *607:B 49.7775 
*END

*D_NET *419 0.000389339
*CONN
*I *590:B I *D sky130_fd_sc_hd__xnor2_4
*I *921:X O *D sky130_fd_sc_hd__buf_6
*CAP
1 *590:B 4.29282e-05
2 *921:X 4.29282e-05
3 *590:B *921:A 0.000151741
4 *590:B *452:37 0.000151741
*RES
1 *921:X *590:B 30.1608 
*END

*D_NET *340 0.0014933
*CONN
*I *558:B I *D sky130_fd_sc_hd__xnor2_2
*I *941:A I *D sky130_fd_sc_hd__buf_6
*I *842:X O *D sky130_fd_sc_hd__buf_6
*CAP
1 *558:B 7.78411e-05
2 *941:A 1.27633e-05
3 *842:X 0.000165487
4 *340:10 0.000256091
5 *558:B *674:B 5.31074e-05
6 *941:A *674:B 0.000175485
7 *340:10 *674:A 0
8 *340:10 *354:41 0
9 *340:10 *403:8 0
10 *558:A *558:B 0.000213725
11 *675:B *558:B 4.33655e-05
12 *905:A *558:B 0.000324166
13 *905:A *941:A 0.000171273
*RES
1 *842:X *340:10 21.7421 
2 *340:10 *941:A 11.0817 
3 *340:10 *558:B 13.8548 
*END

*D_NET *342 0.00120454
*CONN
*I *620:A I *D sky130_fd_sc_hd__xnor2_2
*I *844:X O *D sky130_fd_sc_hd__buf_6
*CAP
1 *620:A 0.000251383
2 *844:X 0.000251383
3 *620:A *622:A1 4.87301e-05
4 *620:A *623:B 6.08467e-05
5 *620:A *844:A 0.000217028
6 *620:A *415:40 0
7 *620:A *463:75 0.000375169
*RES
1 *844:X *620:A 36.3203 
*END

*D_NET *248 0.0017388
*CONN
*I *634:A I *D sky130_fd_sc_hd__nand2_1
*I *796:X O *D sky130_fd_sc_hd__clkdlybuf4s50_1
*CAP
1 *634:A 0.00076013
2 *796:X 0.00076013
3 *634:A *509:S 4.01437e-05
4 *634:A *351:202 2.85274e-05
5 *629:B1 *634:A 0.000146645
6 *183:10 *634:A 3.22723e-06
*RES
1 *796:X *634:A 39.7578 
*END

*D_NET *343 0.00193861
*CONN
*I *935:A I *D sky130_fd_sc_hd__buf_4
*I *556:A2 I *D sky130_fd_sc_hd__o21ai_4
*I *845:X O *D sky130_fd_sc_hd__buf_4
*CAP
1 *935:A 0.000166019
2 *556:A2 0.000316153
3 *845:X 3.48229e-05
4 *343:8 0.000516995
5 *556:A2 *711:DE 0.000324885
6 *935:A *595:B 0.000146823
7 *935:A *351:135 7.28994e-06
8 *343:8 *595:B 5.23435e-05
9 *549:A *935:A 0.00025527
10 *556:B1 *556:A2 0.000109649
11 *59:12 *935:A 8.36586e-06
*RES
1 *845:X *343:8 14.7506 
2 *343:8 *556:A2 21.61 
3 *343:8 *935:A 18.9382 
*END

*D_NET *345 0.00188834
*CONN
*I *639:A1 I *D sky130_fd_sc_hd__mux2i_1
*I *847:X O *D sky130_fd_sc_hd__buf_4
*CAP
1 *639:A1 0.000521309
2 *847:X 0.000521309
3 *639:A1 *639:S 0.000182735
4 *639:A1 *692:CLK 0.000186451
5 *639:A1 *847:A 0.00021217
6 *196:14 *639:A1 0
7 *196:27 *639:A1 0
8 *197:10 *639:A1 0.000264366
*RES
1 *847:X *639:A1 42.8983 
*END

*D_NET *341 0.00217382
*CONN
*I *479:B I *D sky130_fd_sc_hd__xor2_2
*I *946:A I *D sky130_fd_sc_hd__buf_6
*I *843:X O *D sky130_fd_sc_hd__buf_6
*CAP
1 *479:B 0.000314578
2 *946:A 0.000134913
3 *843:X 0
4 *341:4 0.000449491
5 *479:B *478:A 3.75603e-05
6 *479:B *478:B 4.66492e-05
7 *479:B *526:C 0.000423936
8 *479:B *370:8 0.000125763
9 *479:B *370:10 2.61147e-05
10 *479:B *371:14 0.000102003
11 *946:A *885:A 0.000151904
12 *479:A *479:B 0.000122393
13 *13:31 *946:A 0.000238515
*RES
1 *843:X *341:4 9.24915 
2 *341:4 *946:A 23.2961 
3 *341:4 *479:B 10.6942 
*END

*D_NET *346 0.00119594
*CONN
*I *587:A3 I *D sky130_fd_sc_hd__a31oi_1
*I *586:B I *D sky130_fd_sc_hd__nor2_1
*I *848:X O *D sky130_fd_sc_hd__buf_4
*CAP
1 *587:A3 0.000130212
2 *586:B 2.20913e-05
3 *848:X 0.00013895
4 *346:10 0.000291254
5 *587:A3 *686:DE 1.55462e-05
6 *587:A3 *390:29 4.33655e-05
7 *587:A3 *424:62 0
8 *346:10 *686:DE 8.62799e-05
9 *346:10 *424:62 0
10 *586:A *586:B 6.50586e-05
11 *587:A1 *587:A3 0.000122378
12 *587:A2 *587:A3 6.92705e-05
13 *587:B1 *587:A3 0.000118485
14 *848:A *346:10 6.46815e-05
15 *99:10 *587:A3 2.83665e-05
*RES
1 *848:X *346:10 17.9655 
2 *346:10 *586:B 14.4725 
3 *346:10 *587:A3 18.6595 
*END

*D_NET *347 0.000771684
*CONN
*I *588:B I *D sky130_fd_sc_hd__xnor2_2
*I *849:X O *D sky130_fd_sc_hd__buf_4
*CAP
1 *588:B 0.000191372
2 *849:X 0.000191372
3 *588:B *414:57 6.72604e-05
4 *588:B *424:44 7.7321e-05
5 *588:A *588:B 6.50727e-05
6 *922:A *588:B 0.000179286
*RES
1 *849:X *588:B 34.2412 
*END

*D_NET *348 0.000562857
*CONN
*I *590:A I *D sky130_fd_sc_hd__xnor2_4
*I *850:X O *D sky130_fd_sc_hd__buf_4
*CAP
1 *590:A 0.000277754
2 *850:X 0.000277754
3 *80:16 *590:A 7.34948e-06
*RES
1 *850:X *590:A 24.8401 
*END

*D_NET *349 0.00194849
*CONN
*I *531:B1 I *D sky130_fd_sc_hd__a211oi_2
*I *529:B1 I *D sky130_fd_sc_hd__a21oi_4
*I *851:X O *D sky130_fd_sc_hd__buf_4
*CAP
1 *531:B1 0.00025321
2 *529:B1 0.000218718
3 *851:X 0
4 *349:4 0.000471927
5 *529:B1 *601:A1 6.07168e-05
6 *529:B1 *410:29 0.000410556
7 *531:A1 *529:B1 0.000135034
8 *531:A1 *531:B1 0.00020523
9 *531:C1 *529:B1 6.46815e-05
10 *531:C1 *531:B1 1.60442e-05
11 *13:31 *529:B1 0.000112367
*RES
1 *851:X *349:4 9.24915 
2 *349:4 *529:B1 17.7611 
3 *349:4 *531:B1 14.3129 
*END

*D_NET *350 0.00232716
*CONN
*I *616:B I *D sky130_fd_sc_hd__xnor2_2
*I *852:X O *D sky130_fd_sc_hd__buf_4
*CAP
1 *616:B 0
2 *852:X 0.000651286
3 *350:24 0.000651286
4 *350:24 *606:A2 8.36586e-06
5 *350:24 *606:A3 0.000109421
6 *350:24 *612:B 9.24757e-05
7 *350:24 *699:CLK 0.000122098
8 *350:24 *368:27 0.000111352
9 *350:24 *397:20 0.000114261
10 *522:D *350:24 0.000184438
11 *612:A *350:24 0.000122325
12 *819:A *350:24 1.00032e-05
13 *940:A *350:24 3.14978e-05
14 *31:35 *350:24 0.000107623
15 *40:10 *350:24 1.07248e-05
*RES
1 *852:X *350:24 43.3581 
2 *350:24 *616:B 9.24915 
*END

*D_NET *351 0.0465807
*CONN
*I *683:DE I *D sky130_fd_sc_hd__edfxtp_1
*I *696:DE I *D sky130_fd_sc_hd__edfxtp_1
*I *693:DE I *D sky130_fd_sc_hd__edfxtp_1
*I *692:DE I *D sky130_fd_sc_hd__edfxtp_1
*I *694:DE I *D sky130_fd_sc_hd__edfxtp_1
*I *695:DE I *D sky130_fd_sc_hd__edfxtp_1
*I *697:DE I *D sky130_fd_sc_hd__edfxtp_1
*I *684:DE I *D sky130_fd_sc_hd__edfxtp_1
*I *685:DE I *D sky130_fd_sc_hd__edfxtp_1
*I *690:DE I *D sky130_fd_sc_hd__edfxtp_1
*I *691:DE I *D sky130_fd_sc_hd__edfxtp_1
*I *689:DE I *D sky130_fd_sc_hd__edfxtp_1
*I *682:DE I *D sky130_fd_sc_hd__edfxtp_1
*I *688:DE I *D sky130_fd_sc_hd__edfxtp_1
*I *686:DE I *D sky130_fd_sc_hd__edfxtp_1
*I *687:DE I *D sky130_fd_sc_hd__edfxtp_1
*I *853:X O *D sky130_fd_sc_hd__buf_6
*CAP
1 *683:DE 0.000115412
2 *696:DE 1.65908e-05
3 *693:DE 1.67259e-05
4 *692:DE 0.000666699
5 *694:DE 0.00039555
6 *695:DE 0
7 *697:DE 0
8 *684:DE 0.000160439
9 *685:DE 0.000358029
10 *690:DE 4.0694e-05
11 *691:DE 0.000377391
12 *689:DE 9.43923e-05
13 *682:DE 0.00094342
14 *688:DE 9.20913e-05
15 *686:DE 0.000542491
16 *687:DE 0.000206119
17 *853:X 8.3043e-05
18 *351:238 0.00167358
19 *351:204 0.000449482
20 *351:202 0.00193172
21 *351:194 0.00174607
22 *351:192 0.0019969
23 *351:184 0.00229646
24 *351:167 0.00148548
25 *351:150 0.000740461
26 *351:135 0.00176121
27 *351:81 0.00218961
28 *351:73 0.00160466
29 *351:69 0.000755266
30 *351:54 0.00089028
31 *351:52 0.00248284
32 *351:24 0.00188352
33 *351:8 0.00225905
34 *682:DE *489:B 6.50586e-05
35 *682:DE *654:B 0.000109809
36 *682:DE *682:CLK 4.41474e-05
37 *685:DE *420:23 0.000110872
38 *686:DE *920:A 3.82252e-05
39 *686:DE *424:60 0
40 *686:DE *424:62 0
41 *687:DE *687:CLK 8.37933e-05
42 *689:DE *654:B 7.34948e-06
43 *691:DE *691:CLK 6.78596e-05
44 *691:DE *448:12 9.52024e-05
45 *692:DE *639:S 5.18012e-05
46 *692:DE *692:CLK 0
47 *692:DE *709:CLK 8.43687e-05
48 *692:DE *410:101 0.000173782
49 *693:DE *639:S 3.42041e-05
50 *694:DE *626:B 1.18802e-05
51 *694:DE *695:CLK 0.00020502
52 *694:DE *408:81 0.00020502
53 *694:DE *410:141 0
54 *351:24 *569:D 0.000129489
55 *351:24 *582:B 3.88315e-05
56 *351:24 *931:A 4.09955e-05
57 *351:24 *426:20 0
58 *351:24 *427:14 5.14448e-05
59 *351:24 *427:31 0.000156736
60 *351:52 *842:A 0.000483413
61 *351:52 *925:A 4.58003e-05
62 *351:52 *408:12 3.02812e-05
63 *351:52 *408:81 9.83349e-05
64 *351:52 *453:10 0.0002646
65 *351:54 *412:13 0.000101219
66 *351:69 *646:A0 0.000203978
67 *351:69 *412:13 2.41211e-05
68 *351:81 *676:B 0.000277488
69 *351:81 *953:A 1.00981e-05
70 *351:135 *497:A0 0
71 *351:135 *595:B 0.000509581
72 *351:135 *700:DE 0.000459373
73 *351:135 *405:14 0
74 *351:135 *412:13 1.46079e-05
75 *351:135 *414:72 0.000285645
76 *351:135 *424:33 0
77 *351:150 *499:A 2.91008e-06
78 *351:150 *420:23 7.01677e-05
79 *351:167 *499:A 0.000218774
80 *351:167 *598:A1 6.27718e-05
81 *351:167 *956:A 0.000242087
82 *351:167 *420:23 2.62866e-05
83 *351:184 *611:A1 0.000103035
84 *351:184 *683:CLK 0
85 *351:184 *425:72 0
86 *351:192 *609:A 1.72772e-05
87 *351:192 *699:DE 0.000107922
88 *351:192 *394:6 0.00011813
89 *351:194 *836:A 0.000122068
90 *351:194 *451:10 0.000130535
91 *351:194 *451:14 0.000132105
92 *351:202 *509:S 0.000596111
93 *351:202 *354:228 0
94 *351:238 *354:198 0
95 *351:238 *354:208 0
96 *351:238 *381:16 0
97 *351:238 *381:44 0
98 *351:238 *408:107 0.000342736
99 resp_msg[8] *351:202 0
100 *468:B_N *351:69 5.71941e-06
101 *485:B *351:69 0.000463087
102 *497:A1 *351:135 0.000167427
103 *527:B *351:238 9.22161e-05
104 *531:A2 *351:238 0.000122992
105 *547:B_N *686:DE 0
106 *559:B *351:24 8.71824e-05
107 *561:B *351:135 0.000739577
108 *566:B *351:24 0.000209221
109 *568:C *351:52 6.08467e-05
110 *578:A2 *351:24 2.92277e-05
111 *578:C1 *351:24 8.11008e-05
112 *587:A3 *686:DE 1.55462e-05
113 *587:B1 *686:DE 0.000122083
114 *589:A *351:194 0
115 *591:S *351:135 8.36859e-05
116 *601:B1 *694:DE 0.000177787
117 *609:B *351:192 0.000121494
118 *610:A *683:DE 0
119 *611:A2 *351:184 5.05094e-05
120 *611:A2 *351:192 8.44129e-05
121 *616:A *351:194 0
122 *624:A2 *351:202 8.02755e-05
123 *629:B1 *351:202 3.79511e-05
124 *634:A *351:202 2.85274e-05
125 *648:A1 *351:69 0.000158346
126 *648:A1 *351:73 0.000191541
127 *682:D *682:DE 8.75716e-05
128 *683:D *683:DE 0.000144599
129 *683:D *351:192 0.000101555
130 *684:D *684:DE 8.36635e-05
131 *685:D *685:DE 8.37933e-05
132 *686:D *686:DE 6.46135e-05
133 *689:D *689:DE 0.000137121
134 *690:D *690:DE 8.06219e-05
135 *690:D *351:73 0.000170592
136 *691:D *691:DE 6.92705e-05
137 *694:D *694:DE 9.17835e-05
138 *695:D *694:DE 3.15919e-05
139 *696:D *351:202 0
140 *697:D *351:167 6.77912e-05
141 *697:D *351:184 0.000170352
142 *699:D *351:192 5.34249e-06
143 *701:D *351:135 5.23435e-05
144 *826:A *351:69 3.48613e-05
145 *826:A *351:73 4.3116e-06
146 *848:A *351:24 0.000177417
147 *853:A *351:24 0
148 *917:A *351:52 0.000213725
149 *935:A *351:135 7.28994e-06
150 *966:A *351:238 0
151 *20:10 *351:69 0.00028916
152 *30:16 *351:167 0.00011349
153 *41:14 *694:DE 8.62625e-06
154 *59:12 *351:135 3.89033e-05
155 *85:10 *688:DE 3.14954e-05
156 *86:8 *351:52 6.08467e-05
157 *86:40 *351:135 0
158 *111:12 *694:DE 1.5254e-05
159 *158:18 *688:DE 7.14723e-06
160 *158:18 *351:69 1.32043e-05
161 *164:12 *351:69 0.000482477
162 *164:12 *351:81 0.000434578
163 *165:18 *351:135 1.32315e-05
164 *173:12 *684:DE 9.43419e-05
165 *173:12 *351:135 9.38979e-05
166 *173:12 *351:150 1.33419e-05
167 *175:6 *351:24 0.000135765
168 *176:14 *688:DE 3.31733e-05
169 *176:14 *351:52 7.90692e-05
170 *176:14 *351:54 0.000332543
171 *176:14 *351:135 4.70104e-05
172 *177:12 *351:81 0.000148932
173 *180:10 *692:DE 3.81987e-05
174 *182:14 *351:238 0
175 *183:10 *351:202 0.000203865
176 *184:18 *696:DE 3.44641e-05
177 *194:10 *351:69 7.28994e-06
178 *195:12 *692:DE 0.000135774
179 *196:27 *692:DE 0.000180452
180 *196:27 *351:238 0.000353122
181 *197:10 *692:DE 0.000256146
182 *197:23 *351:238 0
183 *272:12 *351:135 0.000189438
184 *277:22 *351:69 0.000177512
185 *282:10 *694:DE 5.41227e-05
186 *284:14 *351:194 0.000123582
187 *346:10 *686:DE 8.62799e-05
*RES
1 *853:X *351:8 11.1059 
2 *351:8 *351:24 38.5483 
3 *351:24 *687:DE 14.2828 
4 *351:24 *686:DE 32.5274 
5 *351:8 *351:52 31.8444 
6 *351:52 *351:54 6.6074 
7 *351:54 *688:DE 16.6568 
8 *351:54 *351:69 25.709 
9 *351:69 *351:73 7.993 
10 *351:73 *351:81 23.6792 
11 *351:81 *682:DE 40.0622 
12 *351:81 *689:DE 13.1374 
13 *351:73 *691:DE 19.1958 
14 *351:69 *690:DE 14.7076 
15 *351:52 *351:135 48.2725 
16 *351:135 *685:DE 18.165 
17 *351:135 *351:150 3.52053 
18 *351:150 *684:DE 22.1877 
19 *351:150 *351:167 12.135 
20 *351:167 *697:DE 9.24915 
21 *351:167 *351:184 30.3244 
22 *351:184 *351:192 29.8489 
23 *351:192 *351:194 21.7641 
24 *351:194 *351:202 29.9324 
25 *351:202 *351:204 1.10318 
26 *351:204 *695:DE 9.24915 
27 *351:204 *694:DE 30.7449 
28 *351:202 *351:238 31.7357 
29 *351:238 *692:DE 42.2637 
30 *351:238 *693:DE 14.153 
31 *351:194 *696:DE 14.153 
32 *351:184 *683:DE 17.2308 
*END

*D_NET *249 0.00109923
*CONN
*I *628:A I *D sky130_fd_sc_hd__nand2_1
*I *797:X O *D sky130_fd_sc_hd__clkdlybuf4s50_1
*CAP
1 *628:A 0.000429474
2 *797:X 0.000429474
3 *628:A *508:A1 0.000179435
4 *628:A *811:A 6.08467e-05
*RES
1 *797:X *628:A 29.2287 
*END

*D_NET *352 0.000549975
*CONN
*I *621:A I *D sky130_fd_sc_hd__nor2_1
*I *854:X O *D sky130_fd_sc_hd__buf_4
*CAP
1 *621:A 5.1218e-05
2 *854:X 5.1218e-05
3 *621:A *621:B 0.00022067
4 *621:A *696:CLK 2.71182e-05
5 *616:A *621:A 0.000140499
6 *184:18 *621:A 5.92517e-05
*RES
1 *854:X *621:A 22.5734 
*END

*D_NET *353 0.002091
*CONN
*I *673:A1 I *D sky130_fd_sc_hd__o21bai_4
*I *671:A2 I *D sky130_fd_sc_hd__o21ai_1
*I *855:X O *D sky130_fd_sc_hd__buf_4
*CAP
1 *673:A1 0.000203549
2 *671:A2 9.7639e-05
3 *855:X 2.13038e-05
4 *353:6 0.000322491
5 *673:A1 *444:14 0.000200794
6 *673:A1 *453:10 4.52791e-05
7 *672:B_N *671:A2 6.27718e-05
8 *678:A1 *673:A1 0.000143295
9 *855:A *671:A2 7.58194e-05
10 *855:A *673:A1 2.07365e-05
11 *916:A *673:A1 9.50523e-05
12 *240:26 *671:A2 0.000372088
13 *240:26 *673:A1 0.00043018
*RES
1 *855:X *353:6 9.82786 
2 *353:6 *671:A2 13.8548 
3 *353:6 *673:A1 27.0417 
*END

*D_NET *354 0.0329428
*CONN
*I *581:A2 I *D sky130_fd_sc_hd__a211o_1
*I *677:A1 I *D sky130_fd_sc_hd__o21ai_1
*I *676:B I *D sky130_fd_sc_hd__nand2_1
*I *640:B I *D sky130_fd_sc_hd__nand2_1
*I *629:A1 I *D sky130_fd_sc_hd__o21ai_1
*I *634:B I *D sky130_fd_sc_hd__nand2_1
*I *624:A1 I *D sky130_fd_sc_hd__o21ai_1
*I *623:B I *D sky130_fd_sc_hd__nand2_1
*I *628:B I *D sky130_fd_sc_hd__nand2_1
*I *635:A1 I *D sky130_fd_sc_hd__o21ai_1
*I *638:A1 I *D sky130_fd_sc_hd__o21ai_1
*I *637:B I *D sky130_fd_sc_hd__nand2_1
*I *641:A1 I *D sky130_fd_sc_hd__o21ai_1
*I *645:A2 I *D sky130_fd_sc_hd__o21ai_1
*I *644:B I *D sky130_fd_sc_hd__nand2_1
*I *647:B I *D sky130_fd_sc_hd__nand2_1
*I *648:A2 I *D sky130_fd_sc_hd__o21ai_1
*I *650:B I *D sky130_fd_sc_hd__nand2_1
*I *651:A1 I *D sky130_fd_sc_hd__o21ai_1
*I *655:A1 I *D sky130_fd_sc_hd__o21ai_1
*I *654:B I *D sky130_fd_sc_hd__nand2_1
*I *580:B I *D sky130_fd_sc_hd__nor3_1
*I *856:X O *D sky130_fd_sc_hd__buf_4
*CAP
1 *581:A2 0.000186814
2 *677:A1 8.72843e-05
3 *676:B 7.06482e-05
4 *640:B 0.000379843
5 *629:A1 8.35644e-05
6 *634:B 0
7 *624:A1 0
8 *623:B 0.000259722
9 *628:B 0
10 *635:A1 0
11 *638:A1 0
12 *637:B 0
13 *641:A1 0.000302476
14 *645:A2 0.000115214
15 *644:B 2.56269e-05
16 *647:B 1.0654e-05
17 *648:A2 3.5247e-05
18 *650:B 0
19 *651:A1 3.53095e-05
20 *655:A1 0.000472599
21 *654:B 0.000342656
22 *580:B 0.000618763
23 *856:X 0
24 *354:228 0.000415493
25 *354:219 0.00038352
26 *354:215 0.000292562
27 *354:208 0.000717351
28 *354:198 0.00166315
29 *354:185 0.00133245
30 *354:163 0.000302476
31 *354:161 0.000516807
32 *354:157 0.000934311
33 *354:144 0.000683374
34 *354:131 0.000331676
35 *354:122 0.00032167
36 *354:113 0.000264382
37 *354:82 0.000643005
38 *354:63 0.000566507
39 *354:57 0.000736121
40 *354:51 0.000871517
41 *354:47 0.00118005
42 *354:41 0.0017583
43 *354:24 0.00106303
44 *354:4 0.00131777
45 *580:B *564:A 0.000503333
46 *580:B *572:A 1.96574e-05
47 *580:B *576:B 1.49644e-06
48 *580:B *577:A 4.0752e-05
49 *581:A2 *564:A 0
50 *623:B *463:75 9.59076e-05
51 *629:A1 *381:44 0.000139037
52 *641:A1 *511:A0 3.01683e-06
53 *651:A1 *489:B 4.3663e-05
54 *651:A1 *447:19 1.07248e-05
55 *654:B *489:B 3.14978e-05
56 *655:A1 *652:B 0.000171273
57 *676:B *953:A 7.52666e-05
58 *677:A1 *664:B 5.04829e-06
59 *677:A1 *688:CLK 3.82228e-05
60 *354:24 *571:B1 0.000115599
61 *354:24 *572:A 4.0752e-05
62 *354:24 *577:A 1.41976e-05
63 *354:24 *359:6 9.06988e-05
64 *354:24 *414:38 0
65 *354:41 *688:CLK 0.000163492
66 *354:41 *711:DE 0.000178051
67 *354:47 *513:A0 1.46079e-05
68 *354:47 *664:B 0.000522031
69 *354:47 *688:CLK 5.37077e-05
70 *354:47 *953:A 0
71 *354:47 *416:52 6.38519e-05
72 *354:47 *455:22 7.15614e-05
73 *354:51 *953:A 0
74 *354:131 *459:20 4.83459e-05
75 *354:161 *708:DE 0
76 *354:185 *636:A0 3.00174e-06
77 *354:185 *708:DE 0
78 *354:198 *476:A2 6.91252e-05
79 *354:198 *636:A0 6.84397e-05
80 *354:198 *371:12 0.000191541
81 *354:198 *381:16 0
82 *354:198 *381:44 7.26606e-05
83 *354:198 *410:39 0
84 resp_msg[1] *354:57 5.03033e-05
85 resp_msg[5] *354:157 4.91225e-06
86 resp_msg[7] *354:228 4.22958e-05
87 *470:C1 *354:47 5.22071e-05
88 *474:B_N *354:198 9.99386e-06
89 *483:B1 *354:47 9.8867e-05
90 *512:A1 *354:157 0.000239387
91 *513:A1 *354:51 0
92 *514:A1 *651:A1 0
93 *514:A1 *354:63 0
94 *531:A1 *354:198 2.86829e-05
95 *556:B1 *354:41 0.000122925
96 *558:A *354:41 0.000175244
97 *567:A *354:41 3.89082e-05
98 *567:A *354:47 5.46384e-06
99 *568:A *354:41 0.000166023
100 *571:A1 *354:24 2.36617e-05
101 *577:C *580:B 0.000217937
102 *580:A *580:B 2.19616e-05
103 *581:A1 *581:A2 4.24529e-05
104 *581:B1 *581:A2 7.22498e-05
105 *620:A *623:B 6.08467e-05
106 *624:A2 *623:B 1.94224e-05
107 *624:A2 *354:228 1.03594e-05
108 *629:A2 *629:A1 3.27437e-05
109 *629:B1 *354:208 0
110 *629:B1 *354:219 0.00032974
111 *633:A0 *354:208 4.25785e-05
112 *633:A0 *354:215 6.50727e-05
113 *635:A2 *354:215 4.82966e-05
114 *635:B1 *354:215 6.50586e-05
115 *637:A *640:B 4.33655e-05
116 *637:A *354:157 9.39797e-05
117 *637:A *354:161 6.31954e-05
118 *637:A *354:185 5.22654e-06
119 *638:B1 *354:185 6.17289e-05
120 *640:A *640:B 2.99471e-05
121 *643:A1 *354:131 0.000217951
122 *643:A1 *354:144 0.000118166
123 *643:B1 *644:B 7.19906e-05
124 *643:B1 *354:144 0.000119805
125 *645:A1 *645:A2 0.000284048
126 *645:A1 *354:131 1.00981e-05
127 *645:A1 *354:144 3.61993e-05
128 *645:B1 *645:A2 5.79544e-05
129 *645:B1 *354:144 0.000523665
130 *645:B1 *354:157 0.00011818
131 *648:A1 *354:51 0
132 *648:B1 *354:122 0.000123698
133 *648:B1 *354:131 2.29454e-05
134 *650:A *354:57 0.000324151
135 *651:B1 *651:A1 6.08697e-06
136 *651:B1 *354:57 6.92705e-05
137 *651:B1 *354:63 1.67749e-05
138 *651:B1 *354:82 4.91997e-05
139 *653:A *655:A1 7.02172e-06
140 *655:A2 *655:A1 0.000471216
141 *676:A *354:51 3.12316e-05
142 *676:A *354:57 0.000171273
143 *676:A *354:113 0.00011818
144 *682:D *655:A1 1.27683e-05
145 *682:DE *654:B 0.000109809
146 *688:D *354:41 1.25579e-05
147 *688:D *354:47 1.07403e-05
148 *689:D *655:A1 6.08467e-05
149 *689:D *354:82 0.000152743
150 *689:DE *654:B 7.34948e-06
151 *690:D *354:122 6.92705e-05
152 *691:D *645:A2 0.00012568
153 *694:D *354:215 1.00981e-05
154 *696:D *623:B 0.000122844
155 *706:D *354:47 0.000145396
156 *708:D *354:161 0
157 *806:A *354:57 0.0002817
158 *806:A *354:113 0.000208218
159 *807:A *354:144 0.000107496
160 *818:A *654:B 2.27135e-05
161 *818:A *354:63 2.86439e-05
162 *818:A *354:82 3.89332e-06
163 *825:A *354:57 0.000171273
164 *829:A *354:157 0.000160617
165 *856:A *354:24 0.00053717
166 *861:A *354:24 0.000262495
167 *901:A *641:A1 0
168 *905:A *354:41 7.89406e-05
169 *73:14 *354:24 0.000296243
170 *73:14 *354:41 7.01935e-06
171 *75:12 *354:41 0
172 *77:25 *580:B 0.000113968
173 *77:34 *580:B 9.97706e-05
174 *77:34 *354:24 0.000182059
175 *80:16 *354:24 1.31872e-05
176 *86:16 *354:41 4.79303e-05
177 *86:16 *354:47 7.5987e-05
178 *158:24 *677:A1 5.481e-05
179 *164:12 *354:47 0
180 *180:10 *641:A1 0.000309797
181 *180:23 *354:185 0.000193689
182 *180:23 *354:198 2.75427e-05
183 *182:14 *354:208 0.000109978
184 *191:14 *354:24 6.46815e-05
185 *191:14 *354:41 4.76794e-05
186 *198:20 *354:208 0.00066008
187 *198:78 *354:208 2.09447e-05
188 *340:10 *354:41 0
189 *351:81 *676:B 0.000277488
190 *351:202 *354:228 0
191 *351:238 *354:198 0
192 *351:238 *354:208 0
*RES
1 *856:X *354:4 9.24915 
2 *354:4 *354:24 39.7912 
3 *354:24 *580:B 22.1738 
4 *354:4 *354:41 26.9298 
5 *354:41 *354:47 28.2127 
6 *354:47 *354:51 7.57775 
7 *354:51 *354:57 18.6274 
8 *354:57 *354:63 6.74458 
9 *354:63 *654:B 22.2946 
10 *354:63 *354:82 4.11588 
11 *354:82 *655:A1 23.8285 
12 *354:82 *651:A1 14.7506 
13 *354:57 *650:B 9.24915 
14 *354:51 *354:113 3.49641 
15 *354:113 *648:A2 10.2378 
16 *354:113 *354:122 4.05102 
17 *354:122 *647:B 9.82786 
18 *354:122 *354:131 5.71483 
19 *354:131 *644:B 10.7442 
20 *354:131 *354:144 7.37864 
21 *354:144 *645:A2 23.4032 
22 *354:144 *354:157 12.3701 
23 *354:157 *354:161 7.1625 
24 *354:161 *354:163 4.5 
25 *354:163 *641:A1 17.7852 
26 *354:163 *637:B 9.24915 
27 *354:161 *354:185 11.4561 
28 *354:185 *638:A1 13.7491 
29 *354:185 *354:198 20.2008 
30 *354:198 *354:208 26.4479 
31 *354:208 *635:A1 9.24915 
32 *354:208 *354:215 2.38721 
33 *354:215 *354:219 11.315 
34 *354:219 *628:B 13.7491 
35 *354:219 *354:228 3.90826 
36 *354:228 *623:B 21.0561 
37 *354:228 *624:A1 13.7491 
38 *354:215 *634:B 9.24915 
39 *354:198 *629:A1 16.4116 
40 *354:157 *640:B 17.7611 
41 *354:47 *676:B 17.2697 
42 *354:41 *677:A1 16.1605 
43 *580:B *581:A2 23.7067 
*END

*D_NET *420 0.00827112
*CONN
*I *593:B I *D sky130_fd_sc_hd__nand2_1
*I *597:B I *D sky130_fd_sc_hd__nand2_1
*I *611:A1 I *D sky130_fd_sc_hd__o21ai_1
*I *610:B I *D sky130_fd_sc_hd__nand2_1
*I *618:B I *D sky130_fd_sc_hd__nand2_1
*I *619:A1 I *D sky130_fd_sc_hd__o21ai_1
*I *598:A1 I *D sky130_fd_sc_hd__o21ai_1
*I *594:A1 I *D sky130_fd_sc_hd__o21ai_1
*I *922:X O *D sky130_fd_sc_hd__buf_4
*CAP
1 *593:B 0
2 *597:B 0
3 *611:A1 0.00015587
4 *610:B 0.000116246
5 *618:B 0.000109208
6 *619:A1 0
7 *598:A1 6.57113e-05
8 *594:A1 0
9 *922:X 8.2324e-05
10 *420:69 0.000378271
11 *420:65 0.000464963
12 *420:54 0.000620885
13 *420:44 0.000713331
14 *420:23 0.0011056
15 *420:13 0.000888499
16 *420:6 0.000179653
17 *598:A1 *499:A 6.08467e-05
18 *610:B *683:CLK 0.000118128
19 *618:B *683:CLK 9.46208e-05
20 *420:23 *499:A 4.87301e-05
21 *420:54 *683:CLK 0
22 *420:54 *684:CLK 2.08133e-05
23 *420:54 *956:A 0.000707309
24 *420:54 *425:72 0
25 *420:54 *463:33 0.000168319
26 *420:65 *956:A 0.000314044
27 *499:B *420:44 5.46286e-05
28 *579:A *420:44 8.62625e-06
29 *593:A *420:23 0.000106705
30 *594:B1 *420:13 0.000112367
31 *598:A2 *598:A1 5.37082e-05
32 *598:B1 *420:54 0.000127194
33 *610:A *420:69 0
34 *618:A *420:69 1.3262e-05
35 *619:A2 *420:65 6.89158e-05
36 *619:B1 *420:65 0.000275749
37 *619:B1 *420:69 0.000127358
38 *685:D *420:13 4.89251e-05
39 *685:DE *420:23 0.000110872
40 *820:A *598:A1 5.66868e-06
41 *820:A *420:44 4.38731e-05
42 *820:A *420:54 6.17734e-05
43 *821:A *420:23 0.000105239
44 *185:10 *611:A1 1.43298e-05
45 *351:150 *420:23 7.01677e-05
46 *351:167 *598:A1 6.27718e-05
47 *351:167 *420:23 2.62866e-05
48 *351:184 *611:A1 0.000103035
49 *408:62 *420:54 0.000256285
*RES
1 *922:X *420:6 11.0817 
2 *420:6 *594:A1 9.24915 
3 *420:6 *420:13 2.94181 
4 *420:13 *420:23 28.5298 
5 *420:23 *598:A1 15.8893 
6 *420:23 *420:44 11.0081 
7 *420:44 *420:54 26.1449 
8 *420:54 *619:A1 9.24915 
9 *420:54 *420:65 11.0742 
10 *420:65 *420:69 8.82351 
11 *420:69 *618:B 12.2151 
12 *420:69 *610:B 12.7697 
13 *420:65 *611:A1 18.533 
14 *420:44 *597:B 9.24915 
15 *420:13 *593:B 9.24915 
*END

*D_NET *356 0.00508236
*CONN
*I *575:A1 I *D sky130_fd_sc_hd__o2111ai_2
*I *562:B1 I *D sky130_fd_sc_hd__a211oi_2
*I *548:B I *D sky130_fd_sc_hd__nor2_1
*I *858:X O *D sky130_fd_sc_hd__buf_4
*CAP
1 *575:A1 0
2 *562:B1 0.000247474
3 *548:B 4.69711e-05
4 *858:X 0.000512297
5 *356:14 0.000471904
6 *356:10 0.000689757
7 *548:B *427:14 0.000111941
8 *562:B1 *562:A1 4.09173e-05
9 *562:B1 *562:C1 0.000165521
10 *562:B1 *571:A2 0.000297054
11 *562:B1 *427:14 0.000252337
12 *356:10 *574:B 0.000144546
13 *356:10 *702:DE 0
14 *356:10 *357:10 4.36987e-05
15 *356:10 *376:16 0.000217602
16 *546:B_N *356:10 0.000224395
17 *549:D *562:B1 0.000413352
18 *575:B1 *356:10 3.20264e-05
19 *575:B1 *356:14 0.000208834
20 *588:A *356:10 6.08467e-05
21 *846:A *356:10 0
22 *65:18 *356:10 5.481e-05
23 *67:6 *548:B 0.000114271
24 *67:6 *562:B1 0.000575564
25 *86:48 *562:B1 3.64496e-05
26 *89:21 *356:10 0
27 *190:14 *356:10 7.14917e-05
28 *190:18 *356:10 4.82966e-05
*RES
1 *858:X *356:10 30.1556 
2 *356:10 *356:14 8.40826 
3 *356:14 *548:B 11.5158 
4 *356:14 *562:B1 21.8121 
5 *356:10 *575:A1 13.7491 
*END

*D_NET *357 0.00295836
*CONN
*I *548:A I *D sky130_fd_sc_hd__nor2_1
*I *577:A I *D sky130_fd_sc_hd__or4_1
*I *563:B I *D sky130_fd_sc_hd__nor2_1
*I *570:A1 I *D sky130_fd_sc_hd__o2111ai_1
*I *859:X O *D sky130_fd_sc_hd__buf_4
*CAP
1 *548:A 0.000159183
2 *577:A 2.28249e-05
3 *563:B 2.94167e-05
4 *570:A1 4.18713e-05
5 *859:X 0.000161357
6 *357:16 0.000175155
7 *357:12 0.000285103
8 *357:10 0.000478952
9 *548:A *427:14 5.30806e-05
10 *577:A *572:A 0.000113968
11 *357:16 *572:A 5.47736e-05
12 *572:C *570:A1 6.50586e-05
13 *575:B1 *357:10 8.70662e-06
14 *575:B1 *357:12 7.10625e-05
15 *575:B1 *357:16 1.69932e-05
16 *578:D1 *570:A1 6.50586e-05
17 *578:D1 *357:16 0.000113374
18 *580:B *577:A 4.0752e-05
19 *859:A *357:10 2.16355e-05
20 *933:A *357:10 0.000109651
21 *933:A *357:12 5.37077e-05
22 *80:16 *570:A1 0
23 *81:8 *563:B 0.000164843
24 *81:8 *570:A1 1.41853e-05
25 *86:48 *548:A 2.16355e-05
26 *89:8 *357:10 9.43419e-05
27 *89:8 *357:12 0.000197653
28 *89:21 *357:10 0.00020666
29 *337:8 *563:B 4.02438e-05
30 *337:8 *570:A1 1.92172e-05
31 *354:24 *577:A 1.41976e-05
32 *356:10 *357:10 4.36987e-05
*RES
1 *859:X *357:10 20.0418 
2 *357:10 *357:12 4.73876 
3 *357:12 *357:16 7.57775 
4 *357:16 *570:A1 11.1059 
5 *357:16 *563:B 11.0817 
6 *357:12 *577:A 15.0271 
7 *357:10 *548:A 16.5704 
*END

*D_NET *358 0.00195334
*CONN
*I *562:A1 I *D sky130_fd_sc_hd__a211oi_2
*I *571:A2 I *D sky130_fd_sc_hd__a21o_1
*I *860:X O *D sky130_fd_sc_hd__buf_4
*CAP
1 *562:A1 0.000154252
2 *571:A2 0.0002354
3 *860:X 0
4 *358:4 0.000389652
5 *562:A1 *562:C1 0.00016625
6 *571:A2 *562:C1 3.03812e-05
7 *571:A2 *408:22 0.000182602
8 *549:D *562:A1 1.9414e-05
9 *562:B1 *562:A1 4.09173e-05
10 *562:B1 *571:A2 0.000297054
11 *860:A *571:A2 0.000109427
12 *86:48 *562:A1 0.000312136
13 *86:48 *571:A2 1.58551e-05
14 *89:8 *571:A2 0
*RES
1 *860:X *358:4 9.24915 
2 *358:4 *571:A2 25.8173 
3 *358:4 *562:A1 15.9044 
*END

*D_NET *359 0.00251829
*CONN
*I *562:C1 I *D sky130_fd_sc_hd__a211oi_2
*I *571:B1 I *D sky130_fd_sc_hd__a21o_1
*I *861:X O *D sky130_fd_sc_hd__buf_4
*CAP
1 *562:C1 0.000242085
2 *571:B1 8.46514e-05
3 *861:X 3.432e-05
4 *359:6 0.000361057
5 *562:C1 *408:22 0.000253899
6 *562:C1 *414:38 3.79625e-05
7 *571:B1 *572:A 0
8 *545:B_N *562:C1 8.18344e-06
9 *562:A1 *562:C1 0.00016625
10 *562:B1 *562:C1 0.000165521
11 *571:A1 *571:B1 0.000169041
12 *571:A1 *359:6 0.00020457
13 *571:A2 *562:C1 3.03812e-05
14 *849:A *562:C1 9.43419e-05
15 *860:A *562:C1 0.000107496
16 *861:A *562:C1 5.77352e-05
17 *922:A *562:C1 4.70559e-05
18 *86:48 *562:C1 0.000247443
19 *354:24 *571:B1 0.000115599
20 *354:24 *359:6 9.06988e-05
*RES
1 *861:X *359:6 11.6364 
2 *359:6 *571:B1 12.7697 
3 *359:6 *562:C1 37.7638 
*END

*D_NET *360 0.0012865
*CONN
*I *582:B I *D sky130_fd_sc_hd__xnor2_1
*I *862:X O *D sky130_fd_sc_hd__buf_4
*CAP
1 *582:B 0.000278463
2 *862:X 0.000278463
3 *582:B *931:A 0.000266721
4 *582:A *582:B 0.000273152
5 *823:A *582:B 0.000122378
6 *862:A *582:B 2.84892e-05
7 *351:24 *582:B 3.88315e-05
*RES
1 *862:X *582:B 36.4597 
*END

*D_NET *361 0.00148112
*CONN
*I *595:A I *D sky130_fd_sc_hd__xnor2_4
*I *863:X O *D sky130_fd_sc_hd__buf_4
*CAP
1 *595:A 0.000472479
2 *863:X 0.000472479
3 *595:A *711:CLK 0.000139684
4 *595:A *408:81 6.50586e-05
5 *595:A *412:13 0
6 *595:A *463:8 7.73085e-05
7 *884:A *595:A 1.86458e-05
8 *917:A *595:A 1.84293e-05
9 *271:8 *595:A 0.000217034
*RES
1 *863:X *595:A 41.0246 
*END

*D_NET *250 0.000609742
*CONN
*I *623:A I *D sky130_fd_sc_hd__nand2_1
*I *798:X O *D sky130_fd_sc_hd__clkdlybuf4s50_1
*CAP
1 *623:A 0.000304871
2 *798:X 0.000304871
*RES
1 *798:X *623:A 25.901 
*END

*D_NET *362 0.00133202
*CONN
*I *614:A1 I *D sky130_fd_sc_hd__a31oi_4
*I *605:A1 I *D sky130_fd_sc_hd__a32o_1
*I *864:X O *D sky130_fd_sc_hd__buf_4
*CAP
1 *614:A1 0
2 *605:A1 9.10393e-05
3 *864:X 0.000179286
4 *362:8 0.000270326
5 *362:8 *463:75 0.000185458
6 *614:A2 *605:A1 6.23779e-05
7 *614:A3 *362:8 0.000107496
8 *614:B1 *362:8 0.000271044
9 *109:19 *605:A1 3.00174e-06
10 *115:24 *605:A1 0.000161994
*RES
1 *864:X *362:8 16.0973 
2 *362:8 *605:A1 21.3269 
3 *362:8 *614:A1 9.24915 
*END

*D_NET *363 0.000436928
*CONN
*I *642:A I *D sky130_fd_sc_hd__nor2_2
*I *865:X O *D sky130_fd_sc_hd__buf_4
*CAP
1 *642:A 0.000101756
2 *865:X 0.000101756
3 *642:A *416:80 0.000187153
4 *472:A_N *642:A 4.46684e-05
5 *179:40 *642:A 1.59362e-06
*RES
1 *865:X *642:A 30.9913 
*END

*D_NET *364 0.000496154
*CONN
*I *612:B I *D sky130_fd_sc_hd__xor2_1
*I *866:X O *D sky130_fd_sc_hd__buf_4
*CAP
1 *612:B 6.08621e-05
2 *866:X 6.08621e-05
3 *612:A *612:B 2.57986e-05
4 *31:35 *612:B 0.000256155
5 *350:24 *612:B 9.24757e-05
*RES
1 *866:X *612:B 21.4401 
*END

*D_NET *365 0.00197054
*CONN
*I *606:C1 I *D sky130_fd_sc_hd__o311a_1
*I *867:X O *D sky130_fd_sc_hd__buf_4
*CAP
1 *606:C1 0.000621296
2 *867:X 0.000621296
3 *606:C1 *507:A1 9.12416e-06
4 *606:C1 *699:CLK 0
5 *606:C1 *712:DE 1.51716e-05
6 *31:35 *606:C1 0.000678783
7 *116:10 *606:C1 2.48716e-05
*RES
1 *867:X *606:C1 39.0827 
*END

*D_NET *355 0.00395931
*CONN
*I *606:A3 I *D sky130_fd_sc_hd__o311a_1
*I *603:B I *D sky130_fd_sc_hd__or3_1
*I *604:B I *D sky130_fd_sc_hd__or3_1
*I *857:X O *D sky130_fd_sc_hd__buf_4
*CAP
1 *606:A3 0.0002759
2 *603:B 0.000171974
3 *604:B 0
4 *857:X 0
5 *355:12 0.000443512
6 *355:4 0.000547437
7 *606:A3 *606:A2 0.000159016
8 *606:A3 *368:27 3.26503e-05
9 *606:A3 *394:33 6.97257e-05
10 *355:12 *604:A 0.000359214
11 *355:12 *665:A 7.0179e-06
12 *355:12 *425:102 0.000119367
13 *505:A *606:A3 5.04829e-06
14 *505:A *355:12 2.16355e-05
15 *603:C *603:B 7.16754e-05
16 *604:C *603:B 4.56831e-05
17 *605:B1 *603:B 0.000109513
18 *605:B1 *355:12 1.77537e-06
19 *852:A *606:A3 0.000209636
20 *899:A *606:A3 8.07484e-05
21 *115:24 *606:A3 0.000432135
22 *115:24 *355:12 8.68133e-05
23 *116:10 *606:A3 0.000208621
24 *184:18 *355:12 5.77352e-05
25 *184:31 *355:12 0.000333062
26 *350:24 *606:A3 0.000109421
*RES
1 *857:X *355:4 9.24915 
2 *355:4 *355:12 20.2757 
3 *355:12 *604:B 9.24915 
4 *355:12 *603:B 14.4576 
5 *355:4 *606:A3 20.9682 
*END

*D_NET *366 0.000543787
*CONN
*I *626:B I *D sky130_fd_sc_hd__xnor2_2
*I *868:X O *D sky130_fd_sc_hd__buf_4
*CAP
1 *626:B 0.000224749
2 *868:X 0.000224749
3 *626:A *626:B 0
4 *694:DE *626:B 1.18802e-05
5 *868:A *626:B 4.89251e-05
6 *41:14 *626:B 3.34833e-05
7 *109:19 *626:B 0
*RES
1 *868:X *626:B 32.0175 
*END

*D_NET *367 0.000227174
*CONN
*I *620:B I *D sky130_fd_sc_hd__xnor2_2
*I *869:X O *D sky130_fd_sc_hd__buf_4
*CAP
1 *620:B 0.000113587
2 *869:X 0.000113587
*RES
1 *869:X *620:B 20.8855 
*END

*D_NET *368 0.00436048
*CONN
*I *606:A1 I *D sky130_fd_sc_hd__o311a_1
*I *507:A1 I *D sky130_fd_sc_hd__o21ai_1
*I *604:A I *D sky130_fd_sc_hd__or3_1
*I *870:X O *D sky130_fd_sc_hd__buf_4
*CAP
1 *606:A1 0
2 *507:A1 0.000439805
3 *604:A 0.000190193
4 *870:X 8.03131e-05
5 *368:27 0.000894838
6 *368:6 0.00072554
7 *507:A1 *712:DE 4.69495e-06
8 *507:A1 *397:20 1.85244e-05
9 *368:6 *665:B 0.000200606
10 *368:27 *606:A2 0.000107496
11 *368:27 *665:B 0.000154145
12 *368:27 *415:61 6.62029e-05
13 *368:27 *425:102 0.000181742
14 *522:D *368:27 6.62029e-05
15 *534:B *604:A 3.42484e-05
16 *534:B *368:6 0.000216458
17 *606:A3 *368:27 3.26503e-05
18 *606:C1 *507:A1 9.12416e-06
19 *712:D *507:A1 0.000137915
20 *112:25 *604:A 1.39717e-06
21 *115:24 *368:27 0.000301947
22 *200:16 *368:27 2.58757e-05
23 *350:24 *368:27 0.000111352
24 *355:12 *604:A 0.000359214
*RES
1 *870:X *368:6 13.3002 
2 *368:6 *604:A 24.6489 
3 *368:6 *368:27 22.8135 
4 *368:27 *507:A1 29.7492 
5 *368:27 *606:A1 9.24915 
*END

*D_NET *421 0.00250228
*CONN
*I *607:A I *D sky130_fd_sc_hd__xnor2_1
*I *503:A1 I *D sky130_fd_sc_hd__o21ai_1
*I *923:X O *D sky130_fd_sc_hd__buf_4
*CAP
1 *607:A 0.000447563
2 *503:A1 0
3 *923:X 0.000102626
4 *421:8 0.000550189
5 *607:A *503:A2 4.30017e-06
6 *607:A *451:10 0.000108188
7 *421:8 *502:A 0
8 *502:B *421:8 0
9 *503:B1 *421:8 0
10 *607:B *607:A 0.000944126
11 *608:B *607:A 2.54623e-05
12 *608:B *421:8 5.04829e-06
13 *699:D *607:A 0.000143657
14 *171:16 *421:8 0.000113968
15 *187:12 *607:A 2.16355e-05
16 *187:12 *421:8 3.55126e-05
*RES
1 *923:X *421:8 12.2151 
2 *421:8 *503:A1 9.24915 
3 *421:8 *607:A 34.4092 
*END

*D_NET *369 0.00181019
*CONN
*I *494:A1 I *D sky130_fd_sc_hd__o21ai_1
*I *570:C1 I *D sky130_fd_sc_hd__o2111ai_1
*I *871:X O *D sky130_fd_sc_hd__buf_4
*CAP
1 *494:A1 0
2 *570:C1 0.000226741
3 *871:X 7.1562e-05
4 *369:10 0.000298303
5 *369:10 *494:A2 0.000179904
6 *490:A *570:C1 0.000160001
7 *494:B1 *369:10 0.000160942
8 *555:A *369:10 0.000114271
9 *577:D *570:C1 5.77352e-05
10 *24:8 *369:10 0.000236802
11 *77:10 *570:C1 9.89461e-05
12 *84:8 *570:C1 1.53822e-05
13 *175:17 *570:C1 0.000189598
*RES
1 *871:X *369:10 14.0477 
2 *369:10 *570:C1 25.9435 
3 *369:10 *494:A1 9.24915 
*END

*D_NET *251 0.000212744
*CONN
*I *618:A I *D sky130_fd_sc_hd__nand2_1
*I *799:X O *D sky130_fd_sc_hd__clkdlybuf4s50_1
*CAP
1 *618:A 9.97407e-05
2 *799:X 9.97407e-05
3 *618:A *420:69 1.3262e-05
*RES
1 *799:X *618:A 29.7455 
*END

*D_NET *370 0.00410614
*CONN
*I *478:A I *D sky130_fd_sc_hd__nand2_1
*I *525:B I *D sky130_fd_sc_hd__nand2_1
*I *524:C1 I *D sky130_fd_sc_hd__o221ai_2
*I *476:B1_N I *D sky130_fd_sc_hd__a21boi_2
*I *872:X O *D sky130_fd_sc_hd__buf_6
*CAP
1 *478:A 2.68789e-05
2 *525:B 0
3 *524:C1 0.000103085
4 *476:B1_N 2.06324e-05
5 *872:X 0.000537129
6 *370:25 0.000795947
7 *370:10 0.000950447
8 *370:8 0.00080096
9 *370:10 *478:B 2.16355e-05
10 *370:10 *526:C 0.00013978
11 *370:10 *371:14 5.0715e-05
12 *370:25 *526:C 5.12125e-05
13 *370:25 *843:A 5.52748e-05
14 *473:A3 *524:C1 0
15 *473:B1 *524:C1 1.07248e-05
16 *479:B *478:A 3.75603e-05
17 *479:B *370:8 0.000125763
18 *479:B *370:10 2.61147e-05
19 *526:B *524:C1 0.000162483
20 *526:B *370:25 1.07248e-05
21 *526:D *370:25 6.50727e-05
22 *828:A *370:8 6.02377e-05
23 *45:10 *370:25 5.3764e-05
24 *155:12 *524:C1 0
25 *155:12 *370:25 0
*RES
1 *872:X *370:8 20.5341 
2 *370:8 *370:10 6.26943 
3 *370:10 *476:B1_N 9.82786 
4 *370:10 *370:25 16.0925 
5 *370:25 *524:C1 16.8269 
6 *370:25 *525:B 13.7491 
7 *370:8 *478:A 10.2378 
*END

*D_NET *371 0.00352937
*CONN
*I *478:B I *D sky130_fd_sc_hd__nand2_1
*I *476:A1 I *D sky130_fd_sc_hd__a21boi_2
*I *526:C I *D sky130_fd_sc_hd__nand4b_1
*I *873:X O *D sky130_fd_sc_hd__buf_4
*CAP
1 *478:B 1.81726e-05
2 *476:A1 0
3 *526:C 0.00077967
4 *873:X 0.000125253
5 *371:14 0.000796014
6 *371:12 0.000159769
7 *526:C *843:A 9.46208e-05
8 *526:C *380:34 1.64789e-05
9 *371:12 *410:39 4.40506e-05
10 *474:B_N *371:12 1.44467e-05
11 *479:B *478:B 4.66492e-05
12 *479:B *526:C 0.000423936
13 *479:B *371:14 0.000102003
14 *526:B *526:C 0.000217923
15 *526:D *526:C 1.00937e-05
16 *527:B *371:12 2.61147e-05
17 *14:6 *371:12 1.03403e-05
18 *45:10 *526:C 1.99131e-05
19 *196:33 *371:12 0.000169041
20 *354:198 *371:12 0.000191541
21 *370:10 *478:B 2.16355e-05
22 *370:10 *526:C 0.00013978
23 *370:10 *371:14 5.0715e-05
24 *370:25 *526:C 5.12125e-05
*RES
1 *873:X *371:12 23.5748 
2 *371:12 *371:14 1.278 
3 *371:14 *526:C 26.1284 
4 *371:14 *476:A1 9.24915 
5 *371:12 *478:B 9.97254 
*END

*D_NET *372 0.00277698
*CONN
*I *485:A I *D sky130_fd_sc_hd__or3_1
*I *484:A2 I *D sky130_fd_sc_hd__o21ai_0
*I *874:X O *D sky130_fd_sc_hd__buf_4
*CAP
1 *485:A 0.000255934
2 *484:A2 0.000234926
3 *874:X 9.50107e-05
4 *372:10 0.000585871
5 *484:A2 *480:B 1.87825e-05
6 *484:A2 *458:10 9.89388e-06
7 *485:A *480:A 1.44611e-05
8 *485:A *485:C 0.000405738
9 *485:A *663:A 0
10 *485:A *688:CLK 0.000266055
11 *372:10 *480:A 3.42931e-05
12 *372:10 *462:24 9.32102e-05
13 *484:B1 *484:A2 0.0001126
14 *486:A *485:A 6.93171e-05
15 *963:A *484:A2 0
16 *963:A *485:A 0.000257315
17 *963:A *372:10 9.24241e-05
18 *10:8 *484:A2 1.89767e-05
19 *155:12 *372:10 0.00021217
*RES
1 *874:X *372:10 17.9683 
2 *372:10 *484:A2 26.6924 
3 *372:10 *485:A 24.3365 
*END

*D_NET *373 0.00242634
*CONN
*I *483:A2 I *D sky130_fd_sc_hd__a21oi_1
*I *488:A I *D sky130_fd_sc_hd__xnor2_1
*I *875:X O *D sky130_fd_sc_hd__buf_6
*CAP
1 *483:A2 0.000534064
2 *488:A 9.38074e-05
3 *875:X 5.05882e-05
4 *373:6 0.000678459
5 *483:A2 *487:B 0.000198686
6 *483:A2 *649:A0 4.66492e-05
7 *483:A2 *888:A 6.08467e-05
8 *483:A2 *455:22 0.000130515
9 *488:A *649:A0 0.000163478
10 *488:A *664:C 1.1957e-05
11 *488:A *704:DE 0.000131915
12 *488:A *413:37 4.9e-05
13 *488:A *413:56 5.04829e-06
14 *488:A *416:8 8.76221e-06
15 *488:A *416:52 6.08467e-05
16 *373:6 *649:A0 6.08467e-05
17 *488:B *483:A2 7.35329e-05
18 *20:10 *483:A2 6.73351e-05
*RES
1 *875:X *373:6 10.5271 
2 *373:6 *488:A 22.4655 
3 *373:6 *483:A2 24.971 
*END

*D_NET *375 0.00356671
*CONN
*I *535:A I *D sky130_fd_sc_hd__nand2_1
*I *536:A I *D sky130_fd_sc_hd__nor2_1
*I *665:B I *D sky130_fd_sc_hd__nor4_4
*I *877:X O *D sky130_fd_sc_hd__buf_4
*CAP
1 *535:A 0.000242341
2 *536:A 1.15099e-05
3 *665:B 0.000241507
4 *877:X 0.000290066
5 *375:12 0.000327208
6 *375:10 0.000606598
7 *536:A *425:102 6.27718e-05
8 *665:B *425:102 0.00015607
9 *375:10 *537:A1 0.000101133
10 *534:B *665:B 2.46387e-05
11 *535:B *536:A 6.27718e-05
12 *535:B *375:10 8.29867e-05
13 *535:B *375:12 0.000114659
14 *537:A2 *535:A 0.000128448
15 *537:B1 *375:10 7.11294e-05
16 *537:B1 *375:12 7.26748e-05
17 *877:A *375:10 6.3657e-05
18 *31:35 *535:A 1.80575e-05
19 *33:10 *665:B 9.78191e-05
20 *37:10 *375:10 0
21 *57:12 *665:B 1.94615e-05
22 *57:12 *375:12 2.02848e-05
23 *156:16 *665:B 0.00039617
24 *201:14 *375:10 0
25 *368:6 *665:B 0.000200606
26 *368:27 *665:B 0.000154145
*RES
1 *877:X *375:10 22.1181 
2 *375:10 *375:12 2.6625 
3 *375:12 *665:B 23.9832 
4 *375:12 *536:A 14.4725 
5 *375:10 *535:A 18.0895 
*END

*D_NET *377 0.00379255
*CONN
*I *613:A I *D sky130_fd_sc_hd__inv_1
*I *606:A2 I *D sky130_fd_sc_hd__o311a_1
*I *665:C I *D sky130_fd_sc_hd__nor4_4
*I *603:A I *D sky130_fd_sc_hd__or3_1
*I *879:X O *D sky130_fd_sc_hd__buf_4
*CAP
1 *613:A 7.32791e-06
2 *606:A2 0.000375986
3 *665:C 0
4 *603:A 0.000207955
5 *879:X 0
6 *377:27 0.000528343
7 *377:21 0.000338583
8 *377:4 0.000386854
9 *603:A *666:A 1.57593e-05
10 *606:A2 *397:20 4.81913e-05
11 *606:A2 *415:61 5.23435e-05
12 *606:A2 *425:102 0.000301947
13 *377:27 *415:61 8.40838e-05
14 *516:A *377:21 6.08467e-05
15 *522:C *606:A2 1.21985e-05
16 *522:C *377:27 7.46581e-05
17 *522:D *606:A2 0.000112434
18 *606:A3 *606:A2 0.000159016
19 *712:D *606:A2 7.26748e-05
20 *879:A *603:A 0.000117376
21 *35:12 *377:27 3.67708e-05
22 *115:24 *606:A2 2.30636e-05
23 *121:8 *377:21 0
24 *156:16 *603:A 0.000164283
25 *184:18 *613:A 9.18685e-06
26 *184:18 *377:21 0.000311249
27 *200:16 *613:A 1.16216e-05
28 *200:16 *377:21 3.98267e-05
29 *200:20 *603:A 2.37325e-05
30 *200:20 *377:21 0.000100376
31 *350:24 *606:A2 8.36586e-06
32 *368:27 *606:A2 0.000107496
*RES
1 *879:X *377:4 9.24915 
2 *377:4 *603:A 24.2687 
3 *377:4 *377:21 6.29355 
4 *377:21 *377:27 9.14105 
5 *377:27 *665:C 13.7491 
6 *377:27 *606:A2 32.6459 
7 *377:21 *613:A 9.62893 
*END

*D_NET *378 0.00458041
*CONN
*I *665:D I *D sky130_fd_sc_hd__nor4_4
*I *627:A0 I *D sky130_fd_sc_hd__mux2i_1
*I *517:B I *D sky130_fd_sc_hd__xor2_1
*I *602:B_N I *D sky130_fd_sc_hd__nor2b_1
*I *880:X O *D sky130_fd_sc_hd__buf_4
*CAP
1 *665:D 0.000411452
2 *627:A0 0
3 *517:B 0
4 *602:B_N 2.34045e-05
5 *880:X 7.52263e-05
6 *378:32 0.00046699
7 *378:23 0.000264396
8 *378:10 0.000307489
9 *665:D *381:44 0.000608446
10 *665:D *397:20 3.32644e-05
11 *665:D *425:102 4.44312e-05
12 *665:D *425:111 1.50924e-05
13 *517:A *378:23 1.43439e-05
14 *517:A *378:32 1.02267e-05
15 *522:D *665:D 0.000297965
16 *605:B1 *378:23 3.98648e-06
17 *615:A *665:D 0.000106954
18 *36:8 *378:23 6.27782e-05
19 *36:8 *378:32 6.27332e-05
20 *57:12 *378:10 6.34773e-05
21 *112:10 *378:23 3.16131e-05
22 *115:24 *378:23 0.00025718
23 *156:16 *378:10 0.00013832
24 *183:25 *665:D 0.000112361
25 *183:25 *378:23 4.51244e-06
26 *183:25 *378:32 0.000210531
27 *183:40 *378:23 8.51393e-05
28 *200:16 *665:D 4.24488e-05
29 *231:14 *602:B_N 5.98993e-05
30 *231:14 *665:D 1.80042e-05
31 *231:14 *378:23 0.000733643
32 *231:14 *378:32 1.4106e-05
*RES
1 *880:X *378:10 20.9116 
2 *378:10 *602:B_N 10.2378 
3 *378:10 *378:23 10.8992 
4 *378:23 *517:B 9.24915 
5 *378:23 *378:32 2.96592 
6 *378:32 *627:A0 9.24915 
7 *378:32 *665:D 34.5911 
*END

*D_NET *381 0.0099972
*CONN
*I *666:A I *D sky130_fd_sc_hd__nor4_4
*I *464:B I *D sky130_fd_sc_hd__xor2_1
*I *636:A0 I *D sky130_fd_sc_hd__mux2i_1
*I *883:X O *D sky130_fd_sc_hd__buf_6
*CAP
1 *666:A 0.00127034
2 *464:B 0
3 *636:A0 0.000193154
4 *883:X 1.41955e-05
5 *381:44 0.00238436
6 *381:16 0.000720629
7 *381:8 0.00165569
8 *636:A0 *416:91 0.000303851
9 *666:A *666:B 1.49001e-05
10 *666:A *389:20 0.00020468
11 *666:A *452:8 0
12 *381:44 *397:20 5.92192e-05
13 *381:44 *408:91 7.04109e-05
14 *381:44 *408:107 0
15 *381:44 *415:40 0
16 *381:44 *415:53 0
17 *464:A *636:A0 0.000110458
18 *477:A *636:A0 2.08274e-05
19 *477:A *381:16 4.61271e-05
20 *527:B *381:16 7.45315e-05
21 *527:B *381:44 5.46384e-06
22 *603:A *666:A 1.57593e-05
23 *627:A1 *381:44 0.000158651
24 *629:A1 *381:44 0.000139037
25 *629:A2 *381:44 0.000200433
26 *638:A2 *636:A0 0.00025233
27 *665:D *381:44 0.000608446
28 *695:D *381:44 0.000158373
29 *854:A *666:A 7.92757e-06
30 *879:A *666:A 2.54243e-05
31 *883:A *381:8 6.27718e-05
32 *47:18 *381:8 2.58616e-05
33 *121:8 *666:A 8.4101e-05
34 *180:23 *636:A0 0.000179671
35 *200:16 *666:A 0.000364356
36 *200:20 *666:A 0.000133896
37 *351:238 *381:16 0
38 *351:238 *381:44 0
39 *354:185 *636:A0 3.00174e-06
40 *354:198 *636:A0 6.84397e-05
41 *354:198 *381:16 0
42 *354:198 *381:44 7.26606e-05
43 *380:14 *636:A0 0.000164843
44 *380:14 *381:16 0.000122378
*RES
1 *883:X *381:8 14.4725 
2 *381:8 *381:16 16.2326 
3 *381:16 *636:A0 27.0712 
4 *381:16 *464:B 9.24915 
5 *381:8 *381:44 36.7187 
6 *381:44 *666:A 30.2276 
*END

*D_NET *383 0.00053396
*CONN
*I *663:D I *D sky130_fd_sc_hd__nor4_4
*I *885:X O *D sky130_fd_sc_hd__buf_4
*CAP
1 *663:D 0.000168447
2 *885:X 0.000168447
3 *663:D *410:29 2.58616e-05
4 *663:B *663:D 6.27718e-05
5 *885:A *663:D 4.89251e-05
6 *45:10 *663:D 5.65046e-05
7 *382:18 *663:D 3.00174e-06
*RES
1 *885:X *663:D 32.1622 
*END

*D_NET *252 0.000195735
*CONN
*I *610:A I *D sky130_fd_sc_hd__nand2_1
*I *800:X O *D sky130_fd_sc_hd__clkdlybuf4s50_1
*CAP
1 *610:A 9.78674e-05
2 *800:X 9.78674e-05
3 *610:A *683:DE 0
4 *610:A *420:69 0
5 *683:D *610:A 0
*RES
1 *800:X *610:A 29.7455 
*END

*D_NET *384 0.0036672
*CONN
*I *523:A I *D sky130_fd_sc_hd__inv_1
*I *663:A I *D sky130_fd_sc_hd__nor4_4
*I *481:B I *D sky130_fd_sc_hd__xnor2_1
*I *886:X O *D sky130_fd_sc_hd__buf_4
*CAP
1 *523:A 0.000156356
2 *663:A 0.000442698
3 *481:B 0
4 *886:X 0.000211971
5 *384:6 0.000811025
6 *523:A *413:56 3.76702e-05
7 *663:A *480:A 0.000146507
8 *663:A *485:C 3.6892e-05
9 *472:A_N *384:6 0.000261135
10 *472:B *384:6 0.000174228
11 *473:B1 *384:6 4.82966e-05
12 *481:A *384:6 4.89251e-05
13 *485:A *663:A 0
14 *524:A1 *384:6 4.80359e-05
15 *13:14 *384:6 0.000320489
16 *195:27 *384:6 6.27718e-05
17 *275:12 *523:A 8.97877e-05
18 *275:12 *663:A 0.000728994
19 *379:10 *523:A 4.14221e-05
*RES
1 *886:X *384:6 18.2916 
2 *384:6 *481:B 9.24915 
3 *384:6 *663:A 33.1256 
4 *384:6 *523:A 23.2311 
*END

*D_NET *385 0.00149679
*CONN
*I *465:A_N I *D sky130_fd_sc_hd__and2b_2
*I *646:A0 I *D sky130_fd_sc_hd__mux2i_1
*I *967:A I *D sky130_fd_sc_hd__buf_6
*I *887:X O *D sky130_fd_sc_hd__buf_6
*CAP
1 *465:A_N 9.62783e-05
2 *646:A0 9.34539e-05
3 *967:A 0
4 *887:X 3.59406e-05
5 *385:13 0.000206707
6 *385:6 5.29153e-05
7 *465:A_N *413:56 0.000145706
8 *465:A_N *462:24 0.000117376
9 *385:6 *413:56 6.55312e-05
10 *385:13 *413:56 1.65872e-05
11 *826:A *646:A0 1.37421e-05
12 *887:A *465:A_N 6.08467e-05
13 *887:A *385:6 0.000159032
14 *887:A *385:13 6.08467e-05
15 *194:10 *646:A0 0.000139684
16 *277:22 *465:A_N 1.65872e-05
17 *277:22 *646:A0 1.15781e-05
18 *351:69 *646:A0 0.000203978
*RES
1 *887:X *385:6 11.0817 
2 *385:6 *967:A 9.24915 
3 *385:6 *385:13 0.723396 
4 *385:13 *646:A0 22.1574 
5 *385:13 *465:A_N 13.3002 
*END

*D_NET *386 0.00227295
*CONN
*I *649:A0 I *D sky130_fd_sc_hd__mux2i_1
*I *487:B I *D sky130_fd_sc_hd__xnor2_2
*I *888:X O *D sky130_fd_sc_hd__buf_6
*CAP
1 *649:A0 0.00043492
2 *487:B 0.000608329
3 *888:X 0.000173409
4 *487:B *888:A 6.27718e-05
5 *649:A0 *706:DE 7.80572e-05
6 *649:A0 *413:37 1.94224e-05
7 *649:A0 *416:8 6.00843e-05
8 *649:A0 *416:12 0.00012659
9 *483:A2 *487:B 0.000198686
10 *483:A2 *649:A0 4.66492e-05
11 *488:A *649:A0 0.000163478
12 *488:B *487:B 0.000212762
13 *276:10 *649:A0 2.69499e-05
14 *373:6 *649:A0 6.08467e-05
*RES
1 *888:X *487:B 24.7918 
2 *487:B *649:A0 39.9637 
*END

*D_NET *387 0.00209526
*CONN
*I *664:B I *D sky130_fd_sc_hd__nor4_4
*I *557:B I *D sky130_fd_sc_hd__xor2_1
*I *889:X O *D sky130_fd_sc_hd__buf_4
*CAP
1 *664:B 0.000361502
2 *557:B 0.000235565
3 *889:X 0.000597067
4 *664:B *462:24 6.50586e-05
5 *466:B *664:B 0
6 *677:A1 *664:B 5.04829e-06
7 *6:10 *664:B 0
8 *9:8 *664:B 6.08467e-05
9 *158:24 *557:B 0.0001578
10 *158:24 *664:B 2.77625e-06
11 *192:6 *557:B 8.75663e-05
12 *354:47 *664:B 0.000522031
*RES
1 *889:X *557:B 34.6271 
2 *889:X *664:B 38.2516 
*END

*D_NET *388 0.00323332
*CONN
*I *572:B I *D sky130_fd_sc_hd__nor3_1
*I *576:B I *D sky130_fd_sc_hd__nand2_1
*I *564:A I *D sky130_fd_sc_hd__inv_1
*I *570:D1 I *D sky130_fd_sc_hd__o2111ai_1
*I *890:X O *D sky130_fd_sc_hd__buf_4
*CAP
1 *572:B 8.71262e-05
2 *576:B 6.65619e-06
3 *564:A 0.000129341
4 *570:D1 2.5801e-05
5 *890:X 7.57158e-05
6 *388:31 0.000223357
7 *388:16 0.000561235
8 *388:10 0.000610916
9 *564:A *569:D 6.08467e-05
10 *564:A *404:20 1.09551e-05
11 *572:B *408:22 0
12 *388:31 *404:20 3.30786e-05
13 *542:A *388:16 2.23108e-05
14 *542:B *388:10 2.09695e-05
15 *542:B *388:16 8.41174e-05
16 *569:B *564:A 0.000102925
17 *578:A2 *388:16 1.44467e-05
18 *578:A2 *388:31 1.87269e-05
19 *578:B1 *570:D1 2.65831e-05
20 *578:D1 *570:D1 1.27202e-05
21 *578:D1 *572:B 8.62625e-06
22 *580:A *564:A 6.60539e-05
23 *580:B *564:A 0.000503333
24 *580:B *576:B 1.49644e-06
25 *581:A2 *564:A 0
26 *581:B1 *564:A 0
27 *862:A *388:16 8.43313e-06
28 *81:8 *570:D1 0.000113968
29 *84:8 *572:B 1.72464e-05
30 *84:37 *564:A 0.000135086
31 *84:37 *388:31 0.000122714
32 *175:17 *388:16 5.47736e-05
33 *175:17 *388:31 4.55535e-05
34 *191:33 *388:10 2.8212e-05
*RES
1 *890:X *388:10 11.6846 
2 *388:10 *388:16 12.3227 
3 *388:16 *570:D1 15.0271 
4 *388:16 *388:31 7.73589 
5 *388:31 *564:A 16.5374 
6 *388:31 *576:B 9.45411 
7 *388:10 *572:B 20.0811 
*END

*D_NET *382 0.00247411
*CONN
*I *663:C I *D sky130_fd_sc_hd__nor4_4
*I *884:X O *D sky130_fd_sc_hd__buf_4
*CAP
1 *663:C 0
2 *884:X 0.000871897
3 *382:18 0.000871897
4 *382:18 *663:D 3.00174e-06
5 *382:18 *688:CLK 6.27718e-05
6 *382:18 *410:29 4.38909e-05
7 *539:A2 *382:18 0.000104731
8 *539:A3 *382:18 0.000131875
9 *600:A *382:18 0
10 *663:B *382:18 0.00016195
11 *880:A *382:18 6.27718e-05
12 *57:12 *382:18 0
13 *156:16 *382:18 0
14 *157:14 *382:18 0.000159319
*RES
1 *884:X *382:18 41.6616 
2 *382:18 *663:C 9.24915 
*END

*D_NET *390 0.00470646
*CONN
*I *585:A_N I *D sky130_fd_sc_hd__nand3b_1
*I *584:B1_N I *D sky130_fd_sc_hd__a21bo_1
*I *574:A_N I *D sky130_fd_sc_hd__nand2b_1
*I *892:X O *D sky130_fd_sc_hd__buf_4
*CAP
1 *585:A_N 0.000129946
2 *584:B1_N 9.12258e-05
3 *574:A_N 0.000119668
4 *892:X 0.000165895
5 *390:29 0.00134321
6 *390:12 0.0014076
7 *585:A_N *585:B 1.41761e-05
8 *585:A_N *418:10 1.82832e-05
9 *546:B_N *574:A_N 0
10 *546:B_N *390:12 6.50586e-05
11 *574:B *574:A_N 9.34759e-05
12 *574:B *390:12 2.95757e-05
13 *583:A *390:29 0.000375093
14 *583:B *574:A_N 0
15 *583:B *390:12 0
16 *585:C *585:A_N 0.000182869
17 *585:C *390:29 1.31657e-05
18 *587:A2 *390:29 0.000169041
19 *587:A3 *390:29 4.33655e-05
20 *99:10 *390:29 0.000225104
21 *174:23 *390:12 3.31882e-05
22 *376:16 *390:12 0.000186528
*RES
1 *892:X *390:12 18.9595 
2 *390:12 *574:A_N 16.9002 
3 *390:12 *390:29 22.9707 
4 *390:29 *584:B1_N 10.5271 
5 *390:29 *585:A_N 22.9879 
*END

*D_NET *389 0.00371593
*CONN
*I *666:D I *D sky130_fd_sc_hd__nor4_4
*I *891:X O *D sky130_fd_sc_hd__buf_4
*CAP
1 *666:D 0
2 *891:X 0.00130796
3 *389:20 0.00130796
4 *389:20 *538:B 2.47163e-05
5 *389:20 *666:B 3.14978e-05
6 *389:20 *666:C 0.000167076
7 *389:20 *391:37 6.72821e-05
8 *389:20 *412:64 0
9 *389:20 *425:12 2.47295e-05
10 *389:20 *425:33 0.000112768
11 *534:C *389:20 0
12 *553:B1 *389:20 2.99287e-05
13 *554:A2 *389:20 0.000306063
14 *666:A *389:20 0.00020468
15 *908:A *389:20 6.94808e-05
16 *172:20 *389:20 6.17949e-05
17 *200:20 *389:20 0
*RES
1 *891:X *389:20 48.0707 
2 *389:20 *666:D 9.24915 
*END

*D_NET *392 0.00137595
*CONN
*I *591:A0 I *D sky130_fd_sc_hd__mux2i_1
*I *543:B_N I *D sky130_fd_sc_hd__nor2b_1
*I *894:X O *D sky130_fd_sc_hd__buf_4
*CAP
1 *591:A0 0.000216043
2 *543:B_N 0.000101775
3 *894:X 0
4 *392:4 0.000317818
5 *543:B_N *424:33 7.93204e-05
6 *591:A0 *891:A 0
7 *591:A0 *414:57 7.48633e-05
8 *591:A0 *424:33 5.00956e-05
9 *544:A_N *591:A0 1.06486e-05
10 *554:A2 *543:B_N 0.000354455
11 *594:A2 *591:A0 3.14978e-05
12 *65:18 *543:B_N 0
13 *73:14 *543:B_N 2.41274e-06
14 *73:14 *591:A0 0
15 *272:12 *591:A0 2.65667e-05
16 *391:37 *543:B_N 0.000110458
*RES
1 *894:X *392:4 9.24915 
2 *392:4 *543:B_N 13.8789 
3 *392:4 *591:A0 24.4785 
*END

*D_NET *391 0.00573866
*CONN
*I *553:A1 I *D sky130_fd_sc_hd__a21oi_1
*I *894:A I *D sky130_fd_sc_hd__buf_4
*I *544:A_N I *D sky130_fd_sc_hd__nand2b_1
*I *666:B I *D sky130_fd_sc_hd__nor4_4
*I *893:X O *D sky130_fd_sc_hd__buf_4
*CAP
1 *553:A1 0
2 *894:A 0
3 *544:A_N 0.000166975
4 *666:B 0.000563503
5 *893:X 8.89266e-05
6 *391:37 0.00084262
7 *391:31 0.000998767
8 *391:10 0.000975551
9 *544:A_N *543:A 1.09824e-05
10 *544:A_N *591:A0 1.06486e-05
11 *544:A_N *412:94 5.39635e-06
12 *544:A_N *424:33 4.12994e-05
13 *666:B *412:64 0.000106567
14 *666:B *412:94 2.60879e-06
15 *666:B *425:33 0
16 *666:B *452:8 2.65831e-05
17 *666:B *463:12 8.62625e-06
18 *666:B *463:33 0.000623775
19 *391:10 *463:33 0.000107943
20 *391:37 *543:B_N 0.000110458
21 *391:37 *891:A 4.31703e-05
22 *391:37 *424:33 0.000160617
23 *553:A2 *391:31 0.000261004
24 *553:B1 *391:37 6.3657e-05
25 *554:A2 *391:37 8.96637e-05
26 *666:A *666:B 1.49001e-05
27 *908:A *391:31 7.54269e-06
28 *908:A *391:37 2.41274e-06
29 *172:10 *391:10 4.18989e-05
30 *172:20 *666:B 5.56367e-05
31 *172:20 *391:10 9.75356e-05
32 *172:20 *391:31 4.97617e-05
33 *189:14 *391:10 6.08467e-05
34 *389:20 *666:B 3.14978e-05
35 *389:20 *391:37 6.72821e-05
*RES
1 *893:X *391:10 17.135 
2 *391:10 *666:B 31.6184 
3 *391:10 *391:31 9.66022 
4 *391:31 *391:37 12.4183 
5 *391:37 *544:A_N 22.1574 
6 *391:37 *894:A 9.24915 
7 *391:31 *553:A1 9.24915 
*END

*D_NET *235 0.00114355
*CONN
*I *502:B I *D sky130_fd_sc_hd__nand2_2
*I *589:X O *D sky130_fd_sc_hd__clkdlybuf4s50_1
*CAP
1 *502:B 0.000177741
2 *589:X 0.000177741
3 *502:B *502:A 2.10488e-05
4 *502:B *421:8 0
5 *503:B1 *502:B 7.34948e-06
6 *187:12 *502:B 0.000759667
*RES
1 *589:X *502:B 27.0103 
*END

*D_NET *253 0.000669856
*CONN
*I *597:A I *D sky130_fd_sc_hd__nand2_1
*I *801:X O *D sky130_fd_sc_hd__clkdlybuf4s50_1
*CAP
1 *597:A 0.000172036
2 *801:X 0.000172036
3 *597:A *683:CLK 4.82966e-05
4 *597:A *801:A 0.000277488
*RES
1 *801:X *597:A 23.6826 
*END

*D_NET *393 0.00366542
*CONN
*I *666:C I *D sky130_fd_sc_hd__nor4_4
*I *561:C I *D sky130_fd_sc_hd__maj3_2
*I *540:B I *D sky130_fd_sc_hd__xnor2_1
*I *895:X O *D sky130_fd_sc_hd__buf_4
*CAP
1 *666:C 0.000510392
2 *561:C 0.000140876
3 *540:B 0
4 *895:X 0
5 *393:14 0.000606643
6 *393:4 0.000976159
7 *561:C *700:CLK 0.000238971
8 *666:C *412:64 0
9 *534:C *666:C 5.93657e-05
10 *561:B *561:C 5.20193e-05
11 *561:B *393:14 8.85814e-05
12 *562:A2 *561:C 1.0759e-05
13 *895:A *666:C 6.92705e-05
14 *895:A *393:14 0.000115934
15 *79:6 *561:C 0.00025527
16 *86:40 *561:C 0.0001255
17 *86:40 *393:14 0.000203833
18 *157:14 *666:C 4.47713e-05
19 *389:20 *666:C 0.000167076
*RES
1 *895:X *393:4 9.24915 
2 *393:4 *393:14 17.2284 
3 *393:14 *540:B 13.7491 
4 *393:14 *561:C 19.9322 
5 *393:4 *666:C 31.508 
*END

*D_NET *394 0.00537767
*CONN
*I *665:A I *D sky130_fd_sc_hd__nor4_4
*I *538:B I *D sky130_fd_sc_hd__maj3_1
*I *609:A I *D sky130_fd_sc_hd__xor2_1
*I *896:X O *D sky130_fd_sc_hd__buf_6
*CAP
1 *665:A 0.000197427
2 *538:B 0.000358407
3 *609:A 0.000166858
4 *896:X 8.25279e-05
5 *394:33 0.00143243
6 *394:6 0.00112598
7 *538:B *425:102 9.68443e-05
8 *665:A *425:102 4.43331e-05
9 *394:33 *699:DE 0
10 *394:33 *712:DE 0
11 *394:33 *397:20 5.36352e-05
12 *394:33 *415:61 0.000383956
13 *505:A *538:B 4.11692e-05
14 *505:A *394:33 7.93204e-05
15 *521:B *394:33 3.34802e-05
16 *522:D *394:33 5.54743e-05
17 *535:B *538:B 0.000205681
18 *537:B1 *538:B 0.000111352
19 *606:A3 *394:33 6.97257e-05
20 *609:B *609:A 0.000168334
21 *609:B *394:33 0.000144375
22 *713:D *609:A 2.58616e-05
23 *852:A *394:33 1.00766e-05
24 *857:A *665:A 4.9e-05
25 *896:A *394:33 5.18794e-05
26 *899:A *394:33 0.000153578
27 *40:10 *394:33 6.88241e-05
28 *185:14 *394:33 0
29 *351:192 *609:A 1.72772e-05
30 *351:192 *394:6 0.00011813
31 *355:12 *665:A 7.0179e-06
32 *389:20 *538:B 2.47163e-05
*RES
1 *896:X *394:6 12.191 
2 *394:6 *609:A 23.0201 
3 *394:6 *394:33 31.0443 
4 *394:33 *538:B 28.2903 
5 *394:33 *665:A 22.1574 
*END

*D_NET *395 0.00597332
*CONN
*I *664:C I *D sky130_fd_sc_hd__nor4_4
*I *653:B I *D sky130_fd_sc_hd__xor2_1
*I *489:A I *D sky130_fd_sc_hd__xor2_1
*I *897:X O *D sky130_fd_sc_hd__buf_4
*CAP
1 *664:C 0.00157532
2 *653:B 0
3 *489:A 0.000135563
4 *897:X 3.6352e-05
5 *395:12 0.000489432
6 *395:6 0.00196554
7 *489:A *489:B 6.31605e-05
8 *664:C *413:35 2.90033e-05
9 *664:C *413:56 0.00123416
10 *664:C *416:52 2.07353e-05
11 *395:12 *489:B 0
12 *395:12 *413:35 1.07378e-05
13 *395:12 *447:19 0
14 *467:A *395:12 6.84737e-05
15 *483:B1 *664:C 8.96613e-05
16 *488:A *664:C 1.1957e-05
17 *654:A *489:A 3.67528e-06
18 *818:A *489:A 0
19 *164:12 *664:C 0.000188496
20 *170:10 *395:12 4.86366e-05
21 *186:6 *395:12 2.41274e-06
*RES
1 *897:X *395:6 10.2378 
2 *395:6 *395:12 12.3171 
3 *395:12 *489:A 17.2421 
4 *395:12 *653:B 13.7491 
5 *395:6 *664:C 47.5537 
*END

*D_NET *396 0.000344649
*CONN
*I *537:A1 I *D sky130_fd_sc_hd__a21oi_1
*I *898:X O *D sky130_fd_sc_hd__buf_4
*CAP
1 *537:A1 9.13346e-05
2 *898:X 9.13346e-05
3 *898:A *537:A1 6.08467e-05
4 *375:10 *537:A1 0.000101133
*RES
1 *898:X *537:A1 30.0537 
*END

*D_NET *397 0.00189875
*CONN
*I *615:C I *D sky130_fd_sc_hd__maj3_2
*I *899:X O *D sky130_fd_sc_hd__buf_4
*CAP
1 *615:C 0
2 *899:X 0.000617782
3 *397:20 0.000617782
4 *397:20 *712:DE 7.50698e-05
5 *507:A1 *397:20 1.85244e-05
6 *522:D *397:20 1.57723e-05
7 *606:A2 *397:20 4.81913e-05
8 *617:A1 *397:20 2.65667e-05
9 *665:D *397:20 3.32644e-05
10 *712:D *397:20 9.43419e-05
11 *31:35 *397:20 1.22085e-05
12 *40:10 *397:20 0.00011213
13 *350:24 *397:20 0.000114261
14 *381:44 *397:20 5.92192e-05
15 *394:33 *397:20 5.36352e-05
*RES
1 *899:X *397:20 43.1593 
2 *397:20 *615:C 9.24915 
*END

*D_NET *398 0.00120403
*CONN
*I *631:A I *D sky130_fd_sc_hd__xnor2_1
*I *509:A0 I *D sky130_fd_sc_hd__mux2_4
*I *900:X O *D sky130_fd_sc_hd__buf_4
*CAP
1 *631:A 0
2 *509:A0 0.00013891
3 *900:X 9.38046e-05
4 *398:10 0.000232715
5 *509:A0 *408:107 4.86213e-05
6 *398:10 *408:107 9.40659e-05
7 *629:B1 *509:A0 5.42307e-05
8 *629:B1 *398:10 0.000193905
9 *633:A0 *509:A0 3.25494e-05
10 *182:14 *398:10 6.64392e-05
11 *198:14 *509:A0 0.000110458
12 *198:78 *509:A0 0.000138334
*RES
1 *900:X *398:10 13.4931 
2 *398:10 *509:A0 23.0201 
3 *398:10 *631:A 9.24915 
*END

*D_NET *380 0.00637474
*CONN
*I *510:A0 I *D sky130_fd_sc_hd__mux2_4
*I *464:A I *D sky130_fd_sc_hd__xor2_1
*I *526:A_N I *D sky130_fd_sc_hd__nand4b_1
*I *882:X O *D sky130_fd_sc_hd__buf_4
*CAP
1 *510:A0 1.81917e-05
2 *464:A 6.71031e-05
3 *526:A_N 0
4 *882:X 0.00013298
5 *380:34 0.00119087
6 *380:14 0.00179412
7 *380:12 0.000687314
8 *464:A *636:A0 0.000110458
9 *380:12 *710:DE 0.00015324
10 *380:12 *408:107 0.00015324
11 *380:14 *636:A0 0.000164843
12 *380:14 *847:A 0.000199115
13 *380:14 *381:16 0.000122378
14 *380:34 *410:39 0.000212506
15 *474:B_N *380:34 2.16355e-05
16 *477:A *464:A 0.000157107
17 *477:A *380:14 1.4106e-05
18 *477:A *380:34 1.98846e-05
19 *477:B *380:34 0.000221185
20 *510:A1 *510:A0 1.09551e-05
21 *510:A1 *380:12 0.000162583
22 *524:A1 *380:34 4.17096e-05
23 *524:A2 *380:34 7.16754e-05
24 *524:B2 *380:34 0.000527877
25 *526:B *380:34 0
26 *526:C *380:34 1.64789e-05
27 *526:D *380:34 1.21697e-05
28 *876:A *380:34 1.9547e-05
29 *10:8 *380:34 0
30 *155:12 *380:34 7.14746e-05
*RES
1 *882:X *380:12 23.2989 
2 *380:12 *380:14 13.4793 
3 *380:14 *380:34 40.9035 
4 *380:34 *526:A_N 9.24915 
5 *380:14 *464:A 12.0704 
6 *380:12 *510:A0 9.82786 
*END

*D_NET *399 0.0012485
*CONN
*I *511:A0 I *D sky130_fd_sc_hd__mux2_4
*I *901:X O *D sky130_fd_sc_hd__buf_4
*CAP
1 *511:A0 0.000496684
2 *901:X 0.000496684
3 *511:A0 *511:S 2.91008e-06
4 *511:A0 *512:S 3.30814e-05
5 *511:A0 *448:12 1.77357e-05
6 *511:A1 *511:A0 2.57847e-05
7 *641:A1 *511:A0 3.01683e-06
8 *691:D *511:A0 0
9 *708:D *511:A0 0.000160617
10 *901:A *511:A0 1.19856e-05
*RES
1 *901:X *511:A0 26.8897 
*END

*D_NET *400 0.00175604
*CONN
*I *512:A0 I *D sky130_fd_sc_hd__mux2_4
*I *902:X O *D sky130_fd_sc_hd__buf_4
*CAP
1 *512:A0 0.000246915
2 *902:X 0.000246915
3 *512:A0 *410:72 0.000816294
4 *707:D *512:A0 1.61631e-05
5 *11:10 *512:A0 8.95863e-05
6 *179:27 *512:A0 0.000340162
*RES
1 *902:X *512:A0 30.5308 
*END

*D_NET *379 0.0027117
*CONN
*I *524:A1 I *D sky130_fd_sc_hd__o221ai_2
*I *481:A I *D sky130_fd_sc_hd__xnor2_1
*I *881:X O *D sky130_fd_sc_hd__buf_4
*CAP
1 *524:A1 0.000326906
2 *481:A 6.93236e-05
3 *881:X 0.000187963
4 *379:10 0.000584193
5 *481:A *384:6 4.89251e-05
6 *524:A1 *380:34 4.17096e-05
7 *524:A1 *384:6 4.80359e-05
8 *379:10 *523:A 4.14221e-05
9 *472:A_N *524:A1 0.000261135
10 *472:A_N *379:10 0.000338245
11 *472:B *524:A1 7.60584e-05
12 *482:A *524:A1 0.000359298
13 *524:A2 *524:A1 0
14 *524:B2 *524:A1 5.07314e-05
15 *525:A *524:A1 5.41227e-05
16 *11:10 *524:A1 0.000157823
17 *179:40 *379:10 3.20264e-05
18 *195:27 *524:A1 5.46384e-06
19 *278:14 *379:10 2.8322e-05
*RES
1 *881:X *379:10 25.0642 
2 *379:10 *481:A 11.1059 
3 *379:10 *524:A1 30.2594 
*END

*D_NET *254 0.00152061
*CONN
*I *593:A I *D sky130_fd_sc_hd__nand2_1
*I *802:X O *D sky130_fd_sc_hd__clkdlybuf4s50_1
*CAP
1 *593:A 0.000691202
2 *802:X 0.000691202
3 *593:A *802:A 3.14978e-05
4 *593:A *821:A 0
5 *593:A *420:23 0.000106705
6 *497:A1 *593:A 0
7 *573:A *593:A 0
*RES
1 *802:X *593:A 41.5498 
*END

*D_NET *402 0.00244154
*CONN
*I *487:A I *D sky130_fd_sc_hd__xnor2_2
*I *514:A0 I *D sky130_fd_sc_hd__mux2_4
*I *904:X O *D sky130_fd_sc_hd__buf_4
*CAP
1 *487:A 9.62599e-05
2 *514:A0 0.00029647
3 *904:X 7.81479e-05
4 *402:8 0.000470878
5 *487:A *704:DE 2.09356e-05
6 *514:A0 *706:DE 5.84391e-05
7 *514:A0 *413:37 8.72115e-06
8 *514:A0 *453:18 1.04731e-05
9 *402:8 *413:56 0.000459036
10 *402:8 *416:52 0.000150293
11 *488:B *487:A 0.000132802
12 *488:B *514:A0 1.03594e-05
13 *514:A1 *514:A0 2.30636e-05
14 *904:A *402:8 0.000111352
15 *225:18 *514:A0 0.000301947
16 *276:10 *487:A 7.73825e-05
17 *276:10 *514:A0 0.000134976
*RES
1 *904:X *402:8 18.9094 
2 *402:8 *514:A0 22.1506 
3 *402:8 *487:A 17.2421 
*END

*D_NET *403 0.00250796
*CONN
*I *674:A I *D sky130_fd_sc_hd__nand2_2
*I *557:A I *D sky130_fd_sc_hd__xor2_1
*I *678:A0 I *D sky130_fd_sc_hd__mux2_4
*I *905:X O *D sky130_fd_sc_hd__buf_4
*CAP
1 *674:A 0.000107429
2 *557:A 8.20355e-05
3 *678:A0 0.000455942
4 *905:X 0
5 *403:8 0.000667095
6 *403:6 0.000236547
7 *674:A *674:B 3.25117e-05
8 *674:A *414:8 0
9 *678:A0 *678:S 6.55312e-05
10 *678:A0 *411:10 8.36586e-06
11 *678:A0 *411:63 0.000186476
12 *678:A0 *414:8 0
13 *403:8 *414:8 0
14 *567:A *678:A0 0
15 *675:B *674:A 0.00026881
16 *678:A1 *678:A0 6.27718e-05
17 *704:D *678:A0 0.00015244
18 *905:A *674:A 0.000182
19 *340:10 *674:A 0
20 *340:10 *403:8 0
*RES
1 *905:X *403:6 13.7491 
2 *403:6 *403:8 3.07775 
3 *403:8 *678:A0 26.6942 
4 *403:8 *557:A 15.5817 
5 *403:6 *674:A 18.6811 
*END

*D_NET *404 0.00185812
*CONN
*I *569:A I *D sky130_fd_sc_hd__nand4_1
*I *572:A I *D sky130_fd_sc_hd__nor3_1
*I *576:A I *D sky130_fd_sc_hd__nand2_1
*I *906:X O *D sky130_fd_sc_hd__buf_4
*CAP
1 *569:A 0
2 *572:A 0.000316441
3 *576:A 0
4 *906:X 0.000106141
5 *404:20 0.000453871
6 *404:8 0.00024357
7 *572:A *408:22 0
8 *564:A *404:20 1.09551e-05
9 *571:B1 *572:A 0
10 *577:A *572:A 0.000113968
11 *577:C *572:A 0.000167076
12 *577:C *404:20 6.50586e-05
13 *578:C1 *404:8 7.8686e-05
14 *578:C1 *404:20 7.08723e-06
15 *578:D1 *572:A 6.51583e-05
16 *580:B *572:A 1.96574e-05
17 *175:17 *404:8 5.46797e-05
18 *175:17 *404:20 2.71614e-05
19 *354:24 *572:A 4.0752e-05
20 *357:16 *572:A 5.47736e-05
21 *388:31 *404:20 3.30786e-05
*RES
1 *906:X *404:8 17.2421 
2 *404:8 *404:20 7.85395 
3 *404:20 *576:A 9.24915 
4 *404:20 *572:A 27.2346 
5 *404:8 *569:A 13.7491 
*END

*D_NET *376 0.00260735
*CONN
*I *496:A0 I *D sky130_fd_sc_hd__mux2_4
*I *583:A I *D sky130_fd_sc_hd__xor2_2
*I *574:B I *D sky130_fd_sc_hd__nand2b_1
*I *878:X O *D sky130_fd_sc_hd__buf_4
*CAP
1 *496:A0 0.00010793
2 *583:A 9.87598e-05
3 *574:B 6.95994e-05
4 *878:X 2.69903e-05
5 *376:16 0.000460093
6 *376:8 0.000426654
7 *574:B *574:A_N 9.34759e-05
8 *574:B *390:12 2.95757e-05
9 *583:A *390:29 0.000375093
10 *376:8 *424:60 6.27782e-05
11 *376:16 *702:DE 0
12 *376:16 *390:12 0.000186528
13 *575:D1 *574:B 8.89292e-06
14 *702:D *496:A0 4.14221e-05
15 *837:A *574:B 1.04572e-05
16 *878:A *376:16 4.57371e-05
17 *99:10 *583:A 0.000179299
18 *174:23 *376:16 2.19131e-05
19 *356:10 *574:B 0.000144546
20 *356:10 *376:16 0.000217602
*RES
1 *878:X *376:8 14.4725 
2 *376:8 *376:16 9.28211 
3 *376:16 *574:B 16.7613 
4 *376:16 *583:A 18.9335 
5 *376:8 *496:A0 16.8269 
*END

*D_NET *405 0.00337668
*CONN
*I *497:A0 I *D sky130_fd_sc_hd__mux2_4
*I *543:A I *D sky130_fd_sc_hd__nor2b_1
*I *544:B I *D sky130_fd_sc_hd__nand2b_1
*I *907:X O *D sky130_fd_sc_hd__buf_4
*CAP
1 *497:A0 0.000240593
2 *543:A 0.000383145
3 *544:B 2.50365e-05
4 *907:X 1.83875e-05
5 *405:14 0.000764826
6 *405:8 0.000615625
7 *497:A0 *891:A 0.000328427
8 *497:A0 *408:41 2.84892e-05
9 *543:A *412:94 4.89251e-05
10 *543:A *424:8 3.529e-05
11 *544:B *424:8 3.12627e-05
12 *405:14 *891:A 0.000190042
13 *405:14 *424:8 1.88422e-05
14 *405:14 *424:33 0
15 *497:A1 *497:A0 1.59362e-06
16 *544:A_N *543:A 1.09824e-05
17 *591:S *405:8 1.92336e-05
18 *591:S *405:14 0.000127764
19 *835:A *405:14 6.46815e-05
20 *907:A *405:8 0.000122378
21 *63:6 *405:14 1.19705e-05
22 *73:14 *543:A 0.000117901
23 *272:12 *405:8 0.000171288
24 *351:135 *497:A0 0
25 *351:135 *405:14 0
*RES
1 *907:X *405:8 15.5817 
2 *405:8 *405:14 14.8114 
3 *405:14 *544:B 10.1775 
4 *405:14 *543:A 26.3005 
5 *405:8 *497:A0 21.4269 
*END

*D_NET *406 0.00287613
*CONN
*I *498:A I *D sky130_fd_sc_hd__inv_1
*I *540:A I *D sky130_fd_sc_hd__xnor2_1
*I *908:X O *D sky130_fd_sc_hd__buf_4
*CAP
1 *498:A 2.6945e-05
2 *540:A 0.000323307
3 *908:X 0.000403088
4 *406:16 0.000753341
5 *540:A *452:8 2.74378e-05
6 *540:A *452:37 1.48869e-05
7 *406:16 *711:CLK 0.000290091
8 *406:16 *452:8 3.96379e-06
9 *500:A1 *498:A 3.19445e-05
10 *500:A1 *540:A 6.22737e-05
11 *500:A1 *406:16 1.85705e-05
12 *561:A *540:A 6.24083e-05
13 *596:S *406:16 0.000223097
14 *895:A *406:16 0.000172886
15 *908:A *406:16 2.82898e-05
16 *30:16 *540:A 6.64392e-05
17 *30:16 *406:16 2.32865e-05
18 *59:12 *540:A 0.000160617
19 *188:21 *406:16 0.000183252
*RES
1 *908:X *406:16 30.002 
2 *406:16 *540:A 17.7611 
3 *406:16 *498:A 10.2076 
*END

*D_NET *255 0.000407443
*CONN
*I *586:A I *D sky130_fd_sc_hd__nor2_1
*I *803:X O *D sky130_fd_sc_hd__clkdlybuf4s50_1
*CAP
1 *586:A 0.000138656
2 *803:X 0.000138656
3 *586:A *586:B 6.50586e-05
4 *587:B1 *586:A 6.50727e-05
*RES
1 *803:X *586:A 22.0188 
*END

*D_NET *423 0.00231285
*CONN
*I *968:A I *D sky130_fd_sc_hd__buf_8
*I *566:A I *D sky130_fd_sc_hd__nor2_1
*I *910:A I *D sky130_fd_sc_hd__buf_8
*I *925:X O *D sky130_fd_sc_hd__buf_6
*CAP
1 *968:A 0.000381367
2 *566:A 2.3034e-05
3 *910:A 0.000190617
4 *925:X 0
5 *423:23 0.00055234
6 *423:6 0.000338557
7 *910:A *453:10 0.000200251
8 *968:A *703:CLK 3.00829e-05
9 *423:23 *703:CLK 2.58757e-05
10 *658:B *910:A 0
11 *658:B *423:23 0
12 *703:D *968:A 7.07828e-05
13 *703:DE *968:A 9.67296e-05
14 *958:A *910:A 1.2693e-05
15 *958:A *423:23 5.22654e-06
16 *266:23 *423:23 0
17 *408:12 *423:23 0
18 *408:22 *968:A 0.000385297
19 *408:22 *423:23 0
*RES
1 *925:X *423:6 13.7491 
2 *423:6 *910:A 19.49 
3 *423:6 *423:23 7.8859 
4 *423:23 *566:A 9.82786 
5 *423:23 *968:A 29.5304 
*END

*D_NET *409 0.00321996
*CONN
*I *669:B1 I *D sky130_fd_sc_hd__a21oi_1
*I *672:A I *D sky130_fd_sc_hd__nor2b_1
*I *911:X O *D sky130_fd_sc_hd__buf_4
*CAP
1 *669:B1 0
2 *672:A 0.000189866
3 *911:X 0.000521105
4 *409:12 0.000710971
5 *672:A *565:A 0
6 *672:A *668:B1 7.20028e-05
7 *672:A *411:77 0.000112367
8 *672:A *453:79 1.65872e-05
9 *409:12 *660:B1 0.000337772
10 *409:12 *662:A1 0
11 *409:12 *703:CLK 4.46057e-05
12 *409:12 *453:79 0.000209636
13 req_rdy *409:12 2.28129e-05
14 *495:A *409:12 0
15 *660:B2 *409:12 0.000303749
16 *661:A *409:12 0.000253826
17 *668:A2 *672:A 9.81288e-06
18 *669:A1 *672:A 0.00026012
19 *672:B_N *672:A 5.79081e-05
20 *834:A *409:12 8.92568e-06
21 *911:A *409:12 8.78962e-05
*RES
1 *911:X *409:12 37.4174 
2 *409:12 *672:A 16.1214 
3 *409:12 *669:B1 9.24915 
*END

*D_NET *427 0.00444319
*CONN
*I *920:A I *D sky130_fd_sc_hd__buf_4
*I *580:C I *D sky130_fd_sc_hd__nor3_1
*I *569:D I *D sky130_fd_sc_hd__nand4_1
*I *932:X O *D sky130_fd_sc_hd__buf_6
*CAP
1 *920:A 0.000417352
2 *580:C 0.000116285
3 *569:D 7.18156e-05
4 *932:X 0.000385827
5 *427:31 0.000846375
6 *427:14 0.00077038
7 *548:A *427:14 5.30806e-05
8 *548:B *427:14 0.000111941
9 *562:B1 *427:14 0.000252337
10 *564:A *569:D 6.08467e-05
11 *569:B *569:D 6.36477e-05
12 *581:C1 *580:C 5.22654e-06
13 *686:DE *920:A 3.82252e-05
14 *848:A *920:A 0.000307799
15 *848:A *427:14 1.36815e-05
16 *86:48 *427:14 0.000121391
17 *175:6 *427:14 0.000111802
18 *175:17 *427:14 0.000308582
19 *351:24 *569:D 0.000129489
20 *351:24 *427:14 5.14448e-05
21 *351:24 *427:31 0.000156736
22 *418:10 *920:A 4.89251e-05
23 *424:68 *580:C 0
*RES
1 *932:X *427:14 26.3356 
2 *427:14 *569:D 17.135 
3 *427:14 *427:31 14.1602 
4 *427:31 *580:C 16.4116 
5 *427:31 *920:A 25.0602 
*END

*D_NET *428 0.000936821
*CONN
*I *575:C1 I *D sky130_fd_sc_hd__o2111ai_2
*I *933:X O *D sky130_fd_sc_hd__buf_4
*CAP
1 *575:C1 0.00031877
2 *933:X 0.00031877
3 *575:A2 *575:C1 2.37827e-05
4 *575:B1 *575:C1 0.000268947
5 *575:D1 *575:C1 6.55197e-06
*RES
1 *933:X *575:C1 26.3351 
*END

*D_NET *430 0.00130863
*CONN
*I *595:B I *D sky130_fd_sc_hd__xnor2_4
*I *935:X O *D sky130_fd_sc_hd__buf_4
*CAP
1 *595:B 0.000267263
2 *935:X 0.000267263
3 *935:A *595:B 0.000146823
4 *343:8 *595:B 5.23435e-05
5 *351:135 *595:B 0.000509581
6 *412:13 *595:B 6.53576e-05
*RES
1 *935:X *595:B 37.5282 
*END

*D_NET *431 0.00231369
*CONN
*I *513:A0 I *D sky130_fd_sc_hd__mux2_4
*I *936:X O *D sky130_fd_sc_hd__buf_4
*CAP
1 *513:A0 0.000925966
2 *936:X 0.000925966
3 *513:A0 *953:A 9.35753e-06
4 *513:A0 *453:37 3.24105e-05
5 *648:A1 *513:A0 4.7216e-05
6 *706:D *513:A0 8.6594e-05
7 *936:A *513:A0 6.27718e-05
8 *177:12 *513:A0 0
9 *354:47 *513:A0 1.46079e-05
10 *416:52 *513:A0 0.000158368
11 *416:72 *513:A0 5.04364e-05
*RES
1 *936:X *513:A0 47.3776 
*END

*D_NET *432 0.00104471
*CONN
*I *919:A I *D sky130_fd_sc_hd__buf_6
*I *937:X O *D sky130_fd_sc_hd__buf_6
*CAP
1 *919:A 0.000304107
2 *937:X 0.000304107
3 *470:A1 *919:A 0.000217937
4 *915:A *919:A 0.000103161
5 *918:A *919:A 6.50727e-05
6 *86:16 *919:A 5.03285e-05
*RES
1 *937:X *919:A 27.5649 
*END

*D_NET *256 0.00123231
*CONN
*I *513:A1 I *D sky130_fd_sc_hd__mux2_4
*I *804:X O *D sky130_fd_sc_hd__clkdlybuf4s50_1
*CAP
1 *513:A1 0.000485823
2 *804:X 0.000485823
3 *513:A1 resp_msg[1] 0
4 *513:A1 *676:A 0
5 *513:A1 *953:A 0.00011252
6 *513:A1 *354:51 0
7 *177:12 *513:A1 0.000148144
*RES
1 *804:X *513:A1 39.192 
*END

*D_NET *433 0.00294137
*CONN
*I *601:A3 I *D sky130_fd_sc_hd__a31oi_4
*I *599:A I *D sky130_fd_sc_hd__nand2_1
*I *934:A I *D sky130_fd_sc_hd__buf_4
*I *938:X O *D sky130_fd_sc_hd__buf_4
*CAP
1 *601:A3 1.39494e-05
2 *599:A 0
3 *934:A 0.000268072
4 *938:X 2.48787e-05
5 *433:27 0.000293693
6 *433:6 0.000572695
7 *433:27 *625:B 8.00198e-06
8 *530:A1 *433:6 1.65872e-05
9 *530:A1 *433:27 9.34573e-05
10 *530:A2 *433:27 0.000164283
11 *539:A2 *433:6 5.0715e-05
12 *539:A2 *433:27 5.481e-05
13 *539:A3 *934:A 7.58217e-06
14 *600:A *934:A 2.24484e-05
15 *630:A *934:A 7.93929e-05
16 *885:A *934:A 0.000114271
17 *938:A *433:6 6.50586e-05
18 *45:10 *934:A 0.000369283
19 *45:21 *934:A 0.000163982
20 *50:18 *601:A3 0.000116502
21 *182:43 *601:A3 0.000116014
22 *198:41 *934:A 0.000325698
*RES
1 *938:X *433:6 10.5271 
2 *433:6 *934:A 29.6642 
3 *433:6 *433:27 16.544 
4 *433:27 *599:A 9.24915 
5 *433:27 *601:A3 10.5271 
*END

*D_NET *434 0.0017327
*CONN
*I *836:A I *D sky130_fd_sc_hd__buf_4
*I *939:X O *D sky130_fd_sc_hd__buf_4
*CAP
1 *836:A 0.000650944
2 *939:X 0.000650944
3 *607:B *836:A 0.000145602
4 *617:A1 *836:A 5.56461e-05
5 *284:14 *836:A 0.000107496
6 *351:194 *836:A 0.000122068
*RES
1 *939:X *836:A 42.6943 
*END

*D_NET *435 0.00190096
*CONN
*I *833:A I *D sky130_fd_sc_hd__buf_2
*I *940:X O *D sky130_fd_sc_hd__buf_4
*CAP
1 *833:A 0.00056366
2 *940:X 0.00056366
3 *812:A *833:A 6.3684e-05
4 *819:A *833:A 0.000501334
5 *940:A *833:A 0.000160047
6 *284:14 *833:A 4.85806e-05
*RES
1 *940:X *833:A 43.1093 
*END

*D_NET *344 0.00166361
*CONN
*I *588:A I *D sky130_fd_sc_hd__xnor2_2
*I *846:X O *D sky130_fd_sc_hd__buf_6
*CAP
1 *588:A 0.000240312
2 *846:X 0.000240312
3 *588:A *588:B 6.50727e-05
4 *588:A *356:10 6.08467e-05
5 *588:A *408:22 0.000195124
6 *554:B1_N *588:A 3.31733e-05
7 *858:A *588:A 0.000169108
8 *65:18 *588:A 3.61993e-05
9 *190:14 *588:A 0.000623462
*RES
1 *846:X *588:A 37.8153 
*END

*D_NET *436 0.0010587
*CONN
*I *674:B I *D sky130_fd_sc_hd__nand2_2
*I *941:X O *D sky130_fd_sc_hd__buf_6
*CAP
1 *674:B 0.000311533
2 *941:X 0.000311533
3 *558:B *674:B 5.31074e-05
4 *674:A *674:B 3.25117e-05
5 *675:B *674:B 1.62206e-05
6 *905:A *674:B 0.000158306
7 *941:A *674:B 0.000175485
*RES
1 *941:X *674:B 27.5649 
*END

*D_NET *437 0.00142063
*CONN
*I *842:A I *D sky130_fd_sc_hd__buf_6
*I *942:X O *D sky130_fd_sc_hd__buf_6
*CAP
1 *842:A 0.000201703
2 *942:X 0.000201703
3 *568:A *842:A 5.75773e-05
4 *905:A *842:A 2.95757e-05
5 *86:40 *842:A 0.000151418
6 *176:14 *842:A 6.08467e-05
7 *351:52 *842:A 0.000483413
8 *408:81 *842:A 0.000234388
*RES
1 *942:X *842:A 38.7022 
*END

*D_NET *257 0.000974857
*CONN
*I *581:A1 I *D sky130_fd_sc_hd__a211o_1
*I *805:X O *D sky130_fd_sc_hd__clkdlybuf4s50_1
*CAP
1 *581:A1 0.000301049
2 *805:X 0.000301049
3 *581:A1 *581:A2 4.24529e-05
4 *581:A1 *424:68 0.000169642
5 *493:A *581:A1 9.83856e-05
6 *581:B1 *581:A1 1.64789e-05
7 *687:D *581:A1 4.58003e-05
*RES
1 *805:X *581:A1 37.4186 
*END

*D_NET *438 0.000781361
*CONN
*I *844:A I *D sky130_fd_sc_hd__buf_6
*I *943:X O *D sky130_fd_sc_hd__buf_6
*CAP
1 *844:A 0.00020487
2 *943:X 0.00020487
3 *844:A *463:75 0.000154594
4 *620:A *844:A 0.000217028
*RES
1 *943:X *844:A 24.7677 
*END

*D_NET *258 0.00084438
*CONN
*I *676:A I *D sky130_fd_sc_hd__nand2_1
*I *806:X O *D sky130_fd_sc_hd__clkdlybuf4s50_1
*CAP
1 *676:A 0.000257169
2 *806:X 0.000257169
3 *676:A *953:A 9.35753e-06
4 *676:A *354:51 3.12316e-05
5 *676:A *354:57 0.000171273
6 *676:A *354:113 0.00011818
7 *513:A1 *676:A 0
*RES
1 *806:X *676:A 32.6874 
*END

*D_NET *439 0.000767397
*CONN
*I *625:B I *D sky130_fd_sc_hd__nand2_2
*I *944:X O *D sky130_fd_sc_hd__buf_6
*CAP
1 *625:B 0.000197908
2 *944:X 0.000197908
3 *109:10 *625:B 1.07248e-05
4 *109:19 *625:B 0.000352853
5 *156:16 *625:B 0
6 *433:27 *625:B 8.00198e-06
*RES
1 *944:X *625:B 33.8981 
*END

*D_NET *440 0.000587591
*CONN
*I *633:A1 I *D sky130_fd_sc_hd__mux2i_1
*I *945:X O *D sky130_fd_sc_hd__buf_4
*CAP
1 *633:A1 0.000237209
2 *945:X 0.000237209
3 *633:S *633:A1 6.50727e-05
4 *945:A *633:A1 4.81015e-05
*RES
1 *945:X *633:A1 23.6826 
*END

*D_NET *259 0.00161591
*CONN
*I *512:A1 I *D sky130_fd_sc_hd__mux2_4
*I *807:X O *D sky130_fd_sc_hd__clkdlybuf4s50_1
*CAP
1 *512:A1 0.000397988
2 *807:X 0.000397988
3 *512:A1 resp_msg[5] 5.04829e-06
4 *512:A1 *708:DE 5.68225e-06
5 *512:A1 *708:CLK 0.000167002
6 *512:A1 *829:A 0.000391845
7 *512:A1 *354:157 0.000239387
8 *512:A1 *410:49 1.09738e-05
*RES
1 *807:X *512:A1 40.998 
*END

*D_NET *441 0.000635222
*CONN
*I *476:A2 I *D sky130_fd_sc_hd__a21boi_2
*I *946:X O *D sky130_fd_sc_hd__buf_6
*CAP
1 *476:A2 0.000158319
2 *946:X 0.000158319
3 *710:CLK *476:A2 1.3808e-05
4 *883:A *476:A2 6.27718e-05
5 *47:18 *476:A2 6.13051e-05
6 *354:198 *476:A2 6.91252e-05
7 *410:35 *476:A2 4.24488e-05
8 *410:39 *476:A2 6.91252e-05
*RES
1 *946:X *476:A2 32.9632 
*END

*D_NET *260 0.00102311
*CONN
*I *511:A1 I *D sky130_fd_sc_hd__mux2_4
*I *808:X O *D sky130_fd_sc_hd__clkdlybuf4s50_1
*CAP
1 *511:A1 0.000399599
2 *808:X 0.000399599
3 *511:A1 *511:A0 2.57847e-05
4 *511:A1 *708:CLK 3.41758e-05
5 *511:A1 *795:A 0.000138167
6 *511:A1 *448:12 2.57847e-05
7 *645:A1 *511:A1 0
8 *645:B1 *511:A1 0
*RES
1 *808:X *511:A1 36.1782 
*END

*D_NET *261 0.00106271
*CONN
*I *510:A1 I *D sky130_fd_sc_hd__mux2_4
*I *809:X O *D sky130_fd_sc_hd__clkdlybuf4s50_1
*CAP
1 *510:A1 0.000420119
2 *809:X 0.000420119
3 *510:A1 *510:A0 1.09551e-05
4 *510:A1 *380:12 0.000162583
5 *709:D *510:A1 4.89392e-05
*RES
1 *809:X *510:A1 29.2287 
*END

*D_NET *262 0.00118784
*CONN
*I *509:A1 I *D sky130_fd_sc_hd__mux2_4
*I *810:X O *D sky130_fd_sc_hd__clkdlybuf4s50_1
*CAP
1 *509:A1 0.000286882
2 *810:X 0.000286882
3 *509:A1 *810:A 0.000362216
4 *710:D *509:A1 9.28544e-05
5 *198:14 *509:A1 0.00015901
*RES
1 *810:X *509:A1 28.1195 
*END

*D_NET *443 0.00143053
*CONN
*I *891:A I *D sky130_fd_sc_hd__buf_4
*I *948:X O *D sky130_fd_sc_hd__buf_4
*CAP
1 *891:A 0.000395913
2 *948:X 0.000395913
3 *497:A0 *891:A 0.000328427
4 *554:A2 *891:A 4.66889e-05
5 *591:A0 *891:A 0
6 *821:A *891:A 0
7 *391:37 *891:A 4.31703e-05
8 *405:14 *891:A 0.000190042
9 *408:41 *891:A 3.03785e-05
*RES
1 *948:X *891:A 39.9154 
*END

*D_NET *444 0.00274972
*CONN
*I *565:A I *D sky130_fd_sc_hd__inv_1
*I *668:B1 I *D sky130_fd_sc_hd__o21ai_1
*I *949:X O *D sky130_fd_sc_hd__buf_4
*CAP
1 *565:A 2.51621e-05
2 *668:B1 0.000387827
3 *949:X 0.000239386
4 *444:14 0.000652375
5 *444:14 *673:B1_N 6.64392e-05
6 *668:A2 *668:B1 0.000276221
7 *672:A *565:A 0
8 *672:A *668:B1 7.20028e-05
9 *672:B_N *668:B1 4.9e-05
10 *673:A1 *444:14 0.000200794
11 *855:A *444:14 6.08467e-05
12 *83:10 *444:14 0.000105589
13 *158:24 *668:B1 0.00031835
14 *158:24 *444:14 0.000216458
15 *169:10 *444:14 1.36815e-05
16 *411:77 *565:A 1.24946e-05
17 *411:77 *668:B1 1.94257e-05
18 *411:77 *444:14 3.36648e-05
*RES
1 *949:X *444:14 26.1013 
2 *444:14 *668:B1 27.9555 
3 *444:14 *565:A 10.1474 
*END

*D_NET *445 0.00470277
*CONN
*I *931:A I *D sky130_fd_sc_hd__buf_6
*I *925:A I *D sky130_fd_sc_hd__buf_6
*I *924:A I *D sky130_fd_sc_hd__buf_6
*I *950:X O *D sky130_fd_sc_hd__buf_6
*CAP
1 *931:A 0.000586177
2 *925:A 4.84391e-05
3 *924:A 0.000390928
4 *950:X 1.12041e-05
5 *445:10 0.00050262
6 *445:8 0.000660633
7 *924:A *453:10 0
8 *924:A *453:79 0.000205687
9 *490:A *931:A 4.05018e-05
10 *559:B *924:A 0.0002212
11 *559:B *931:A 0.000223619
12 *559:B *445:10 0.00013905
13 *566:B *445:8 6.3657e-05
14 *582:B *931:A 0.000266721
15 *658:B *924:A 0.000105589
16 *658:B *445:10 5.11107e-05
17 *678:S *924:A 4.83874e-05
18 *862:A *931:A 6.24474e-06
19 *915:A *924:A 0.000133626
20 *916:A *924:A 0.000218131
21 *950:A *445:8 6.27782e-05
22 *169:10 *924:A 0.000306281
23 *169:19 *924:A 0.000174175
24 *175:17 *931:A 1.44309e-05
25 *266:23 *931:A 9.90073e-05
26 *266:23 *445:10 7.28994e-06
27 *351:24 *931:A 4.09955e-05
28 *351:52 *925:A 4.58003e-05
29 *426:10 *931:A 2.84892e-05
*RES
1 *950:X *445:8 14.4725 
2 *445:8 *445:10 2.6625 
3 *445:10 *924:A 29.5954 
4 *445:10 *925:A 15.0271 
5 *445:8 *931:A 30.1772 
*END

*D_NET *446 0.00103009
*CONN
*I *660:B1 I *D sky130_fd_sc_hd__a221o_1
*I *951:X O *D sky130_fd_sc_hd__buf_4
*CAP
1 *660:B1 0.000226797
2 *951:X 0.000226797
3 *660:B1 *662:A1 8.92568e-06
4 *660:B1 *449:17 2.95093e-05
5 *834:A *660:B1 8.8567e-05
6 *286:8 *660:B1 0.000111722
7 *409:12 *660:B1 0.000337772
*RES
1 *951:X *660:B1 35.87 
*END

*D_NET *236 0.00101659
*CONN
*I *499:B I *D sky130_fd_sc_hd__nand2_1
*I *579:X O *D sky130_fd_sc_hd__clkdlybuf4s50_1
*CAP
1 *499:B 0.000467061
2 *579:X 0.000467061
3 *499:B *497:A1 0
4 *499:B *420:44 5.46286e-05
5 *579:A *499:B 2.7837e-05
*RES
1 *579:X *499:B 35.321 
*END

*D_NET *263 0.00169256
*CONN
*I *508:A1 I *D sky130_fd_sc_hd__mux2_4
*I *811:X O *D sky130_fd_sc_hd__clkdlybuf4s50_1
*CAP
1 *508:A1 0.000581088
2 *811:X 0.000581088
3 *508:A1 *508:S 6.27782e-05
4 *508:A1 *811:A 6.27782e-05
5 *508:A1 *831:A 8.23171e-06
6 *508:A1 *408:91 6.27718e-05
7 *508:A0 *508:A1 0.000154385
8 *628:A *508:A1 0.000179435
*RES
1 *811:X *508:A1 33.1109 
*END

*D_NET *447 0.00281354
*CONN
*I *652:A I *D sky130_fd_sc_hd__nand2_1
*I *489:B I *D sky130_fd_sc_hd__xor2_1
*I *515:A0 I *D sky130_fd_sc_hd__mux2_4
*I *952:X O *D sky130_fd_sc_hd__buf_6
*CAP
1 *652:A 0
2 *489:B 0.000299191
3 *515:A0 0.000574762
4 *952:X 0
5 *447:19 0.000514145
6 *447:4 0.000789716
7 *447:19 *453:18 1.37421e-05
8 *489:A *489:B 6.31605e-05
9 *514:A1 *447:19 0
10 *515:A1 *515:A0 4.03096e-05
11 *515:S *515:A0 0.000362216
12 *651:A1 *489:B 4.3663e-05
13 *651:A1 *447:19 1.07248e-05
14 *654:B *489:B 3.14978e-05
15 *682:DE *489:B 6.50586e-05
16 *689:D *489:B 0
17 *689:CLK *489:B 2.1558e-06
18 *818:A *489:B 3.20069e-06
19 *395:12 *489:B 0
20 *395:12 *447:19 0
*RES
1 *952:X *447:4 9.24915 
2 *447:4 *515:A0 22.7525 
3 *447:4 *447:19 9.54971 
4 *447:19 *489:B 20.5548 
5 *447:19 *652:A 13.7491 
*END

*D_NET *448 0.00374476
*CONN
*I *512:S I *D sky130_fd_sc_hd__mux2_4
*I *511:S I *D sky130_fd_sc_hd__mux2_4
*I *953:X O *D sky130_fd_sc_hd__buf_12
*CAP
1 *512:S 0.000204249
2 *511:S 3.41537e-05
3 *953:X 0.00118547
4 *448:12 0.00142387
5 *511:A0 *511:S 2.91008e-06
6 *511:A0 *512:S 3.30814e-05
7 *511:A0 *448:12 1.77357e-05
8 *511:A1 *448:12 2.57847e-05
9 *691:D *448:12 0.000217454
10 *691:DE *448:12 9.52024e-05
11 *691:CLK *448:12 2.65831e-05
12 *708:D *512:S 1.00981e-05
13 *708:DE *512:S 0.000179286
14 *829:A *512:S 0.000179286
15 *901:A *511:S 0
16 *901:A *512:S 1.61631e-05
17 *179:10 *448:12 9.34398e-05
*RES
1 *953:X *448:12 30.5652 
2 *448:12 *511:S 10.2378 
3 *448:12 *512:S 24.8233 
*END

*D_NET *449 0.00266064
*CONN
*I *670:A I *D sky130_fd_sc_hd__nand2_1
*I *662:A1 I *D sky130_fd_sc_hd__o21ai_0
*I *660:A1 I *D sky130_fd_sc_hd__a221o_1
*I *954:X O *D sky130_fd_sc_hd__buf_6
*CAP
1 *670:A 0.000194979
2 *662:A1 0.000264234
3 *660:A1 2.51507e-05
4 *954:X 0.000224582
5 *449:17 0.000532164
6 *449:6 0.000322683
7 resp_val *670:A 1.21461e-06
8 *656:A *449:6 3.20544e-05
9 *656:A *449:17 7.28994e-06
10 *660:A2 *660:A1 6.00767e-05
11 *660:A2 *449:6 7.46401e-05
12 *660:B1 *662:A1 8.92568e-06
13 *660:B1 *449:17 2.95093e-05
14 *670:B *662:A1 1.44467e-05
15 *670:B *670:A 0.000224395
16 *670:B *449:17 3.84177e-05
17 *671:A1 *662:A1 0
18 *671:B1 *670:A 1.31657e-05
19 *703:CLK *660:A1 7.66631e-07
20 *703:CLK *449:6 9.93665e-05
21 *834:A *662:A1 0.000221185
22 *954:A *449:6 6.27718e-05
23 *267:8 *660:A1 0.000112361
24 *267:8 *449:6 9.626e-05
25 *409:12 *662:A1 0
26 *426:20 *662:A1 0
*RES
1 *954:X *449:6 16.0732 
2 *449:6 *660:A1 10.5271 
3 *449:6 *449:17 6.74725 
4 *449:17 *662:A1 21.3947 
5 *449:17 *670:A 18.9335 
*END

*D_NET *451 0.00505517
*CONN
*I *502:A I *D sky130_fd_sc_hd__nand2_2
*I *503:A2 I *D sky130_fd_sc_hd__o21ai_1
*I *506:A I *D sky130_fd_sc_hd__nand2_1
*I *507:A2 I *D sky130_fd_sc_hd__o21ai_1
*I *956:X O *D sky130_fd_sc_hd__buf_6
*CAP
1 *502:A 0.000178529
2 *503:A2 8.40333e-05
3 *506:A 9.74787e-05
4 *507:A2 0.000118638
5 *956:X 0.000875697
6 *451:34 0.000262562
7 *451:14 0.000462538
8 *451:10 0.00112212
9 *502:B *502:A 2.10488e-05
10 *503:B1 *502:A 0.000104895
11 *503:B1 *503:A2 5.04829e-06
12 *504:A1 *451:10 0.000137663
13 *506:B *506:A 1.48383e-05
14 *507:B1 *506:A 6.46815e-05
15 *507:B1 *507:A2 2.30636e-05
16 *607:A *503:A2 4.30017e-06
17 *607:A *451:10 0.000108188
18 *607:B *451:10 1.71306e-05
19 *607:B *451:14 3.01634e-05
20 *616:A *451:14 7.69206e-05
21 *699:D *503:A2 7.97098e-06
22 *699:D *451:10 0.000136702
23 *699:CLK *451:14 0
24 *712:D *507:A2 6.12919e-06
25 *813:A *451:10 0.000702478
26 *187:12 *503:A2 2.52287e-06
27 *284:14 *451:14 0.000127194
28 *351:194 *451:10 0.000130535
29 *351:194 *451:14 0.000132105
30 *421:8 *502:A 0
*RES
1 *956:X *451:10 38.4775 
2 *451:10 *451:14 12.5608 
3 *451:14 *507:A2 11.0817 
4 *451:14 *506:A 12.0945 
5 *451:10 *451:34 4.5 
6 *451:34 *503:A2 10.5271 
7 *451:34 *502:A 13.0349 
*END

*D_NET *453 0.0120795
*CONN
*I *673:B1_N I *D sky130_fd_sc_hd__o21bai_4
*I *817:A I *D sky130_fd_sc_hd__clkdlybuf4s15_1
*I *513:S I *D sky130_fd_sc_hd__mux2_4
*I *953:A I *D sky130_fd_sc_hd__buf_12
*I *514:S I *D sky130_fd_sc_hd__mux2_4
*I *958:X O *D sky130_fd_sc_hd__buf_8
*CAP
1 *673:B1_N 0.000199125
2 *817:A 0
3 *513:S 0
4 *953:A 0.000261695
5 *514:S 2.8773e-05
6 *958:X 0.000315892
7 *453:79 0.00109121
8 *453:37 0.00113232
9 *453:18 0.00172634
10 *453:12 0.00199588
11 *453:10 0.00059274
12 *470:A1 *453:18 0.000335517
13 *513:A0 *953:A 9.35753e-06
14 *513:A0 *453:37 3.24105e-05
15 *513:A1 *953:A 0.00011252
16 *514:A0 *453:18 1.04731e-05
17 *514:A1 *514:S 3.5063e-05
18 *514:A1 *453:18 3.44863e-05
19 *649:S *453:37 6.64392e-05
20 *658:B *453:10 0
21 *669:A2 *453:79 1.37421e-05
22 *672:A *453:79 1.65872e-05
23 *673:A1 *453:10 4.52791e-05
24 *673:A2 *453:18 0
25 *676:A *953:A 9.35753e-06
26 *676:B *953:A 7.52666e-05
27 *678:A1 *453:79 0.000209636
28 *678:S *453:79 8.95344e-05
29 *680:D *453:79 0.000160001
30 *680:CLK *453:79 6.46815e-05
31 *681:D *453:79 0.000114272
32 *689:CLK *453:37 4.5358e-05
33 *704:DE *453:18 0
34 *706:DE *453:37 0.000304859
35 *910:A *453:10 0.000200251
36 *916:A *453:10 0
37 *918:A *453:18 1.69932e-05
38 *924:A *453:10 0
39 *924:A *453:79 0.000205687
40 *958:A *453:10 0.000606078
41 *958:A *453:12 0.000114659
42 *958:A *453:18 8.36586e-06
43 *158:24 *673:B1_N 0.000125837
44 *168:10 *453:79 0.000142538
45 *169:10 *453:79 0.000109421
46 *225:18 *453:18 0.00016857
47 *225:18 *453:37 4.62432e-05
48 *351:52 *453:10 0.0002646
49 *351:81 *953:A 1.00981e-05
50 *354:47 *953:A 0
51 *354:51 *953:A 0
52 *408:12 *453:10 2.85274e-05
53 *409:12 *453:79 0.000209636
54 *411:77 *673:B1_N 0.000472981
55 *411:77 *453:79 3.39346e-05
56 *411:79 *453:79 0.000106062
57 *444:14 *673:B1_N 6.64392e-05
58 *447:19 *453:18 1.37421e-05
*RES
1 *958:X *453:10 27.2432 
2 *453:10 *453:12 2.24725 
3 *453:12 *453:18 25.3293 
4 *453:18 *514:S 10.2378 
5 *453:18 *453:37 23.3896 
6 *453:37 *953:A 25.5386 
7 *453:37 *513:S 9.24915 
8 *453:12 *453:79 42.837 
9 *453:79 *817:A 9.24915 
10 *453:10 *673:B1_N 21.8753 
*END

*D_NET *264 0.000773208
*CONN
*I *506:B I *D sky130_fd_sc_hd__nand2_1
*I *812:X O *D sky130_fd_sc_hd__clkdlybuf4s50_1
*CAP
1 *506:B 0.000364143
2 *812:X 0.000364143
3 *506:B *506:A 1.48383e-05
4 *507:B1 *506:B 3.00829e-05
*RES
1 *812:X *506:B 26.4556 
*END

*D_NET *401 0.00301625
*CONN
*I *664:D I *D sky130_fd_sc_hd__nor4_4
*I *888:A I *D sky130_fd_sc_hd__buf_6
*I *903:X O *D sky130_fd_sc_hd__buf_4
*CAP
1 *664:D 0.000301585
2 *888:A 8.73764e-05
3 *903:X 0.00011983
4 *401:10 0.000508791
5 *664:D *455:22 0.000373047
6 *664:D *462:24 0.000360597
7 *888:A *411:18 7.41007e-05
8 *401:10 *928:A 6.08467e-05
9 *401:10 *411:18 6.01944e-06
10 *466:A_N *401:10 0.000165481
11 *466:B *401:10 0.000130808
12 *469:B_N *664:D 0.000164829
13 *470:A1 *401:10 0.000210053
14 *483:A2 *888:A 6.08467e-05
15 *487:B *888:A 6.27718e-05
16 *960:A *401:10 6.1472e-05
17 *9:8 *664:D 5.22164e-05
18 *177:23 *888:A 0.000165051
19 *177:23 *401:10 5.05252e-05
*RES
1 *903:X *401:10 19.6294 
2 *401:10 *888:A 17.5503 
3 *401:10 *664:D 24.3348 
*END

*D_NET *455 0.00285059
*CONN
*I *483:A1 I *D sky130_fd_sc_hd__a21oi_1
*I *960:X O *D sky130_fd_sc_hd__buf_4
*CAP
1 *483:A1 0
2 *960:X 0.000837724
3 *455:22 0.000837724
4 *469:B_N *455:22 1.41689e-05
5 *470:A1 *455:22 0.000268878
6 *483:A2 *455:22 0.000130515
7 *664:D *455:22 0.000373047
8 *704:DE *455:22 0
9 *903:A *455:22 3.01797e-05
10 *960:A *455:22 0.000114415
11 *177:23 *455:22 0
12 *193:14 *455:22 0.000122737
13 *354:47 *455:22 7.15614e-05
14 *411:18 *455:22 4.96391e-05
*RES
1 *960:X *455:22 47.4974 
2 *455:22 *483:A1 9.24915 
*END

*D_NET *456 0.00107278
*CONN
*I *921:A I *D sky130_fd_sc_hd__buf_6
*I *961:X O *D sky130_fd_sc_hd__buf_4
*CAP
1 *921:A 0.00036691
2 *961:X 0.00036691
3 *571:A1 *921:A 7.48633e-05
4 *590:B *921:A 0.000151741
5 *961:A *921:A 1.57972e-05
6 *86:40 *921:A 0
7 *452:37 *921:A 9.65629e-05
*RES
1 *961:X *921:A 37.8097 
*END

*D_NET *265 0.00234662
*CONN
*I *504:A1 I *D sky130_fd_sc_hd__mux2_4
*I *813:X O *D sky130_fd_sc_hd__clkdlybuf4s50_1
*CAP
1 *504:A1 0.000944718
2 *813:X 0.000944718
3 *504:A1 *504:S 7.92757e-06
4 *504:A1 *813:A 9.70711e-05
5 *504:A1 *451:10 0.000137663
6 *504:A0 *504:A1 5.04829e-06
7 *713:D *504:A1 6.27782e-05
8 *185:10 *504:A1 9.29919e-05
9 *185:14 *504:A1 5.37077e-05
*RES
1 *813:X *504:A1 43.8089 
*END

*D_NET *267 0.00174474
*CONN
*I *656:A I *D sky130_fd_sc_hd__inv_1
*I *670:B I *D sky130_fd_sc_hd__nand2_1
*I *814:X O *D sky130_fd_sc_hd__dlygate4sd2_1
*CAP
1 *656:A 4.93271e-05
2 *670:B 0.00014862
3 *814:X 0.000393168
4 *267:8 0.000591115
5 *656:A *449:6 3.20544e-05
6 *656:A *449:17 7.28994e-06
7 *670:B *662:A1 1.44467e-05
8 *670:B *670:A 0.000224395
9 *670:B *426:20 0
10 *670:B *449:17 3.84177e-05
11 *267:8 *660:A1 0.000112361
12 *267:8 *660:B2 5.22859e-06
13 *267:8 *449:6 9.626e-05
14 *660:A2 *656:A 3.20544e-05
*RES
1 *814:X *267:8 19.464 
2 *267:8 *670:B 18.3836 
3 *267:8 *656:A 15.1304 
*END

*D_NET *457 0.00190452
*CONN
*I *601:A1 I *D sky130_fd_sc_hd__a31oi_4
*I *962:X O *D sky130_fd_sc_hd__buf_4
*CAP
1 *601:A1 0.000307215
2 *962:X 0.000307215
3 *529:B1 *601:A1 6.07168e-05
4 *531:A1 *601:A1 0.00026012
5 *531:C1 *601:A1 1.02917e-05
6 *601:B1 *601:A1 0
7 *629:A2 *601:A1 0
8 *962:A *601:A1 0.000129809
9 *13:31 *601:A1 4.19199e-05
10 *48:6 *601:A1 8.24011e-05
11 *198:24 *601:A1 0.000575286
12 *410:29 *601:A1 9.28197e-05
13 *410:141 *601:A1 3.67267e-05
*RES
1 *962:X *601:A1 41.1135 
*END

*D_NET *458 0.00394801
*CONN
*I *485:C I *D sky130_fd_sc_hd__or3_1
*I *484:A1 I *D sky130_fd_sc_hd__o21ai_0
*I *480:B I *D sky130_fd_sc_hd__nor2_2
*I *963:X O *D sky130_fd_sc_hd__buf_6
*CAP
1 *485:C 0.000170717
2 *484:A1 0
3 *480:B 0.000478466
4 *963:X 0
5 *458:10 0.000773721
6 *458:4 0.000465972
7 *468:A *480:B 5.8334e-05
8 *468:B_N *480:B 0.000219249
9 *470:B1 *480:B 0.000163997
10 *470:B1 *458:10 9.22013e-06
11 *484:A2 *480:B 1.87825e-05
12 *484:A2 *458:10 9.89388e-06
13 *485:A *485:C 0.000405738
14 *485:B *458:10 0
15 *486:A *458:10 0.000244398
16 *486:B *458:10 8.62321e-06
17 *663:A *485:C 3.6892e-05
18 *677:A2 *485:C 0.000417517
19 *688:CLK *485:C 6.24779e-05
20 *963:A *458:10 0.000114584
21 *8:8 *480:B 0.000200221
22 *412:13 *458:10 3.00174e-06
23 *412:19 *458:10 8.62065e-05
*RES
1 *963:X *458:4 9.24915 
2 *458:4 *458:10 12.8745 
3 *458:10 *480:B 27.1753 
4 *458:10 *484:A1 13.7491 
5 *458:4 *485:C 26.5112 
*END

*D_NET *268 0.000871828
*CONN
*I *911:A I *D sky130_fd_sc_hd__buf_4
*I *660:C1 I *D sky130_fd_sc_hd__a221o_1
*I *815:X O *D sky130_fd_sc_hd__clkdlybuf4s50_1
*CAP
1 *911:A 0.000157233
2 *660:C1 0
3 *815:X 0.000167585
4 *268:10 0.000324818
5 *911:A *660:B2 1.03594e-05
6 *911:A *409:12 8.78962e-05
7 *268:10 resp_val 4.69326e-06
8 *268:10 *660:B2 0.000119244
9 *268:10 *805:A 0
*RES
1 *815:X *268:10 17.2744 
2 *268:10 *660:C1 13.7491 
3 *268:10 *911:A 18.3808 
*END

*D_NET *459 0.00382911
*CONN
*I *643:A2 I *D sky130_fd_sc_hd__a21oi_2
*I *964:X O *D sky130_fd_sc_hd__buf_4
*CAP
1 *643:A2 0
2 *964:X 0.001018
3 *459:20 0.001018
4 *471:A_N *459:20 0
5 *643:B1 *459:20 0.000495788
6 *645:A1 *459:20 0.000629874
7 *807:A *459:20 1.55462e-05
8 *11:10 *459:20 0.000119176
9 *354:131 *459:20 4.83459e-05
10 *413:56 *459:20 8.86088e-05
11 *416:80 *459:20 0.00029761
12 *416:91 *459:20 9.81698e-05
*RES
1 *964:X *459:20 45.3062 
2 *459:20 *643:A2 9.24915 
*END

*D_NET *285 0.00151696
*CONN
*I *660:B2 I *D sky130_fd_sc_hd__a221o_1
*I *661:A I *D sky130_fd_sc_hd__inv_1
*I *816:X O *D sky130_fd_sc_hd__clkdlybuf4s50_1
*CAP
1 *660:B2 0.000151649
2 *661:A 0.000177664
3 *816:X 5.38534e-05
4 *285:8 0.000383167
5 *660:B2 resp_val 0
6 *660:B2 *805:A 0
7 *660:B2 *409:12 0.000303749
8 *661:A resp_val 0
9 *661:A *816:A 0
10 *661:A *409:12 0.000253826
11 *911:A *660:B2 1.03594e-05
12 *240:26 *661:A 5.82207e-05
13 *267:8 *660:B2 5.22859e-06
14 *268:10 *660:B2 0.000119244
*RES
1 *816:X *285:8 14.4725 
2 *285:8 *661:A 19.628 
3 *285:8 *660:B2 19.4932 
*END

*D_NET *266 0.00309116
*CONN
*I *950:A I *D sky130_fd_sc_hd__buf_6
*I *658:B I *D sky130_fd_sc_hd__or2_4
*I *559:A_N I *D sky130_fd_sc_hd__nand2b_1
*I *679:Q O *D sky130_fd_sc_hd__dfxtp_2
*CAP
1 *950:A 0.000233908
2 *658:B 0.000376413
3 *559:A_N 8.15613e-06
4 *679:Q 0.000187814
5 *266:23 0.000896876
6 *266:8 0.000482525
7 *658:B *910:A 0
8 *658:B *924:A 0.000105589
9 *658:B *423:23 0
10 *658:B *445:10 5.11107e-05
11 *658:B *453:10 0
12 *950:A *703:CLK 7.92757e-06
13 *950:A *445:8 6.27782e-05
14 *266:23 *931:A 9.90073e-05
15 *266:23 *423:23 0
16 *266:23 *445:10 7.28994e-06
17 *490:A *266:23 1.03594e-05
18 *493:A *559:A_N 3.60363e-05
19 *493:A *266:8 0.000216458
20 *494:B1 *266:8 7.67734e-06
21 *494:B1 *266:23 7.67719e-05
22 *559:B *266:23 1.47046e-05
23 *566:B *950:A 5.20167e-05
24 *658:A *658:B 6.08467e-05
25 *77:10 *266:23 1.50924e-05
26 *166:6 *658:B 8.18038e-05
*RES
1 *679:Q *266:8 12.7697 
2 *266:8 *559:A_N 9.82786 
3 *266:8 *266:23 12.2047 
4 *266:23 *658:B 23.6453 
5 *266:23 *950:A 17.6796 
*END

*D_NET *269 0.000649918
*CONN
*I *818:A I *D sky130_fd_sc_hd__buf_2
*I *489:X O *D sky130_fd_sc_hd__xor2_1
*CAP
1 *818:A 0.000242322
2 *489:X 0.000242322
3 *818:A resp_msg[0] 6.08167e-05
4 *818:A *489:A 0
5 *818:A *489:B 3.20069e-06
6 *818:A *654:B 2.27135e-05
7 *818:A *689:CLK 3.67708e-05
8 *818:A *354:63 2.86439e-05
9 *818:A *354:82 3.89332e-06
10 *654:A *818:A 0
11 *689:D *818:A 9.2346e-06
*RES
1 *489:X *818:A 34.4877 
*END

*D_NET *429 0.00101048
*CONN
*I *630:A I *D sky130_fd_sc_hd__nand2_2
*I *934:X O *D sky130_fd_sc_hd__buf_4
*CAP
1 *630:A 0.000286975
2 *934:X 0.000286975
3 *630:A *934:A 7.93929e-05
4 *530:A2 *630:A 0
5 *885:A *630:A 6.88795e-05
6 *48:21 *630:A 0.000133612
7 *198:41 *630:A 0.000154646
*RES
1 *934:X *630:A 35.8941 
*END

*D_NET *270 0.00125507
*CONN
*I *819:A I *D sky130_fd_sc_hd__dlygate4sd2_1
*I *612:X O *D sky130_fd_sc_hd__xor2_1
*CAP
1 *819:A 0.000341636
2 *612:X 0.000341636
3 *819:A *833:A 0.000501334
4 *819:A *940:A 6.04641e-05
5 *819:A *350:24 1.00032e-05
*RES
1 *612:X *819:A 27.5649 
*END

*D_NET *460 0.00109018
*CONN
*I *843:A I *D sky130_fd_sc_hd__buf_6
*I *965:X O *D sky130_fd_sc_hd__buf_4
*CAP
1 *843:A 0.000208797
2 *965:X 0.000208797
3 *477:B *843:A 0
4 *524:A2 *843:A 0.000185051
5 *526:C *843:A 9.46208e-05
6 *13:31 *843:A 0.000337639
7 *370:25 *843:A 5.52748e-05
*RES
1 *965:X *843:A 36.2853 
*END

*D_NET *461 0.00180843
*CONN
*I *847:A I *D sky130_fd_sc_hd__buf_4
*I *966:X O *D sky130_fd_sc_hd__buf_4
*CAP
1 *847:A 0.000547025
2 *966:X 0.000547025
3 *639:A1 *847:A 0.00021217
4 *710:CLK *847:A 2.58616e-05
5 *872:A *847:A 0.000122098
6 *47:18 *847:A 9.37622e-05
7 *181:12 *847:A 0
8 *197:10 *847:A 4.20567e-05
9 *197:23 *847:A 1.93122e-05
10 *380:14 *847:A 0.000199115
11 *408:107 *847:A 0
*RES
1 *966:X *847:A 43.519 
*END

*D_NET *462 0.0029264
*CONN
*I *664:A I *D sky130_fd_sc_hd__nor4_4
*I *967:X O *D sky130_fd_sc_hd__buf_6
*CAP
1 *664:A 0
2 *967:X 0.000765682
3 *462:24 0.000765682
4 *465:A_N *462:24 0.000117376
5 *468:A *462:24 0.000114659
6 *480:A *462:24 0.000199612
7 *482:B *462:24 2.02354e-05
8 *664:B *462:24 6.50586e-05
9 *664:D *462:24 0.000360597
10 *874:A *462:24 6.08467e-05
11 *5:10 *462:24 0.000203381
12 *9:8 *462:24 6.49003e-05
13 *155:12 *462:24 5.29927e-05
14 *372:10 *462:24 9.32102e-05
15 *413:56 *462:24 4.21676e-05
*RES
1 *967:X *462:24 42.9937 
2 *462:24 *664:A 9.24915 
*END

*D_NET *271 0.00634285
*CONN
*I *820:A I *D sky130_fd_sc_hd__buf_2
*I *596:A1 I *D sky130_fd_sc_hd__mux2i_1
*I *595:Y O *D sky130_fd_sc_hd__xnor2_4
*CAP
1 *820:A 0.000802906
2 *596:A1 5.02027e-05
3 *595:Y 0.000655179
4 *271:8 0.00150829
5 *596:A1 *596:S 1.65872e-05
6 *820:A resp_msg[11] 1.43848e-05
7 *820:A *598:A1 5.66868e-06
8 *820:A *420:44 4.38731e-05
9 *820:A *420:54 6.17734e-05
10 *820:A *463:33 0.000710051
11 *271:8 *595:A 0.000217034
12 *271:8 *711:CLK 6.37372e-05
13 *271:8 *412:64 0
14 *271:8 *463:12 0.000342751
15 *271:8 *463:33 0.000384892
16 *551:B *820:A 0.000313916
17 *551:B *271:8 2.6524e-05
18 *579:A *820:A 4.86647e-05
19 *598:A2 *820:A 0.000339685
20 *684:D *820:A 0.000122858
21 *895:A *271:8 0.000315626
22 *917:A *271:8 0
23 *58:16 *271:8 0
24 *188:21 *271:8 0.000235476
25 *188:25 *596:A1 6.27718e-05
*RES
1 *595:Y *271:8 38.0048 
2 *271:8 *596:A1 15.0271 
3 *271:8 *820:A 42.8174 
*END

*D_NET *237 0.00132879
*CONN
*I *497:A1 I *D sky130_fd_sc_hd__mux2_4
*I *573:X O *D sky130_fd_sc_hd__clkdlybuf4s50_1
*CAP
1 *497:A1 0.00057868
2 *573:X 0.00057868
3 *497:A1 *497:A0 1.59362e-06
4 *497:A1 *593:A 0
5 *497:A1 *351:135 0.000167427
6 *499:B *497:A1 0
7 *573:A *497:A1 2.41274e-06
*RES
1 *573:X *497:A1 39.7466 
*END

*D_NET *272 0.00532483
*CONN
*I *591:A1 I *D sky130_fd_sc_hd__mux2i_1
*I *821:A I *D sky130_fd_sc_hd__dlymetal6s2s_1
*I *590:Y O *D sky130_fd_sc_hd__xnor2_4
*CAP
1 *591:A1 0
2 *821:A 0.000820084
3 *590:Y 0.000879418
4 *272:12 0.0016995
5 *821:A resp_msg[12] 0.000147742
6 *821:A resp_msg[13] 0
7 *821:A *822:A 0
8 *821:A *891:A 0
9 *821:A *420:23 0.000105239
10 *272:12 *591:A0 2.65667e-05
11 *272:12 *591:S 7.92757e-06
12 *272:12 *700:DE 0.000455896
13 *272:12 *711:CLK 0
14 *272:12 *351:135 0.000189438
15 *272:12 *405:8 0.000171288
16 *272:12 *414:57 3.30707e-05
17 *272:12 *414:72 0.000102647
18 *550:A_N *272:12 0
19 *553:B1 *272:12 5.99658e-05
20 *573:A *821:A 0
21 *593:A *821:A 0
22 *594:A2 *821:A 0.000138919
23 *685:D *821:A 4.43331e-05
24 *700:D *272:12 0
25 *907:A *272:12 7.65399e-05
26 *908:A *272:12 0
27 *30:16 *272:12 0
28 *59:12 *272:12 0.000169078
29 *173:12 *272:12 5.56367e-05
30 *190:14 *821:A 0.000141544
*RES
1 *590:Y *272:12 43.6546 
2 *272:12 *821:A 40.8788 
3 *272:12 *591:A1 9.24915 
*END

*D_NET *442 0.00115623
*CONN
*I *480:A I *D sky130_fd_sc_hd__nor2_2
*I *947:X O *D sky130_fd_sc_hd__buf_4
*CAP
1 *480:A 0.000283174
2 *947:X 0.000283174
3 *480:A *462:24 0.000199612
4 *473:A3 *480:A 0.000162583
5 *485:A *480:A 1.44611e-05
6 *663:A *480:A 0.000146507
7 *963:A *480:A 7.56859e-06
8 *5:10 *480:A 7.58217e-06
9 *10:8 *480:A 1.00981e-05
10 *275:12 *480:A 7.17398e-06
11 *372:10 *480:A 3.42931e-05
*RES
1 *947:X *480:A 36.2853 
*END

*D_NET *374 0.00174603
*CONN
*I *885:A I *D sky130_fd_sc_hd__buf_4
*I *876:X O *D sky130_fd_sc_hd__buf_4
*CAP
1 *885:A 0.000655158
2 *876:X 0.000655158
3 *885:A *630:A 6.88795e-05
4 *885:A *663:D 4.89251e-05
5 *885:A *934:A 0.000114271
6 *885:A *410:39 0
7 *477:B *885:A 2.55493e-05
8 *946:A *885:A 0.000151904
9 *13:31 *885:A 2.61857e-05
*RES
1 *876:X *885:A 43.6586 
*END

*D_NET *426 0.00810243
*CONN
*I *493:B I *D sky130_fd_sc_hd__nand2_1
*I *954:A I *D sky130_fd_sc_hd__buf_6
*I *678:S I *D sky130_fd_sc_hd__mux2_4
*I *515:S I *D sky130_fd_sc_hd__mux2_4
*I *931:X O *D sky130_fd_sc_hd__buf_6
*CAP
1 *493:B 8.97423e-05
2 *954:A 1.41955e-05
3 *678:S 0.00107475
4 *515:S 0.000765597
5 *931:X 0.000174019
6 *426:20 0.00258089
7 *426:14 0.000944157
8 *426:10 0.000453178
9 *515:S *515:A0 0.000362216
10 *678:S *924:A 4.83874e-05
11 *678:S *453:79 8.95344e-05
12 *954:A *449:6 6.27718e-05
13 *426:10 *931:A 2.84892e-05
14 *426:20 *662:A1 0
15 *493:A *493:B 0.000315653
16 *659:B *426:20 0.000127179
17 *670:B *426:20 0
18 *671:A1 *426:20 0.000159354
19 *671:B1 *426:20 4.8088e-05
20 *672:B_N *426:20 4.29164e-05
21 *678:A0 *678:S 6.55312e-05
22 *678:A1 *678:S 0.000149001
23 *681:D *678:S 9.44631e-06
24 *681:D *426:20 0.000113309
25 *698:D *515:S 0.000114271
26 *703:CLK *954:A 2.58616e-05
27 *704:DE *678:S 2.97532e-05
28 *853:A *426:20 0.000177772
29 *240:26 *426:20 7.444e-06
30 *351:24 *426:20 0
31 *411:77 *426:20 2.54028e-05
32 *411:85 *515:S 0
33 *413:10 *515:S 0
34 *413:12 *515:S 0
35 *413:35 *515:S 3.52873e-06
*RES
1 *931:X *426:10 17.6896 
2 *426:10 *426:14 4.64105 
3 *426:14 *426:20 19.0772 
4 *426:20 *515:S 33.7507 
5 *426:20 *678:S 40.4182 
6 *426:14 *954:A 14.4725 
7 *426:10 *493:B 17.2456 
*END

*D_NET *273 0.00256511
*CONN
*I *822:A I *D sky130_fd_sc_hd__buf_2
*I *588:Y O *D sky130_fd_sc_hd__xnor2_2
*CAP
1 *822:A 0.000777408
2 *588:Y 0.000777408
3 *822:A *685:CLK 0.000165857
4 *822:A *701:CLK 8.90486e-05
5 *822:A *424:46 5.01107e-05
6 *821:A *822:A 0
7 *922:A *822:A 0.000334477
8 *190:14 *822:A 0.000370801
*RES
1 *588:Y *822:A 47.1197 
*END

*D_NET *408 0.0256717
*CONN
*I *508:S I *D sky130_fd_sc_hd__mux2_4
*I *510:S I *D sky130_fd_sc_hd__mux2_4
*I *504:S I *D sky130_fd_sc_hd__mux2_4
*I *497:S I *D sky130_fd_sc_hd__mux2_4
*I *496:S I *D sky130_fd_sc_hd__mux2_4
*I *910:X O *D sky130_fd_sc_hd__buf_8
*CAP
1 *508:S 6.42381e-05
2 *510:S 0
3 *504:S 0.000873686
4 *497:S 0
5 *496:S 0.000339432
6 *910:X 0.000333072
7 *408:107 0.0013173
8 *408:91 0.00160745
9 *408:81 0.00279963
10 *408:62 0.00160318
11 *408:41 0.00183227
12 *408:22 0.00266198
13 *408:12 0.00412656
14 *496:S *424:50 8.48999e-05
15 *408:12 *958:A 8.71199e-05
16 *408:12 *414:8 0
17 *408:12 *423:23 0
18 *408:12 *453:10 2.85274e-05
19 *408:22 *702:DE 3.51317e-05
20 *408:22 *968:A 0.000385297
21 *408:22 *414:8 4.50124e-05
22 *408:22 *414:21 3.94722e-05
23 *408:22 *414:38 0.000152988
24 *408:22 *423:23 0
25 *408:41 *891:A 3.03785e-05
26 *408:41 *424:50 0.00013511
27 *408:62 *684:CLK 0.000209636
28 *408:62 *713:CLK 1.03403e-05
29 *408:62 *420:54 0.000256285
30 *408:62 *425:42 8.36586e-06
31 *408:62 *425:55 9.43419e-05
32 *408:62 *425:72 2.86829e-05
33 *408:62 *463:33 1.53954e-05
34 *408:81 *695:CLK 1.41689e-05
35 *408:81 *842:A 0.000234388
36 *408:91 *415:12 1.95082e-05
37 *408:107 *509:S 6.66786e-05
38 *408:107 *710:DE 0.000198452
39 *408:107 *847:A 0
40 *496:A1 *496:S 3.44412e-06
41 *497:A0 *408:41 2.84892e-05
42 *504:A0 *504:S 7.16058e-05
43 *504:A1 *504:S 7.92757e-06
44 *508:A0 *508:S 6.27782e-05
45 *508:A0 *408:91 1.4106e-05
46 *508:A1 *508:S 6.27782e-05
47 *508:A1 *408:91 6.27718e-05
48 *509:A0 *408:107 4.86213e-05
49 *554:B1_N *408:22 0.000115885
50 *562:C1 *408:22 0.000253899
51 *571:A2 *408:22 0.000182602
52 *572:A *408:22 0
53 *572:B *408:22 0
54 *588:A *408:22 0.000195124
55 *595:A *408:81 6.50586e-05
56 *601:A2 *408:107 9.32076e-05
57 *627:A1 *408:91 5.04829e-06
58 *629:A2 *408:91 7.37686e-05
59 *629:B1 *408:107 0.000110314
60 *694:DE *408:81 0.00020502
61 *695:D *408:107 0.0001549
62 *701:D *408:62 0.000161243
63 *702:D *496:S 0.000119321
64 *710:D *408:107 0.000126335
65 *713:D *504:S 0.000284947
66 *849:A *408:22 0.000295076
67 *917:A *408:81 0.000194664
68 *922:A *408:22 0
69 *41:14 *408:81 0.00135425
70 *58:16 *408:81 0.000162583
71 *65:18 *408:22 4.10689e-05
72 *84:8 *408:22 0
73 *89:21 *408:22 0
74 *132:12 *408:107 3.04755e-06
75 *172:10 *408:62 0.000139817
76 *176:14 *408:81 0.000136421
77 *181:12 *408:107 0.000220561
78 *182:14 *408:107 7.16754e-05
79 *183:10 *408:107 0
80 *190:6 *408:41 1.52443e-05
81 *351:52 *408:12 3.02812e-05
82 *351:52 *408:81 9.83349e-05
83 *351:238 *408:107 0.000342736
84 *380:12 *408:107 0.00015324
85 *381:44 *408:91 7.04109e-05
86 *381:44 *408:107 0
87 *398:10 *408:107 9.40659e-05
*RES
1 *910:X *408:12 25.5145 
2 *408:12 *408:22 46.617 
3 *408:22 *496:S 25.1315 
4 *408:22 *408:41 17.0963 
5 *408:41 *497:S 9.24915 
6 *408:41 *408:62 36.8337 
7 *408:62 *504:S 24.127 
8 *408:12 *408:81 49.3597 
9 *408:81 *408:91 17.8586 
10 *408:91 *408:107 48.4246 
11 *408:107 *510:S 9.24915 
12 *408:91 *508:S 15.474 
*END

*D_NET *463 0.0175855
*CONN
*I *509:S I *D sky130_fd_sc_hd__mux2_4
*I *956:A I *D sky130_fd_sc_hd__buf_6
*I *499:A I *D sky130_fd_sc_hd__nand2_1
*I *957:A I *D sky130_fd_sc_hd__buf_4
*I *968:X O *D sky130_fd_sc_hd__buf_8
*CAP
1 *509:S 0.000585214
2 *956:A 0.000595351
3 *499:A 0.000121869
4 *957:A 3.37551e-05
5 *968:X 0.000719483
6 *463:75 0.00211714
7 *463:33 0.00134541
8 *463:12 0.000833843
9 *463:8 0.00242331
10 *533:A_N *463:75 0.000130515
11 *533:B *463:75 0.000180772
12 *549:A *463:8 0.000776327
13 *549:B *463:8 7.03688e-05
14 *595:A *463:8 7.73085e-05
15 *598:A1 *499:A 6.08467e-05
16 *598:A2 *499:A 6.50727e-05
17 *598:B1 *499:A 6.27718e-05
18 *598:B1 *956:A 0.000109427
19 *614:A3 *463:75 0.000107496
20 *614:B1 *463:75 5.84241e-05
21 *615:A *463:75 2.58616e-05
22 *619:A2 *956:A 1.4106e-05
23 *620:A *463:75 0.000375169
24 *623:B *463:75 9.59076e-05
25 *624:B1 *509:S 0.000145927
26 *629:B1 *509:S 0
27 *632:B *509:S 0.000323456
28 *634:A *509:S 4.01437e-05
29 *666:B *463:12 8.62625e-06
30 *666:B *463:33 0.000623775
31 *684:D *463:33 0.000122858
32 *811:A *509:S 3.97785e-05
33 *820:A *463:33 0.000710051
34 *844:A *463:75 0.000154594
35 *864:A *463:75 2.58757e-05
36 *52:8 *463:75 4.89251e-05
37 *122:6 *463:75 6.97525e-05
38 *172:10 *463:33 0.00019673
39 *198:14 *509:S 5.23435e-05
40 *271:8 *463:12 0.000342751
41 *271:8 *463:33 0.000384892
42 *351:150 *499:A 2.91008e-06
43 *351:167 *499:A 0.000218774
44 *351:167 *956:A 0.000242087
45 *351:202 *509:S 0.000596111
46 *362:8 *463:75 0.000185458
47 *391:10 *463:33 0.000107943
48 *408:62 *463:33 1.53954e-05
49 *408:107 *509:S 6.66786e-05
50 *412:64 *463:12 0
51 *420:23 *499:A 4.87301e-05
52 *420:54 *956:A 0.000707309
53 *420:54 *463:33 0.000168319
54 *420:65 *956:A 0.000314044
55 *425:72 *956:A 5.65046e-05
56 *452:8 *957:A 2.16355e-05
57 *452:37 *463:8 0.000557411
*RES
1 *968:X *463:8 29.9624 
2 *463:8 *463:12 10.4845 
3 *463:12 *957:A 14.4725 
4 *463:12 *463:33 33.0547 
5 *463:33 *499:A 14.6264 
6 *463:33 *956:A 36.2476 
7 *463:8 *463:75 43.2981 
8 *463:75 *509:S 34.6827 
*END

*D_NET *422 0.00157591
*CONN
*I *958:A I *D sky130_fd_sc_hd__buf_8
*I *924:X O *D sky130_fd_sc_hd__buf_6
*CAP
1 *958:A 0.000345229
2 *924:X 0.000345229
3 *958:A *910:A 1.2693e-05
4 *958:A *423:23 5.22654e-06
5 *958:A *453:10 0.000606078
6 *958:A *453:12 0.000114659
7 *958:A *453:18 8.36586e-06
8 *704:D *958:A 5.13058e-05
9 *408:12 *958:A 8.71199e-05
10 *414:8 *958:A 0
*RES
1 *924:X *958:A 40.5421 
*END

*D_NET *452 0.00692279
*CONN
*I *494:A2 I *D sky130_fd_sc_hd__o21ai_1
*I *500:A2 I *D sky130_fd_sc_hd__o21ai_2
*I *957:X O *D sky130_fd_sc_hd__buf_4
*CAP
1 *494:A2 0.000190284
2 *500:A2 3.06739e-05
3 *957:X 0.000328678
4 *452:37 0.00150483
5 *452:8 0.0016739
6 *452:8 *957:A 2.16355e-05
7 *452:37 *921:A 9.65629e-05
8 *452:37 *463:8 0.000557411
9 *494:B1 *494:A2 0.000112367
10 *500:A1 *452:8 0.000286431
11 *540:A *452:8 2.74378e-05
12 *540:A *452:37 1.48869e-05
13 *555:A *494:A2 0.000102384
14 *555:B *452:37 5.66985e-05
15 *561:A *500:A2 1.64789e-05
16 *561:A *452:37 0.000406808
17 *590:B *452:37 0.000151741
18 *666:A *452:8 0
19 *666:B *452:8 2.65831e-05
20 *703:D *494:A2 0.000261128
21 *856:A *452:37 0.000214979
22 *961:A *452:37 0.000264583
23 *73:14 *452:37 0.000165521
24 *79:10 *452:37 0.000132291
25 *86:40 *452:37 0
26 *191:14 *452:37 9.46346e-05
27 *369:10 *494:A2 0.000179904
28 *406:16 *452:8 3.96379e-06
29 *414:38 *452:37 0
*RES
1 *957:X *452:8 17.2065 
2 *452:8 *500:A2 10.2378 
3 *452:8 *452:37 48.405 
4 *452:37 *494:A2 16.0732 
*END

*D_NET *274 0.000887216
*CONN
*I *823:A I *D sky130_fd_sc_hd__buf_2
*I *582:Y O *D sky130_fd_sc_hd__xnor2_1
*CAP
1 *823:A 0.000350158
2 *582:Y 0.000350158
3 *823:A *582:B 0.000122378
4 *578:D1 *823:A 0
5 *581:C1 *823:A 4.03749e-05
6 *582:A *823:A 2.41483e-05
*RES
1 *582:Y *823:A 27.4443 
*END

*D_NET *275 0.00651027
*CONN
*I *824:A I *D sky130_fd_sc_hd__buf_2
*I *558:Y O *D sky130_fd_sc_hd__xnor2_2
*CAP
1 *824:A 0.000536707
2 *558:Y 0.00036181
3 *275:12 0.00192105
4 *275:8 0.00174615
5 *824:A resp_msg[15] 4.26431e-05
6 *824:A *791:A 6.50586e-05
7 *824:A *792:A 0.000228593
8 *275:12 *480:A 7.17398e-06
9 *275:12 *523:A 8.97877e-05
10 *275:12 *643:A1 1.36556e-05
11 *275:12 *663:A 0.000728994
12 *275:12 *827:A 6.33748e-05
13 *275:12 *278:14 0.000145742
14 *473:A3 *275:12 6.60196e-05
15 *473:B1 *275:12 0
16 *482:B *275:12 0.000309468
17 *647:A *824:A 7.58194e-05
18 *667:C *275:12 0
19 *675:A *275:8 9.81263e-05
20 *675:B *275:8 1.00937e-05
21 *677:A2 *275:12 0
22 *155:12 *275:12 0
23 *178:10 *275:12 0
*RES
1 *558:Y *275:8 19.464 
2 *275:8 *275:12 43.2894 
3 *275:12 *824:A 23.8617 
*END

*D_NET *276 0.00210379
*CONN
*I *649:A1 I *D sky130_fd_sc_hd__mux2i_1
*I *825:A I *D sky130_fd_sc_hd__buf_2
*I *488:Y O *D sky130_fd_sc_hd__xnor2_1
*CAP
1 *649:A1 2.64699e-05
2 *825:A 0.000283699
3 *488:Y 0.000315335
4 *276:10 0.000625504
5 *649:A1 *649:S 2.65667e-05
6 *825:A resp_msg[1] 1.84293e-05
7 *825:A *689:CLK 0.000156475
8 *825:A *354:57 0.000171273
9 *276:10 *487:A 7.73825e-05
10 *276:10 *514:A0 0.000134976
11 *276:10 *649:A0 2.69499e-05
12 *276:10 *689:CLK 0.000161878
13 *276:10 *706:DE 1.60687e-05
14 *276:10 *416:52 6.27782e-05
15 *514:A1 *825:A 0
16 *514:A1 *276:10 0
*RES
1 *488:Y *276:10 22.5333 
2 *276:10 *825:A 21.9815 
3 *276:10 *649:A1 14.4725 
*END

*D_NET *277 0.00312931
*CONN
*I *646:A1 I *D sky130_fd_sc_hd__mux2i_1
*I *826:A I *D sky130_fd_sc_hd__buf_2
*I *486:Y O *D sky130_fd_sc_hd__nand2_1
*CAP
1 *646:A1 0
2 *826:A 0.000396617
3 *486:Y 0.000464524
4 *277:22 0.00086114
5 *826:A *643:A1 0
6 *826:A *646:A0 1.37421e-05
7 *826:A *691:CLK 0
8 *826:A *351:69 3.48613e-05
9 *826:A *351:73 4.3116e-06
10 *277:22 *465:A_N 1.65872e-05
11 *277:22 *646:A0 1.15781e-05
12 *277:22 *351:69 0.000177512
13 *468:B_N *277:22 0.0001467
14 *470:B1 *277:22 0.000111343
15 *484:B1 *277:22 6.08467e-05
16 *647:A *826:A 0
17 *648:A1 *826:A 0
18 *690:D *826:A 0.000146507
19 *887:A *277:22 6.27718e-05
20 *5:10 *277:22 0
21 *8:8 *277:22 0.000197157
22 *20:10 *277:22 0.000263114
23 *178:10 *826:A 0
24 *194:10 *277:22 0.000160001
*RES
1 *486:Y *277:22 38.0386 
2 *277:22 *826:A 23.8862 
3 *277:22 *646:A1 13.7491 
*END

*D_NET *278 0.00417588
*CONN
*I *643:A1 I *D sky130_fd_sc_hd__a21oi_2
*I *827:A I *D sky130_fd_sc_hd__buf_2
*I *482:Y O *D sky130_fd_sc_hd__xnor2_2
*CAP
1 *643:A1 0.00023745
2 *827:A 0.00017887
3 *482:Y 0.00078593
4 *278:14 0.00120225
5 *643:A1 *354:131 0.000217951
6 *643:A1 *354:144 0.000118166
7 *827:A *792:A 7.11596e-05
8 *827:A *807:A 0
9 *827:A *808:A 6.92705e-05
10 *278:14 *379:10 2.8322e-05
11 *482:B *278:14 0.000590684
12 *643:B1 *827:A 0
13 *643:B1 *278:14 0
14 *644:A *827:A 0.000137936
15 *826:A *643:A1 0
16 *179:40 *278:14 2.97405e-05
17 *195:12 *278:14 0.000285383
18 *275:12 *643:A1 1.36556e-05
19 *275:12 *827:A 6.33748e-05
20 *275:12 *278:14 0.000145742
*RES
1 *482:Y *278:14 36.0339 
2 *278:14 *827:A 19.2113 
3 *278:14 *643:A1 27.2471 
*END

*D_NET *279 0.00127537
*CONN
*I *828:A I *D sky130_fd_sc_hd__dlymetal6s2s_1
*I *966:A I *D sky130_fd_sc_hd__buf_4
*I *479:X O *D sky130_fd_sc_hd__xor2_2
*CAP
1 *828:A 0.000359857
2 *966:A 0.000147053
3 *479:X 0
4 *279:4 0.00050691
5 *828:A *370:8 6.02377e-05
6 *966:A *351:238 0
7 *197:23 *966:A 0.000201317
*RES
1 *479:X *279:4 9.24915 
2 *279:4 *966:A 22.5727 
3 *279:4 *828:A 16.6519 
*END

*D_NET *280 0.00277791
*CONN
*I *636:A1 I *D sky130_fd_sc_hd__mux2i_1
*I *829:A I *D sky130_fd_sc_hd__buf_2
*I *477:Y O *D sky130_fd_sc_hd__xnor2_1
*CAP
1 *636:A1 0
2 *829:A 0.000398424
3 *477:Y 0.000246711
4 *280:12 0.000645135
5 *829:A resp_msg[5] 2.61012e-05
6 *829:A *512:S 0.000179286
7 *829:A *708:DE 0.000134394
8 *829:A *354:157 0.000160617
9 *829:A *410:49 9.07429e-06
10 *829:A *413:56 0.000112367
11 *829:A *413:60 3.60437e-05
12 *829:A *416:91 0.000110458
13 *280:12 *410:39 5.59112e-05
14 *280:12 *410:43 3.00174e-06
15 *477:A *280:12 0.000157107
16 *512:A1 *829:A 0.000391845
17 *637:A *829:A 6.08467e-05
18 *707:D *829:A 5.05893e-05
*RES
1 *477:Y *280:12 23.1595 
2 *280:12 *829:A 33.9883 
3 *280:12 *636:A1 9.24915 
*END

*D_NET *281 0.00157189
*CONN
*I *945:A I *D sky130_fd_sc_hd__buf_4
*I *830:A I *D sky130_fd_sc_hd__dlymetal6s2s_1
*I *632:Y O *D sky130_fd_sc_hd__xnor2_2
*CAP
1 *945:A 0.000115495
2 *830:A 0.000187995
3 *632:Y 0.000438312
4 *281:8 0.000741802
5 *830:A resp_msg[6] 2.01653e-05
6 *830:A *796:A 0
7 *945:A *633:A1 4.81015e-05
8 *281:8 *633:S 0
9 *281:8 *796:A 0
10 *281:8 *797:A 2.00158e-05
11 *632:A *830:A 0
*RES
1 *632:Y *281:8 23.8862 
2 *281:8 *830:A 18.1049 
3 *281:8 *945:A 16.691 
*END

*D_NET *238 0.000644987
*CONN
*I *496:A1 I *D sky130_fd_sc_hd__mux2_4
*I *560:X O *D sky130_fd_sc_hd__clkdlybuf4s50_1
*CAP
1 *496:A1 0.000320771
2 *560:X 0.000320771
3 *496:A1 *496:S 3.44412e-06
*RES
1 *560:X *496:A1 34.3456 
*END

*D_NET *282 0.00276354
*CONN
*I *831:A I *D sky130_fd_sc_hd__buf_2
*I *838:A I *D sky130_fd_sc_hd__buf_4
*I *626:Y O *D sky130_fd_sc_hd__xnor2_2
*CAP
1 *831:A 0.000639998
2 *838:A 7.65883e-05
3 *626:Y 0.00011173
4 *282:10 0.000828316
5 *831:A *415:12 0.000399194
6 *282:10 *694:DE 5.41227e-05
7 *282:10 *695:CLK 6.08467e-05
8 *508:A0 *831:A 0.000150277
9 *508:A1 *831:A 8.23171e-06
10 *601:B1 *282:10 1.61631e-05
11 *629:A2 *831:A 1.45799e-05
12 *41:14 *831:A 2.53347e-05
13 *41:14 *282:10 5.46831e-05
14 *111:12 *831:A 2.86829e-05
15 *111:12 *838:A 0.000111352
16 *111:12 *282:10 0.000183443
*RES
1 *626:Y *282:10 17.9655 
2 *282:10 *838:A 15.7599 
3 *282:10 *831:A 25.6069 
*END

*D_NET *283 0.000914285
*CONN
*I *832:A I *D sky130_fd_sc_hd__buf_2
*I *840:A I *D sky130_fd_sc_hd__buf_4
*I *620:Y O *D sky130_fd_sc_hd__xnor2_2
*CAP
1 *832:A 0.00019684
2 *840:A 0
3 *620:Y 0.000117823
4 *283:12 0.000314663
5 *832:A *622:A2 0.000115934
6 *283:12 *622:A1 0.000110739
7 *283:12 *622:A2 3.99098e-05
8 *624:A2 *283:12 1.83757e-05
*RES
1 *620:Y *283:12 13.5172 
2 *283:12 *840:A 9.24915 
3 *283:12 *832:A 14.4094 
*END

*D_NET *284 0.00139602
*CONN
*I *939:A I *D sky130_fd_sc_hd__buf_4
*I *940:A I *D sky130_fd_sc_hd__buf_4
*I *616:Y O *D sky130_fd_sc_hd__xnor2_2
*CAP
1 *939:A 0
2 *940:A 0.000107146
3 *616:Y 0.000261433
4 *284:14 0.000368579
5 *940:A *833:A 0.000160047
6 *940:A *350:24 3.14978e-05
7 *284:14 *833:A 4.85806e-05
8 *284:14 *836:A 0.000107496
9 *284:14 *351:194 0.000123582
10 *284:14 *451:14 0.000127194
11 *819:A *940:A 6.04641e-05
*RES
1 *616:Y *284:14 24.1616 
2 *284:14 *940:A 12.7456 
3 *284:14 *939:A 9.24915 
*END

*D_NET *286 0.000975668
*CONN
*I *951:A I *D sky130_fd_sc_hd__buf_4
*I *834:A I *D sky130_fd_sc_hd__clkbuf_2
*I *659:Y O *D sky130_fd_sc_hd__nor2_4
*CAP
1 *951:A 0
2 *834:A 7.96313e-05
3 *659:Y 0.0001906
4 *286:8 0.000270231
5 *834:A *660:B1 8.8567e-05
6 *834:A *662:A1 0.000221185
7 *834:A *409:12 8.92568e-06
8 *286:8 *660:B1 0.000111722
9 *659:A *286:8 4.80635e-06
*RES
1 *659:Y *286:8 14.2888 
2 *286:8 *834:A 22.1574 
3 *286:8 *951:A 9.24915 
*END

*D_NET *239 0.0023814
*CONN
*I *493:A I *D sky130_fd_sc_hd__nand2_1
*I *541:X O *D sky130_fd_sc_hd__clkdlybuf4s50_1
*CAP
1 *493:A 0.000809841
2 *541:X 0.000809841
3 *493:A *493:B 0.000315653
4 *493:A *559:A_N 3.60363e-05
5 *493:A *581:A1 9.83856e-05
6 *493:A *266:8 0.000216458
7 *493:A *424:68 5.0636e-05
8 *494:B1 *493:A 2.57847e-05
9 *679:D *493:A 1.87611e-05
*RES
1 *541:X *493:A 47.4337 
*END

*D_NET *240 0.00488599
*CONN
*I *678:A1 I *D sky130_fd_sc_hd__mux2_4
*I *495:X O *D sky130_fd_sc_hd__dlymetal6s2s_1
*CAP
1 *678:A1 0.000347361
2 *495:X 0.00106778
3 *240:26 0.00141514
4 *678:A1 *673:A1 0.000143295
5 *678:A1 *673:A2 6.23779e-05
6 *678:A1 *678:A0 6.27718e-05
7 *678:A1 *678:S 0.000149001
8 *678:A1 *453:79 0.000209636
9 *240:26 *661:A 5.82207e-05
10 *240:26 *671:A2 0.000372088
11 *240:26 *673:A1 0.00043018
12 *240:26 *426:20 7.444e-06
13 *657:A *240:26 2.96015e-05
14 *659:B *240:26 3.88213e-05
15 *662:A2 *240:26 6.46783e-05
16 *662:B1 *240:26 6.27718e-05
17 *669:A2 *240:26 6.27718e-05
18 *671:B1 *240:26 3.25494e-05
19 *672:B_N *240:26 8.36586e-06
20 *704:D *678:A1 0.000261128
21 *83:10 *240:26 0
*RES
1 *495:X *240:26 46.5429 
2 *240:26 *678:A1 26.1424 
*END

*D_NET *241 0.00105449
*CONN
*I *654:A I *D sky130_fd_sc_hd__nand2_1
*I *492:X O *D sky130_fd_sc_hd__clkdlybuf4s50_1
*CAP
1 *654:A 0.000488545
2 *492:X 0.000488545
3 *654:A resp_msg[0] 0
4 *654:A *489:A 3.67528e-06
5 *654:A *818:A 0
6 *492:A *654:A 7.3728e-05
*RES
1 *492:X *654:A 37.1186 
*END

*D_NET *242 0.00117069
*CONN
*I *650:A I *D sky130_fd_sc_hd__nand2_1
*I *491:X O *D sky130_fd_sc_hd__clkdlybuf4s50_1
*CAP
1 *650:A 0.000385795
2 *491:X 0.000385795
3 *650:A resp_msg[1] 0
4 *650:A *514:A1 0
5 *650:A *354:57 0.000324151
6 *491:A *650:A 7.49459e-05
*RES
1 *491:X *650:A 36.599 
*END

*D_NET *105 0.00043636
*CONN
*P req_msg[0] I
*I *592:A I *D sky130_fd_sc_hd__dlymetal6s2s_1
*CAP
1 req_msg[0] 0.00021818
2 *592:A 0.00021818
3 *592:A *682:CLK 0
*RES
1 req_msg[0] *592:A 19.5267 
*END

*D_NET *103 0.00107658
*CONN
*P req_msg[10] I
*I *589:A I *D sky130_fd_sc_hd__clkdlybuf4s50_1
*CAP
1 req_msg[10] 0.000525618
2 *589:A 0.000525618
3 *589:A *813:A 2.53453e-05
4 *589:A *351:194 0
*RES
1 req_msg[10] *589:A 19.1822 
*END

*D_NET *97 0.000818247
*CONN
*P req_msg[11] I
*I *579:A I *D sky130_fd_sc_hd__clkdlybuf4s50_1
*CAP
1 req_msg[11] 0.000366559
2 *579:A 0.000366559
3 *579:A resp_msg[11] 0
4 *579:A *499:B 2.7837e-05
5 *579:A *820:A 4.86647e-05
6 *579:A *420:44 8.62625e-06
*RES
1 req_msg[11] *579:A 23.6253 
*END

*D_NET *91 0.000852305
*CONN
*P req_msg[12] I
*I *573:A I *D sky130_fd_sc_hd__clkdlybuf4s50_1
*CAP
1 req_msg[12] 0.000344604
2 *573:A 0.000344604
3 *573:A *497:A1 2.41274e-06
4 *573:A *593:A 0
5 *573:A *802:A 0.000160685
6 *573:A *821:A 0
*RES
1 req_msg[12] *573:A 23.6253 
*END

*D_NET *78 0.000659394
*CONN
*P req_msg[13] I
*I *560:A I *D sky130_fd_sc_hd__clkdlybuf4s50_1
*CAP
1 req_msg[13] 0.000329697
2 *560:A 0.000329697
*RES
1 req_msg[13] *560:A 22.3473 
*END

*D_NET *60 0.000308408
*CONN
*P req_msg[14] I
*I *541:A I *D sky130_fd_sc_hd__clkdlybuf4s50_1
*CAP
1 req_msg[14] 0.000154204
2 *541:A 0.000154204
3 *541:A resp_msg[14] 0
*RES
1 req_msg[14] *541:A 19.3737 
*END

*D_NET *28 0.000481436
*CONN
*P req_msg[15] I
*I *495:A I *D sky130_fd_sc_hd__dlymetal6s2s_1
*CAP
1 req_msg[15] 0.000196573
2 *495:A 0.000196573
3 *495:A req_rdy 8.82897e-05
4 *495:A *409:12 0
*RES
1 req_msg[15] *495:A 20.2807 
*END

*D_NET *26 0.0016719
*CONN
*P req_msg[16] I
*I *492:A I *D sky130_fd_sc_hd__clkdlybuf4s50_1
*CAP
1 req_msg[16] 0.000509016
2 *492:A 0.000509016
3 *492:A *654:A 7.3728e-05
4 *492:A *793:A 0.000461976
5 *491:A *492:A 0.000118166
*RES
1 req_msg[16] *492:A 28.5099 
*END

*D_NET *25 0.000849204
*CONN
*P req_msg[17] I
*I *491:A I *D sky130_fd_sc_hd__clkdlybuf4s50_1
*CAP
1 req_msg[17] 0.000314047
2 *491:A 0.000314047
3 *491:A resp_msg[1] 2.79993e-05
4 *491:A *492:A 0.000118166
5 *491:A *650:A 7.49459e-05
*RES
1 req_msg[17] *491:A 22.8004 
*END

*D_NET *289 0.000536167
*CONN
*P req_msg[18] I
*I *791:A I *D sky130_fd_sc_hd__clkdlybuf4s50_1
*CAP
1 req_msg[18] 0.000111226
2 *791:A 0.000111226
3 *791:A resp_msg[2] 0.000122592
4 *791:A *806:A 0.000126065
5 *824:A *791:A 6.50586e-05
*RES
1 req_msg[18] *791:A 18.9182 
*END

*D_NET *290 0.00128534
*CONN
*P req_msg[19] I
*I *792:A I *D sky130_fd_sc_hd__clkdlybuf4s50_1
*CAP
1 req_msg[19] 0.000330058
2 *792:A 0.000330058
3 *792:A *807:A 0.000120539
4 *792:A *808:A 0.000178344
5 *644:A *792:A 2.65831e-05
6 *824:A *792:A 0.000228593
7 *827:A *792:A 7.11596e-05
*RES
1 req_msg[19] *792:A 25.0724 
*END

*D_NET *291 0.00102
*CONN
*P req_msg[1] I
*I *793:A I *D sky130_fd_sc_hd__clkdlybuf4s50_1
*CAP
1 req_msg[1] 0.000271821
2 *793:A 0.000271821
3 *793:A resp_msg[0] 0
4 *492:A *793:A 0.000461976
5 *514:A1 *793:A 1.43848e-05
*RES
1 req_msg[1] *793:A 23.1496 
*END

*D_NET *292 0.00241643
*CONN
*P req_msg[20] I
*I *794:A I *D sky130_fd_sc_hd__clkdlybuf4s50_1
*CAP
1 req_msg[20] 0.00120373
2 *794:A 0
3 *292:15 0.00120373
4 *292:15 *808:A 8.95978e-06
5 *637:A *292:15 0
6 *708:D *292:15 0
7 *196:14 *292:15 0
*RES
1 req_msg[20] *292:15 44.2068 
2 *292:15 *794:A 9.24915 
*END

*D_NET *293 0.00101685
*CONN
*P req_msg[21] I
*I *795:A I *D sky130_fd_sc_hd__clkdlybuf4s50_1
*CAP
1 req_msg[21] 0.000393319
2 *795:A 0.000393319
3 *795:A resp_msg[3] 0
4 *795:A resp_msg[5] 0
5 *795:A *708:CLK 9.20398e-05
6 *511:A1 *795:A 0.000138167
*RES
1 req_msg[21] *795:A 24.5213 
*END

*D_NET *294 0.00137465
*CONN
*P req_msg[22] I
*I *796:A I *D sky130_fd_sc_hd__clkdlybuf4s50_1
*CAP
1 req_msg[22] 0.000567907
2 *796:A 0.000567907
3 *796:A resp_msg[6] 0.000185445
4 *796:A *633:S 5.33945e-05
5 *796:A *797:A 0
6 *632:A *796:A 0
7 *830:A *796:A 0
8 *281:8 *796:A 0
*RES
1 req_msg[22] *796:A 23.1219 
*END

*D_NET *295 0.00103347
*CONN
*P req_msg[23] I
*I *797:A I *D sky130_fd_sc_hd__clkdlybuf4s50_1
*CAP
1 req_msg[23] 0.00038453
2 *797:A 0.00038453
3 *797:A *811:A 0.000244393
4 *796:A *797:A 0
5 *281:8 *797:A 2.00158e-05
*RES
1 req_msg[23] *797:A 19.3081 
*END

*D_NET *296 0.00101708
*CONN
*P req_msg[24] I
*I *798:A I *D sky130_fd_sc_hd__clkdlybuf4s50_1
*CAP
1 req_msg[24] 0.000411172
2 *798:A 0.000411172
3 *798:A resp_msg[7] 0.000151367
4 *798:A resp_msg[8] 4.33711e-05
*RES
1 req_msg[24] *798:A 19.3846 
*END

*D_NET *297 0.0007293
*CONN
*P req_msg[25] I
*I *799:A I *D sky130_fd_sc_hd__clkdlybuf4s50_1
*CAP
1 req_msg[25] 0.000231571
2 *799:A 0.000231571
3 *799:A *800:A 0.000266158
4 *799:A *801:A 0
*RES
1 req_msg[25] *799:A 21.2731 
*END

*D_NET *298 0.000981629
*CONN
*P req_msg[26] I
*I *800:A I *D sky130_fd_sc_hd__clkdlybuf4s50_1
*CAP
1 req_msg[26] 0.000357736
2 *800:A 0.000357736
3 *800:A *801:A 0
4 *799:A *800:A 0.000266158
*RES
1 req_msg[26] *800:A 24.2096 
*END

*D_NET *299 0.00118548
*CONN
*P req_msg[27] I
*I *801:A I *D sky130_fd_sc_hd__clkdlybuf4s50_1
*CAP
1 req_msg[27] 0.000394906
2 *801:A 0.000394906
3 *801:A resp_msg[11] 0
4 *801:A *683:CLK 0.00011818
5 *597:A *801:A 0.000277488
6 *799:A *801:A 0
7 *800:A *801:A 0
*RES
1 req_msg[27] *801:A 25.2891 
*END

*D_NET *300 0.000562044
*CONN
*P req_msg[28] I
*I *802:A I *D sky130_fd_sc_hd__clkdlybuf4s50_1
*CAP
1 req_msg[28] 0.000184931
2 *802:A 0.000184931
3 *802:A resp_msg[12] 0
4 *573:A *802:A 0.000160685
5 *593:A *802:A 3.14978e-05
*RES
1 req_msg[28] *802:A 20.1639 
*END

*D_NET *301 0.000374304
*CONN
*P req_msg[29] I
*I *803:A I *D sky130_fd_sc_hd__clkdlybuf4s50_1
*CAP
1 req_msg[29] 0.000187152
2 *803:A 0.000187152
*RES
1 req_msg[29] *803:A 18.0952 
*END

*D_NET *302 0.000416429
*CONN
*P req_msg[2] I
*I *804:A I *D sky130_fd_sc_hd__clkdlybuf4s50_1
*CAP
1 req_msg[2] 0.000208215
2 *804:A 0.000208215
3 *804:A resp_msg[1] 0
*RES
1 req_msg[2] *804:A 18.9182 
*END

*D_NET *303 0.00147962
*CONN
*P req_msg[30] I
*I *805:A I *D sky130_fd_sc_hd__clkdlybuf4s50_1
*CAP
1 req_msg[30] 0.000558543
2 *805:A 0.000558543
3 *805:A *814:A 6.32884e-05
4 *805:A *815:A 0.000213898
5 *805:A *816:A 8.53474e-05
6 *660:B2 *805:A 0
7 *268:10 *805:A 0
*RES
1 req_msg[30] *805:A 28.8152 
*END

*D_NET *304 0.00147594
*CONN
*P req_msg[31] I
*I *806:A I *D sky130_fd_sc_hd__clkdlybuf4s50_1
*CAP
1 req_msg[31] 0.00037707
2 *806:A 0.00037707
3 *806:A resp_msg[15] 9.71912e-05
4 *806:A resp_msg[2] 0
5 *806:A *354:57 0.0002817
6 *806:A *354:113 0.000208218
7 *648:A1 *806:A 8.62625e-06
8 *791:A *806:A 0.000126065
*RES
1 req_msg[31] *806:A 27.0923 
*END

*D_NET *305 0.0010569
*CONN
*P req_msg[3] I
*I *807:A I *D sky130_fd_sc_hd__clkdlybuf4s50_1
*CAP
1 req_msg[3] 0.000305698
2 *807:A 0.000305698
3 *807:A resp_msg[3] 9.22857e-05
4 *807:A *354:144 0.000107496
5 *807:A *459:20 1.55462e-05
6 *643:B1 *807:A 9.04224e-05
7 *644:A *807:A 0
8 *645:A1 *807:A 1.92172e-05
9 *792:A *807:A 0.000120539
10 *827:A *807:A 0
*RES
1 req_msg[3] *807:A 23.2101 
*END

*D_NET *306 0.00127753
*CONN
*P req_msg[4] I
*I *808:A I *D sky130_fd_sc_hd__clkdlybuf4s50_1
*CAP
1 req_msg[4] 0.000403607
2 *808:A 0.000403607
3 *808:A resp_msg[3] 0.000213739
4 *792:A *808:A 0.000178344
5 *827:A *808:A 6.92705e-05
6 *292:15 *808:A 8.95978e-06
*RES
1 req_msg[4] *808:A 25.1823 
*END

*D_NET *307 0.000953976
*CONN
*P req_msg[5] I
*I *809:A I *D sky130_fd_sc_hd__clkdlybuf4s50_1
*CAP
1 req_msg[5] 0.000476988
2 *809:A 0.000476988
3 *809:A resp_msg[4] 0
4 *809:A *710:DE 0
*RES
1 req_msg[5] *809:A 18.9694 
*END

*D_NET *308 0.00119122
*CONN
*P req_msg[6] I
*I *810:A I *D sky130_fd_sc_hd__clkdlybuf4s50_1
*CAP
1 req_msg[6] 0.00039897
2 *810:A 0.00039897
3 *810:A resp_msg[6] 3.10629e-05
4 *509:A1 *810:A 0.000362216
*RES
1 req_msg[6] *810:A 26.4735 
*END

*D_NET *309 0.00171753
*CONN
*P req_msg[7] I
*I *811:A I *D sky130_fd_sc_hd__clkdlybuf4s50_1
*CAP
1 req_msg[7] 0.000537544
2 *811:A 0.000537544
3 *811:A resp_msg[7] 0.000198544
4 *811:A *509:S 3.97785e-05
5 *508:A1 *811:A 6.27782e-05
6 *628:A *811:A 6.08467e-05
7 *632:B *811:A 3.61045e-05
8 *797:A *811:A 0.000244393
*RES
1 req_msg[7] *811:A 20.1517 
*END

*D_NET *310 0.00142986
*CONN
*P req_msg[8] I
*I *812:A I *D sky130_fd_sc_hd__clkdlybuf4s50_1
*CAP
1 req_msg[8] 0.0005869
2 *812:A 0.0005869
3 *812:A resp_msg[10] 0.000185438
4 *812:A resp_msg[9] 6.93881e-06
5 *812:A *833:A 6.3684e-05
*RES
1 req_msg[8] *812:A 19.6906 
*END

*D_NET *311 0.00276959
*CONN
*P req_msg[9] I
*I *813:A I *D sky130_fd_sc_hd__clkdlybuf4s50_1
*CAP
1 req_msg[9] 0.000972348
2 *813:A 0.000972348
3 *813:A *451:10 0.000702478
4 *504:A1 *813:A 9.70711e-05
5 *589:A *813:A 2.53453e-05
*RES
1 req_msg[9] *813:A 42.3385 
*END

*D_NET *315 0.00077628
*CONN
*P req_rdy O
*I *817:X O *D sky130_fd_sc_hd__clkdlybuf4s15_1
*CAP
1 req_rdy 0.000324271
2 *817:X 0.000324271
3 req_rdy resp_val 1.66356e-05
4 req_rdy *409:12 2.28129e-05
5 *495:A req_rdy 8.82897e-05
*RES
1 *817:X req_rdy 19.1551 
*END

*D_NET *312 0.000423621
*CONN
*P req_val I
*I *814:A I *D sky130_fd_sc_hd__dlygate4sd2_1
*CAP
1 req_val 0.000143032
2 *814:A 0.000143032
3 *814:A *815:A 7.42679e-05
4 *805:A *814:A 6.32884e-05
*RES
1 req_val *814:A 20.2042 
*END

*D_NET *313 0.000711939
*CONN
*P reset I
*I *815:A I *D sky130_fd_sc_hd__clkdlybuf4s50_1
*CAP
1 reset 0.000211886
2 *815:A 0.000211886
3 *805:A *815:A 0.000213898
4 *814:A *815:A 7.42679e-05
*RES
1 reset *815:A 21.2642 
*END

*D_NET *316 0.00100979
*CONN
*P resp_msg[0] O
*I *818:X O *D sky130_fd_sc_hd__buf_2
*CAP
1 resp_msg[0] 0.000474488
2 *818:X 0.000474488
3 *514:A1 resp_msg[0] 0
4 *654:A resp_msg[0] 0
5 *793:A resp_msg[0] 0
6 *818:A resp_msg[0] 6.08167e-05
*RES
1 *818:X resp_msg[0] 23.6281 
*END

*D_NET *317 0.00086006
*CONN
*P resp_msg[10] O
*I *819:X O *D sky130_fd_sc_hd__dlygate4sd2_1
*CAP
1 resp_msg[10] 0.000337311
2 *819:X 0.000337311
3 *812:A resp_msg[10] 0.000185438
*RES
1 *819:X resp_msg[10] 19.9092 
*END

*D_NET *318 0.000839854
*CONN
*P resp_msg[11] O
*I *820:X O *D sky130_fd_sc_hd__buf_2
*CAP
1 resp_msg[11] 0.000412734
2 *820:X 0.000412734
3 *579:A resp_msg[11] 0
4 *801:A resp_msg[11] 0
5 *820:A resp_msg[11] 1.43848e-05
*RES
1 *820:X resp_msg[11] 21.6912 
*END

*D_NET *319 0.000708625
*CONN
*P resp_msg[12] O
*I *821:X O *D sky130_fd_sc_hd__dlymetal6s2s_1
*CAP
1 resp_msg[12] 0.000280441
2 *821:X 0.000280441
3 resp_msg[12] resp_msg[13] 0
4 *802:A resp_msg[12] 0
5 *821:A resp_msg[12] 0.000147742
*RES
1 *821:X resp_msg[12] 21.2731 
*END

*D_NET *320 0.000800382
*CONN
*P resp_msg[13] O
*I *822:X O *D sky130_fd_sc_hd__buf_2
*CAP
1 resp_msg[13] 0.000400191
2 *822:X 0.000400191
3 resp_msg[12] resp_msg[13] 0
4 *821:A resp_msg[13] 0
*RES
1 *822:X resp_msg[13] 22.7948 
*END

*D_NET *321 0.0010349
*CONN
*P resp_msg[14] O
*I *823:X O *D sky130_fd_sc_hd__buf_2
*CAP
1 resp_msg[14] 0.000493634
2 *823:X 0.000493634
3 resp_msg[14] *424:68 4.76318e-05
4 *541:A resp_msg[14] 0
*RES
1 *823:X resp_msg[14] 20.5211 
*END

*D_NET *322 0.000594039
*CONN
*P resp_msg[15] O
*I *824:X O *D sky130_fd_sc_hd__buf_2
*CAP
1 resp_msg[15] 0.000227103
2 *824:X 0.000227103
3 *806:A resp_msg[15] 9.71912e-05
4 *824:A resp_msg[15] 4.26431e-05
*RES
1 *824:X resp_msg[15] 19.1969 
*END

*D_NET *323 0.00125328
*CONN
*P resp_msg[1] O
*I *825:X O *D sky130_fd_sc_hd__buf_2
*CAP
1 resp_msg[1] 0.000578275
2 *825:X 0.000578275
3 resp_msg[1] *354:57 5.03033e-05
4 *491:A resp_msg[1] 2.79993e-05
5 *513:A1 resp_msg[1] 0
6 *650:A resp_msg[1] 0
7 *804:A resp_msg[1] 0
8 *825:A resp_msg[1] 1.84293e-05
*RES
1 *825:X resp_msg[1] 26.2029 
*END

*D_NET *324 0.000894098
*CONN
*P resp_msg[2] O
*I *826:X O *D sky130_fd_sc_hd__buf_2
*CAP
1 resp_msg[2] 0.000349307
2 *826:X 0.000349307
3 *647:A resp_msg[2] 0
4 *648:B1 resp_msg[2] 7.28922e-05
5 *791:A resp_msg[2] 0.000122592
6 *806:A resp_msg[2] 0
*RES
1 *826:X resp_msg[2] 22.5189 
*END

*D_NET *325 0.000825139
*CONN
*P resp_msg[3] O
*I *827:X O *D sky130_fd_sc_hd__buf_2
*CAP
1 resp_msg[3] 0.000259557
2 *827:X 0.000259557
3 *795:A resp_msg[3] 0
4 *807:A resp_msg[3] 9.22857e-05
5 *808:A resp_msg[3] 0.000213739
*RES
1 *827:X resp_msg[3] 19.7515 
*END

*D_NET *326 0.00102238
*CONN
*P resp_msg[4] O
*I *828:X O *D sky130_fd_sc_hd__dlymetal6s2s_1
*CAP
1 resp_msg[4] 0.000511192
2 *828:X 0.000511192
3 *809:A resp_msg[4] 0
*RES
1 *828:X resp_msg[4] 27.722 
*END

*D_NET *327 0.00114667
*CONN
*P resp_msg[5] O
*I *829:X O *D sky130_fd_sc_hd__buf_2
*CAP
1 resp_msg[5] 0.000467687
2 *829:X 0.000467687
3 resp_msg[5] *708:DE 5.25043e-05
4 resp_msg[5] *708:CLK 5.54078e-05
5 resp_msg[5] *354:157 4.91225e-06
6 *512:A1 resp_msg[5] 5.04829e-06
7 *637:A resp_msg[5] 6.73186e-05
8 *795:A resp_msg[5] 0
9 *829:A resp_msg[5] 2.61012e-05
*RES
1 *829:X resp_msg[5] 24.1827 
*END

*D_NET *328 0.000675771
*CONN
*P resp_msg[6] O
*I *830:X O *D sky130_fd_sc_hd__dlymetal6s2s_1
*CAP
1 resp_msg[6] 0.000219549
2 *830:X 0.000219549
3 *796:A resp_msg[6] 0.000185445
4 *810:A resp_msg[6] 3.10629e-05
5 *830:A resp_msg[6] 2.01653e-05
*RES
1 *830:X resp_msg[6] 18.1717 
*END

*D_NET *329 0.00215868
*CONN
*P resp_msg[7] O
*I *831:X O *D sky130_fd_sc_hd__buf_2
*CAP
1 resp_msg[7] 0.000872162
2 *831:X 0.000872162
3 resp_msg[7] *354:228 4.22958e-05
4 *798:A resp_msg[7] 0.000151367
5 *811:A resp_msg[7] 0.000198544
6 *183:25 resp_msg[7] 2.21495e-05
*RES
1 *831:X resp_msg[7] 21.4988 
*END

*D_NET *330 0.00087665
*CONN
*P resp_msg[8] O
*I *832:X O *D sky130_fd_sc_hd__buf_2
*CAP
1 resp_msg[8] 0.000416639
2 *832:X 0.000416639
3 resp_msg[8] resp_msg[9] 0
4 resp_msg[8] *351:202 0
5 *798:A resp_msg[8] 4.33711e-05
*RES
1 *832:X resp_msg[8] 18.614 
*END

*D_NET *331 0.00089573
*CONN
*P resp_msg[9] O
*I *833:X O *D sky130_fd_sc_hd__buf_2
*CAP
1 resp_msg[9] 0.000444395
2 *833:X 0.000444395
3 resp_msg[8] resp_msg[9] 0
4 *812:A resp_msg[9] 6.93881e-06
*RES
1 *833:X resp_msg[9] 23.2852 
*END

*D_NET *314 0.00032766
*CONN
*P resp_rdy I
*I *816:A I *D sky130_fd_sc_hd__clkdlybuf4s50_1
*CAP
1 resp_rdy 8.81375e-05
2 *816:A 8.81375e-05
3 *816:A resp_val 6.60377e-05
4 *661:A *816:A 0
5 *805:A *816:A 8.53474e-05
*RES
1 resp_rdy *816:A 18.2045 
*END

*D_NET *332 0.00165014
*CONN
*P resp_val O
*I *834:X O *D sky130_fd_sc_hd__clkbuf_2
*CAP
1 resp_val 0.000780779
2 *834:X 0.000780779
3 resp_val *670:A 1.21461e-06
4 req_rdy resp_val 1.66356e-05
5 *660:B2 resp_val 0
6 *661:A resp_val 0
7 *816:A resp_val 6.60377e-05
8 *268:10 resp_val 4.69326e-06
*RES
1 *834:X resp_val 29.4461 
*END
