*SPEF "ieee 1481-1999"
*DESIGN "gcd"
*DATE "05:38:45 Friday October 09, 2026"
*VENDOR "The OpenROAD Project"
*PROGRAM "OpenROAD"
*VERSION "unknown"
*DESIGN_FLOW "NAME_SCOPE LOCAL" "PIN_CAP NONE"
*DIVIDER /
*DELIMITER :
*BUS_DELIMITER []
*T_UNIT 1 NS
*C_UNIT 1 PF
*R_UNIT 1 OHM
*L_UNIT 1 HENRY

*NAME_MAP
*1 _000_
*2 _001_
*3 _002_
*4 _003_
*5 _004_
*6 _005_
*7 _006_
*8 _007_
*9 _008_
*10 _009_
*11 _010_
*12 _011_
*13 _012_
*14 _013_
*15 _014_
*16 _015_
*17 _016_
*18 _017_
*19 _018_
*20 _019_
*21 _020_
*22 _021_
*23 _022_
*24 _023_
*27 _026_
*29 _028_
*30 _029_
*31 _030_
*32 _031_
*33 _032_
*34 _033_
*35 _034_
*36 _035_
*37 _036_
*38 _037_
*39 _038_
*40 _039_
*41 _040_
*42 _041_
*43 _042_
*44 _043_
*45 _044_
*46 _045_
*47 _046_
*48 _047_
*49 _048_
*50 _049_
*51 _050_
*52 _051_
*53 _052_
*54 _053_
*55 _054_
*56 _055_
*57 _056_
*58 _057_
*59 _058_
*61 _060_
*62 _061_
*63 _062_
*64 _063_
*65 _064_
*66 _065_
*67 _066_
*68 _067_
*69 _068_
*70 _069_
*71 _070_
*72 _071_
*73 _072_
*74 _073_
*75 _074_
*76 _075_
*77 _076_
*79 _078_
*80 _079_
*81 _080_
*82 _081_
*83 _082_
*84 _083_
*85 _084_
*86 _085_
*87 _086_
*88 _087_
*89 _088_
*90 _089_
*92 _091_
*93 _092_
*94 _093_
*95 _094_
*96 _095_
*98 _097_
*99 _098_
*100 _099_
*101 _100_
*102 _101_
*104 _103_
*106 _105_
*107 _106_
*108 _107_
*109 _108_
*110 _109_
*111 _110_
*112 _111_
*113 _112_
*114 _113_
*115 _114_
*116 _115_
*117 _116_
*118 _117_
*119 _118_
*120 _119_
*121 _120_
*122 _121_
*123 _122_
*124 _123_
*125 _124_
*126 _125_
*127 _126_
*128 _127_
*129 _128_
*130 _129_
*131 _130_
*132 _131_
*133 _132_
*134 _133_
*135 _134_
*136 _135_
*137 _136_
*138 _137_
*139 _138_
*140 _139_
*141 _140_
*142 _141_
*143 _142_
*144 _143_
*145 _144_
*146 _145_
*147 _146_
*148 _147_
*149 _148_
*150 _149_
*151 _150_
*152 _151_
*153 _152_
*154 _153_
*155 _154_
*156 _155_
*157 _156_
*158 _157_
*159 _158_
*160 _159_
*161 _160_
*162 _161_
*163 _162_
*164 _163_
*165 clk
*413 clknet_0_clk
*412 clknet_2_0__leaf_clk
*410 clknet_2_1__leaf_clk
*424 clknet_2_2__leaf_clk
*425 clknet_2_3__leaf_clk
*166 ctrl\$a_reg_en\[0\]
*167 ctrl\$b_reg_en\[0\]
*168 ctrl\.state\.out\[1\]
*169 ctrl\.state\.out\[2\]
*170 dpath\.a_lt_b\$in0\[0\]
*171 dpath\.a_lt_b\$in0\[10\]
*172 dpath\.a_lt_b\$in0\[11\]
*173 dpath\.a_lt_b\$in0\[12\]
*174 dpath\.a_lt_b\$in0\[13\]
*175 dpath\.a_lt_b\$in0\[14\]
*176 dpath\.a_lt_b\$in0\[15\]
*177 dpath\.a_lt_b\$in0\[1\]
*178 dpath\.a_lt_b\$in0\[2\]
*179 dpath\.a_lt_b\$in0\[3\]
*180 dpath\.a_lt_b\$in0\[4\]
*181 dpath\.a_lt_b\$in0\[5\]
*182 dpath\.a_lt_b\$in0\[6\]
*183 dpath\.a_lt_b\$in0\[7\]
*184 dpath\.a_lt_b\$in0\[8\]
*185 dpath\.a_lt_b\$in0\[9\]
*186 dpath\.a_lt_b\$in1\[0\]
*187 dpath\.a_lt_b\$in1\[10\]
*188 dpath\.a_lt_b\$in1\[11\]
*189 dpath\.a_lt_b\$in1\[12\]
*190 dpath\.a_lt_b\$in1\[13\]
*191 dpath\.a_lt_b\$in1\[14\]
*192 dpath\.a_lt_b\$in1\[15\]
*193 dpath\.a_lt_b\$in1\[1\]
*194 dpath\.a_lt_b\$in1\[2\]
*195 dpath\.a_lt_b\$in1\[3\]
*196 dpath\.a_lt_b\$in1\[4\]
*197 dpath\.a_lt_b\$in1\[5\]
*198 dpath\.a_lt_b\$in1\[6\]
*199 dpath\.a_lt_b\$in1\[7\]
*200 dpath\.a_lt_b\$in1\[8\]
*201 dpath\.a_lt_b\$in1\[9\]
*202 dpath\.a_mux\$out\[0\]
*203 dpath\.a_mux\$out\[10\]
*204 dpath\.a_mux\$out\[11\]
*205 dpath\.a_mux\$out\[12\]
*206 dpath\.a_mux\$out\[13\]
*207 dpath\.a_mux\$out\[14\]
*208 dpath\.a_mux\$out\[15\]
*209 dpath\.a_mux\$out\[1\]
*210 dpath\.a_mux\$out\[2\]
*211 dpath\.a_mux\$out\[3\]
*212 dpath\.a_mux\$out\[4\]
*213 dpath\.a_mux\$out\[5\]
*214 dpath\.a_mux\$out\[6\]
*215 dpath\.a_mux\$out\[7\]
*216 dpath\.a_mux\$out\[8\]
*217 dpath\.a_mux\$out\[9\]
*218 dpath\.b_mux\$out\[0\]
*219 dpath\.b_mux\$out\[10\]
*220 dpath\.b_mux\$out\[11\]
*221 dpath\.b_mux\$out\[12\]
*222 dpath\.b_mux\$out\[13\]
*223 dpath\.b_mux\$out\[14\]
*224 dpath\.b_mux\$out\[15\]
*225 dpath\.b_mux\$out\[1\]
*226 dpath\.b_mux\$out\[2\]
*227 dpath\.b_mux\$out\[3\]
*228 dpath\.b_mux\$out\[4\]
*229 dpath\.b_mux\$out\[5\]
*230 dpath\.b_mux\$out\[6\]
*231 dpath\.b_mux\$out\[7\]
*232 dpath\.b_mux\$out\[8\]
*233 dpath\.b_mux\$out\[9\]
*234 net1
*243 net10
*244 net11
*245 net12
*246 net13
*414 net135
*335 net136
*336 net137
*334 net138
*333 net139
*247 net14
*415 net140
*416 net141
*338 net142
*337 net143
*339 net144
*340 net145
*417 net146
*418 net147
*248 net15
*344 net150
*345 net151
*342 net152
*346 net154
*347 net156
*348 net157
*349 net158
*350 net159
*249 net16
*351 net160
*352 net161
*353 net162
*354 net163
*355 net164
*421 net165
*357 net166
*358 net167
*356 net168
*359 net169
*250 net17
*360 net170
*361 net171
*362 net172
*363 net173
*364 net174
*365 net175
*366 net176
*367 net177
*368 net178
*422 net179
*251 net18
*369 net180
*370 net181
*371 net182
*372 net183
*374 net185
*375 net186
*378 net187
*380 net188
*381 net189
*252 net19
*379 net190
*383 net191
*384 net192
*385 net193
*387 net195
*388 net196
*382 net197
*390 net198
*389 net199
*235 net2
*253 net20
*392 net200
*391 net201
*393 net202
*394 net203
*395 net204
*396 net205
*397 net206
*377 net208
*399 net209
*254 net21
*400 net210
*403 net213
*404 net214
*376 net215
*405 net216
*406 net217
*408 net219
*255 net22
*409 net220
*423 net221
*411 net222
*426 net223
*427 net224
*428 net225
*432 net229
*256 net23
*433 net230
*257 net24
*258 net25
*259 net26
*436 net261
*434 net263
*260 net27
*261 net28
*262 net29
*236 net3
*263 net30
*264 net31
*265 net32
*341 net327
*438 net328
*439 net329
*267 net33
*440 net330
*442 net333
*343 net337
*268 net34
*285 net35
*266 net36
*269 net37
*270 net38
*271 net39
*444 net394
*431 net395
*445 net399
*237 net4
*272 net40
*446 net401
*447 net402
*448 net403
*449 net404
*386 net407
*451 net409
*273 net41
*452 net412
*453 net413
*454 net414
*455 net415
*456 net416
*457 net417
*274 net42
*459 net421
*460 net422
*401 net423
*461 net424
*462 net425
*463 net426
*464 net427
*465 net428
*275 net43
*466 net430
*430 net433
*435 net434
*441 net435
*467 net436
*276 net44
*277 net45
*419 net457
*278 net46
*279 net47
*437 net479
*280 net48
*420 net481
*281 net49
*450 net497
*373 net498
*238 net5
*282 net50
*458 net500
*402 net501
*283 net51
*284 net52
*286 net53
*239 net6
*240 net7
*241 net8
*242 net9
*105 req_msg[0]
*103 req_msg[10]
*97 req_msg[11]
*91 req_msg[12]
*78 req_msg[13]
*60 req_msg[14]
*28 req_msg[15]
*26 req_msg[16]
*25 req_msg[17]
*289 req_msg[18]
*290 req_msg[19]
*291 req_msg[1]
*292 req_msg[20]
*293 req_msg[21]
*294 req_msg[22]
*295 req_msg[23]
*296 req_msg[24]
*297 req_msg[25]
*298 req_msg[26]
*299 req_msg[27]
*300 req_msg[28]
*301 req_msg[29]
*302 req_msg[2]
*303 req_msg[30]
*304 req_msg[31]
*305 req_msg[3]
*306 req_msg[4]
*307 req_msg[5]
*308 req_msg[6]
*309 req_msg[7]
*310 req_msg[8]
*311 req_msg[9]
*315 req_rdy
*312 req_val
*313 reset
*316 resp_msg[0]
*317 resp_msg[10]
*318 resp_msg[11]
*319 resp_msg[12]
*320 resp_msg[13]
*321 resp_msg[14]
*322 resp_msg[15]
*323 resp_msg[1]
*324 resp_msg[2]
*325 resp_msg[3]
*326 resp_msg[4]
*327 resp_msg[5]
*328 resp_msg[6]
*329 resp_msg[7]
*330 resp_msg[8]
*331 resp_msg[9]
*314 resp_rdy
*332 resp_val
*913 FILLER_0_0
*985 FILLER_0_115
*986 FILLER_0_119
*987 FILLER_0_121
*988 FILLER_0_133
*989 FILLER_0_138
*990 FILLER_0_146
*991 FILLER_0_151
*992 FILLER_0_159
*938 FILLER_0_16
*993 FILLER_0_167
*994 FILLER_0_171
*995 FILLER_0_173
*952 FILLER_0_24
*977 FILLER_0_28
*978 FILLER_0_31
*979 FILLER_0_33
*980 FILLER_0_42
*981 FILLER_0_59
*982 FILLER_0_69
*983 FILLER_0_71
*904 FILLER_0_8
*984 FILLER_0_88
*1125 FILLER_10_0
*1126 FILLER_10_11
*1131 FILLER_10_118
*1132 FILLER_10_126
*1127 FILLER_10_13
*1133 FILLER_10_142
*1134 FILLER_10_158
*1135 FILLER_10_166
*1128 FILLER_10_66
*1129 FILLER_10_73
*1130 FILLER_10_89
*1142 FILLER_11_107
*1137 FILLER_11_38
*1138 FILLER_11_55
*1139 FILLER_11_59
*1140 FILLER_11_67
*1141 FILLER_11_69
*1136 FILLER_11_8
*1143 FILLER_12_0
*1149 FILLER_12_101
*1150 FILLER_12_103
*1151 FILLER_12_171
*1152 FILLER_12_173
*1144 FILLER_12_24
*1145 FILLER_12_28
*1146 FILLER_12_43
*1147 FILLER_12_88
*1148 FILLER_12_97
*1158 FILLER_13_113
*1159 FILLER_13_133
*1160 FILLER_13_137
*1161 FILLER_13_139
*1162 FILLER_13_153
*1163 FILLER_13_171
*1164 FILLER_13_173
*1154 FILLER_13_40
*1155 FILLER_13_50
*1156 FILLER_13_61
*1153 FILLER_13_8
*1157 FILLER_13_87
*1165 FILLER_14_0
*1167 FILLER_14_11
*1175 FILLER_14_113
*1168 FILLER_14_15
*1176 FILLER_14_164
*1177 FILLER_14_173
*1166 FILLER_14_2
*1169 FILLER_14_28
*1170 FILLER_14_34
*1171 FILLER_14_61
*1172 FILLER_14_74
*1173 FILLER_14_87
*1174 FILLER_14_89
*1178 FILLER_15_0
*1185 FILLER_15_109
*1186 FILLER_15_116
*1187 FILLER_15_121
*1188 FILLER_15_129
*1189 FILLER_15_167
*1190 FILLER_15_171
*1191 FILLER_15_173
*1181 FILLER_15_29
*1179 FILLER_15_4
*1182 FILLER_15_46
*1180 FILLER_15_6
*1183 FILLER_15_76
*1184 FILLER_15_89
*1192 FILLER_16_0
*1202 FILLER_16_115
*1203 FILLER_16_125
*1204 FILLER_16_159
*1205 FILLER_16_165
*1206 FILLER_16_173
*1193 FILLER_16_2
*1194 FILLER_16_20
*1195 FILLER_16_22
*1196 FILLER_16_31
*1197 FILLER_16_43
*1198 FILLER_16_54
*1199 FILLER_16_58
*1200 FILLER_16_60
*1201 FILLER_16_66
*1211 FILLER_17_116
*1212 FILLER_17_121
*1213 FILLER_17_123
*1214 FILLER_17_133
*1215 FILLER_17_135
*1216 FILLER_17_170
*1207 FILLER_17_25
*1208 FILLER_17_27
*1209 FILLER_17_42
*1210 FILLER_17_50
*1224 FILLER_18_140
*1225 FILLER_18_164
*1219 FILLER_18_17
*1226 FILLER_18_172
*1220 FILLER_18_31
*1221 FILLER_18_38
*1217 FILLER_18_4
*1222 FILLER_18_46
*1218 FILLER_18_8
*1223 FILLER_18_91
*1227 FILLER_19_0
*1234 FILLER_19_113
*1235 FILLER_19_118
*1236 FILLER_19_126
*1237 FILLER_19_168
*1238 FILLER_19_172
*1229 FILLER_19_34
*1230 FILLER_19_44
*1231 FILLER_19_46
*1232 FILLER_19_55
*1228 FILLER_19_8
*1233 FILLER_19_94
*996 FILLER_1_0
*998 FILLER_1_10
*1010 FILLER_1_106
*1011 FILLER_1_110
*1012 FILLER_1_119
*1013 FILLER_1_121
*1014 FILLER_1_125
*1015 FILLER_1_161
*1016 FILLER_1_169
*1017 FILLER_1_173
*999 FILLER_1_39
*1000 FILLER_1_46
*1001 FILLER_1_50
*1002 FILLER_1_55
*1003 FILLER_1_59
*1004 FILLER_1_61
*1005 FILLER_1_65
*1006 FILLER_1_67
*1007 FILLER_1_72
*1008 FILLER_1_76
*997 FILLER_1_8
*1009 FILLER_1_90
*1239 FILLER_20_0
*1244 FILLER_20_111
*1240 FILLER_20_12
*1245 FILLER_20_123
*1246 FILLER_20_132
*1247 FILLER_20_155
*1241 FILLER_20_22
*1242 FILLER_20_29
*1243 FILLER_20_31
*1248 FILLER_21_0
*1250 FILLER_21_11
*1258 FILLER_21_113
*1259 FILLER_21_121
*1260 FILLER_21_149
*1251 FILLER_21_37
*1249 FILLER_21_4
*1252 FILLER_21_51
*1253 FILLER_21_53
*1254 FILLER_21_59
*1255 FILLER_21_61
*1256 FILLER_21_73
*1257 FILLER_21_75
*1261 FILLER_22_0
*1273 FILLER_22_151
*1274 FILLER_22_172
*1262 FILLER_22_21
*1263 FILLER_22_23
*1264 FILLER_22_31
*1265 FILLER_22_35
*1266 FILLER_22_48
*1267 FILLER_22_64
*1268 FILLER_22_70
*1269 FILLER_22_81
*1270 FILLER_22_85
*1271 FILLER_22_91
*1272 FILLER_22_95
*1275 FILLER_23_0
*1282 FILLER_23_119
*1277 FILLER_23_12
*1283 FILLER_23_121
*1278 FILLER_23_14
*1284 FILLER_23_149
*1279 FILLER_23_44
*1280 FILLER_23_48
*1276 FILLER_23_8
*1281 FILLER_23_85
*1285 FILLER_24_0
*1296 FILLER_24_100
*1287 FILLER_24_16
*1297 FILLER_24_171
*1298 FILLER_24_173
*1288 FILLER_24_24
*1289 FILLER_24_28
*1290 FILLER_24_55
*1291 FILLER_24_59
*1292 FILLER_24_66
*1293 FILLER_24_70
*1294 FILLER_24_72
*1286 FILLER_24_8
*1295 FILLER_24_91
*1299 FILLER_25_0
*1307 FILLER_25_119
*1308 FILLER_25_127
*1309 FILLER_25_131
*1310 FILLER_25_133
*1311 FILLER_25_140
*1312 FILLER_25_148
*1313 FILLER_25_156
*1301 FILLER_25_16
*1314 FILLER_25_164
*1315 FILLER_25_172
*1302 FILLER_25_24
*1303 FILLER_25_32
*1304 FILLER_25_36
*1305 FILLER_25_41
*1300 FILLER_25_8
*1306 FILLER_25_85
*1316 FILLER_26_0
*1327 FILLER_26_104
*1328 FILLER_26_136
*1329 FILLER_26_144
*1330 FILLER_26_148
*1331 FILLER_26_151
*1332 FILLER_26_159
*1318 FILLER_26_16
*1333 FILLER_26_167
*1334 FILLER_26_171
*1335 FILLER_26_173
*1319 FILLER_26_24
*1320 FILLER_26_28
*1321 FILLER_26_31
*1322 FILLER_26_39
*1323 FILLER_26_47
*1317 FILLER_26_8
*1324 FILLER_26_89
*1325 FILLER_26_91
*1326 FILLER_26_93
*1336 FILLER_27_0
*1349 FILLER_27_101
*1350 FILLER_27_110
*1351 FILLER_27_114
*1352 FILLER_27_119
*1353 FILLER_27_121
*1354 FILLER_27_155
*1338 FILLER_27_16
*1355 FILLER_27_163
*1356 FILLER_27_171
*1357 FILLER_27_173
*1339 FILLER_27_24
*1340 FILLER_27_32
*1341 FILLER_27_40
*1342 FILLER_27_50
*1343 FILLER_27_58
*1344 FILLER_27_61
*1345 FILLER_27_70
*1337 FILLER_27_8
*1346 FILLER_27_83
*1347 FILLER_27_91
*1348 FILLER_27_99
*1358 FILLER_28_0
*1374 FILLER_28_103
*1375 FILLER_28_125
*1376 FILLER_28_132
*1377 FILLER_28_140
*1378 FILLER_28_148
*1379 FILLER_28_151
*1380 FILLER_28_159
*1360 FILLER_28_16
*1381 FILLER_28_167
*1382 FILLER_28_171
*1383 FILLER_28_173
*1361 FILLER_28_24
*1362 FILLER_28_28
*1363 FILLER_28_31
*1364 FILLER_28_39
*1365 FILLER_28_47
*1366 FILLER_28_55
*1367 FILLER_28_59
*1368 FILLER_28_61
*1369 FILLER_28_66
*1359 FILLER_28_8
*1370 FILLER_28_85
*1371 FILLER_28_89
*1372 FILLER_28_91
*1373 FILLER_28_99
*1018 FILLER_2_0
*1026 FILLER_2_101
*1027 FILLER_2_134
*1028 FILLER_2_140
*1029 FILLER_2_148
*1030 FILLER_2_151
*1031 FILLER_2_159
*1020 FILLER_2_16
*1032 FILLER_2_167
*1033 FILLER_2_171
*1034 FILLER_2_173
*1021 FILLER_2_24
*1022 FILLER_2_28
*1023 FILLER_2_31
*1024 FILLER_2_63
*1019 FILLER_2_8
*1025 FILLER_2_86
*1035 FILLER_3_0
*1048 FILLER_3_153
*1037 FILLER_3_16
*1049 FILLER_3_161
*1050 FILLER_3_169
*1051 FILLER_3_173
*1038 FILLER_3_24
*1039 FILLER_3_28
*1040 FILLER_3_30
*1041 FILLER_3_38
*1042 FILLER_3_46
*1043 FILLER_3_52
*1044 FILLER_3_54
*1045 FILLER_3_58
*1046 FILLER_3_61
*1036 FILLER_3_8
*1047 FILLER_3_83
*1052 FILLER_4_0
*1057 FILLER_4_151
*1058 FILLER_4_159
*1059 FILLER_4_167
*1060 FILLER_4_171
*1061 FILLER_4_173
*1053 FILLER_4_24
*1054 FILLER_4_38
*1055 FILLER_4_54
*1056 FILLER_4_80
*1062 FILLER_5_0
*1064 FILLER_5_12
*1070 FILLER_5_127
*1071 FILLER_5_131
*1072 FILLER_5_136
*1073 FILLER_5_150
*1074 FILLER_5_158
*1075 FILLER_5_166
*1065 FILLER_5_48
*1066 FILLER_5_57
*1067 FILLER_5_59
*1068 FILLER_5_67
*1069 FILLER_5_76
*1063 FILLER_5_8
*1076 FILLER_6_0
*1082 FILLER_6_141
*1083 FILLER_6_151
*1084 FILLER_6_159
*1085 FILLER_6_167
*1077 FILLER_6_17
*1086 FILLER_6_171
*1087 FILLER_6_173
*1078 FILLER_6_25
*1079 FILLER_6_29
*1080 FILLER_6_89
*1081 FILLER_6_91
*1088 FILLER_7_0
*1099 FILLER_7_107
*1100 FILLER_7_128
*1090 FILLER_7_14
*1101 FILLER_7_162
*1102 FILLER_7_170
*1091 FILLER_7_25
*1092 FILLER_7_33
*1089 FILLER_7_4
*1093 FILLER_7_41
*1094 FILLER_7_45
*1095 FILLER_7_53
*1096 FILLER_7_57
*1097 FILLER_7_59
*1098 FILLER_7_96
*1103 FILLER_8_0
*1106 FILLER_8_11
*1111 FILLER_8_134
*1112 FILLER_8_149
*1113 FILLER_8_167
*1114 FILLER_8_171
*1115 FILLER_8_173
*1107 FILLER_8_18
*1108 FILLER_8_29
*1104 FILLER_8_4
*1109 FILLER_8_88
*1105 FILLER_8_9
*1110 FILLER_8_94
*1116 FILLER_9_0
*1121 FILLER_9_119
*1122 FILLER_9_121
*1123 FILLER_9_129
*1124 FILLER_9_131
*1118 FILLER_9_16
*1119 FILLER_9_46
*1117 FILLER_9_9
*1120 FILLER_9_97
*718 TAP_TAPCELL_ROW_0_0
*719 TAP_TAPCELL_ROW_0_1
*720 TAP_TAPCELL_ROW_0_2
*721 TAP_TAPCELL_ROW_0_3
*722 TAP_TAPCELL_ROW_0_4
*745 TAP_TAPCELL_ROW_10_27
*746 TAP_TAPCELL_ROW_10_28
*747 TAP_TAPCELL_ROW_10_29
*748 TAP_TAPCELL_ROW_11_30
*749 TAP_TAPCELL_ROW_11_31
*750 TAP_TAPCELL_ROW_12_32
*751 TAP_TAPCELL_ROW_12_33
*752 TAP_TAPCELL_ROW_12_34
*753 TAP_TAPCELL_ROW_13_35
*754 TAP_TAPCELL_ROW_13_36
*755 TAP_TAPCELL_ROW_14_37
*756 TAP_TAPCELL_ROW_14_38
*757 TAP_TAPCELL_ROW_14_39
*758 TAP_TAPCELL_ROW_15_40
*759 TAP_TAPCELL_ROW_15_41
*760 TAP_TAPCELL_ROW_16_42
*761 TAP_TAPCELL_ROW_16_43
*762 TAP_TAPCELL_ROW_16_44
*763 TAP_TAPCELL_ROW_17_45
*764 TAP_TAPCELL_ROW_17_46
*765 TAP_TAPCELL_ROW_18_47
*766 TAP_TAPCELL_ROW_18_48
*767 TAP_TAPCELL_ROW_18_49
*768 TAP_TAPCELL_ROW_19_50
*769 TAP_TAPCELL_ROW_19_51
*723 TAP_TAPCELL_ROW_1_5
*724 TAP_TAPCELL_ROW_1_6
*770 TAP_TAPCELL_ROW_20_52
*771 TAP_TAPCELL_ROW_20_53
*772 TAP_TAPCELL_ROW_20_54
*773 TAP_TAPCELL_ROW_21_55
*774 TAP_TAPCELL_ROW_21_56
*775 TAP_TAPCELL_ROW_22_57
*776 TAP_TAPCELL_ROW_22_58
*777 TAP_TAPCELL_ROW_22_59
*778 TAP_TAPCELL_ROW_23_60
*779 TAP_TAPCELL_ROW_23_61
*780 TAP_TAPCELL_ROW_24_62
*781 TAP_TAPCELL_ROW_24_63
*782 TAP_TAPCELL_ROW_24_64
*783 TAP_TAPCELL_ROW_25_65
*784 TAP_TAPCELL_ROW_25_66
*785 TAP_TAPCELL_ROW_26_67
*786 TAP_TAPCELL_ROW_26_68
*787 TAP_TAPCELL_ROW_26_69
*788 TAP_TAPCELL_ROW_27_70
*789 TAP_TAPCELL_ROW_27_71
*790 TAP_TAPCELL_ROW_28_72
*791 TAP_TAPCELL_ROW_28_73
*792 TAP_TAPCELL_ROW_28_74
*793 TAP_TAPCELL_ROW_28_75
*794 TAP_TAPCELL_ROW_28_76
*725 TAP_TAPCELL_ROW_2_7
*726 TAP_TAPCELL_ROW_2_8
*727 TAP_TAPCELL_ROW_2_9
*728 TAP_TAPCELL_ROW_3_10
*729 TAP_TAPCELL_ROW_3_11
*730 TAP_TAPCELL_ROW_4_12
*731 TAP_TAPCELL_ROW_4_13
*732 TAP_TAPCELL_ROW_4_14
*733 TAP_TAPCELL_ROW_5_15
*734 TAP_TAPCELL_ROW_5_16
*735 TAP_TAPCELL_ROW_6_17
*736 TAP_TAPCELL_ROW_6_18
*737 TAP_TAPCELL_ROW_6_19
*738 TAP_TAPCELL_ROW_7_20
*739 TAP_TAPCELL_ROW_7_21
*740 TAP_TAPCELL_ROW_8_22
*741 TAP_TAPCELL_ROW_8_23
*742 TAP_TAPCELL_ROW_8_24
*743 TAP_TAPCELL_ROW_9_25
*744 TAP_TAPCELL_ROW_9_26
*468 _164_
*469 _165_
*470 _166_
*471 _167_
*472 _168_
*473 _169_
*474 _170_
*475 _171_
*476 _172_
*477 _173_
*478 _174_
*479 _175_
*480 _176_
*481 _177_
*482 _178_
*483 _179_
*484 _180_
*485 _181_
*486 _182_
*487 _183_
*488 _184_
*489 _185_
*490 _186_
*491 _187_
*492 _188_
*493 _189_
*494 _190_
*497 _193_
*498 _194_
*500 _196_
*501 _197_
*502 _198_
*503 _199_
*504 _200_
*505 _201_
*506 _202_
*507 _203_
*508 _204_
*509 _205_
*510 _206_
*511 _207_
*512 _208_
*513 _209_
*514 _210_
*515 _211_
*516 _212_
*517 _213_
*518 _214_
*519 _215_
*520 _216_
*521 _217_
*522 _218_
*523 _219_
*524 _220_
*525 _221_
*526 _222_
*527 _223_
*528 _224_
*529 _225_
*530 _226_
*531 _227_
*532 _228_
*533 _229_
*534 _230_
*535 _231_
*536 _232_
*537 _233_
*538 _234_
*539 _235_
*540 _236_
*541 _237_
*542 _238_
*543 _239_
*544 _240_
*546 _242_
*547 _243_
*548 _244_
*549 _245_
*550 _246_
*551 _247_
*552 _248_
*553 _249_
*554 _250_
*555 _251_
*556 _252_
*557 _253_
*558 _254_
*559 _255_
*560 _256_
*561 _257_
*562 _258_
*563 _259_
*565 _261_
*566 _262_
*567 _263_
*568 _264_
*569 _265_
*570 _266_
*571 _267_
*572 _268_
*573 _269_
*574 _270_
*575 _271_
*576 _272_
*578 _274_
*579 _275_
*580 _276_
*581 _277_
*582 _278_
*584 _280_
*585 _281_
*586 _282_
*587 _283_
*588 _284_
*589 _285_
*590 _286_
*591 _287_
*592 _288_
*594 _290_
*595 _291_
*597 _293_
*598 _294_
*599 _295_
*600 _296_
*601 _297_
*602 _298_
*603 _299_
*604 _300_
*605 _301_
*606 _302_
*607 _303_
*608 _304_
*609 _305_
*610 _306_
*611 _307_
*612 _308_
*613 _309_
*614 _310_
*615 _311_
*616 _312_
*617 _313_
*618 _314_
*619 _315_
*620 _316_
*621 _317_
*622 _318_
*623 _319_
*624 _320_
*625 _321_
*626 _322_
*627 _323_
*628 _324_
*629 _325_
*630 _326_
*631 _327_
*632 _328_
*633 _329_
*634 _330_
*635 _331_
*636 _332_
*637 _333_
*638 _334_
*639 _335_
*640 _336_
*641 _337_
*642 _338_
*643 _339_
*644 _340_
*645 _341_
*646 _342_
*647 _343_
*648 _344_
*649 _345_
*650 _346_
*651 _347_
*652 _348_
*653 _349_
*654 _350_
*655 _351_
*656 _352_
*657 _353_
*658 _354_
*659 _355_
*660 _356_
*661 _357_
*662 _358_
*663 _359_
*664 _360_
*665 _361_
*666 _362_
*667 _363_
*668 _364_
*669 _365_
*670 _366_
*671 _367_
*672 _368_
*673 _369_
*674 _370_
*675 _371_
*676 _372_
*677 _373_
*678 _374_
*679 _375_
*680 _376_
*681 _377_
*682 _378_
*919 clkbuf_0_clk
*918 clkbuf_2_0__f_clk
*916 clkbuf_2_1__f_clk
*930 clkbuf_2_2__f_clk
*931 clkbuf_2_3__f_clk
*932 clkload0
*933 clkload1
*934 clkload2
*907 clone423
*683 ctrl\.state\.out\[0\]\$_DFF_P_
*684 ctrl\.state\.out\[1\]\$_DFF_P_
*685 ctrl\.state\.out\[2\]\$_DFF_P_
*686 dpath\.a_reg\.out\[0\]\$_DFFE_PP_
*687 dpath\.a_reg\.out\[10\]\$_DFFE_PP_
*688 dpath\.a_reg\.out\[11\]\$_DFFE_PP_
*689 dpath\.a_reg\.out\[12\]\$_DFFE_PP_
*690 dpath\.a_reg\.out\[13\]\$_DFFE_PP_
*691 dpath\.a_reg\.out\[14\]\$_DFFE_PP_
*692 dpath\.a_reg\.out\[15\]\$_DFFE_PP_
*693 dpath\.a_reg\.out\[1\]\$_DFFE_PP_
*694 dpath\.a_reg\.out\[2\]\$_DFFE_PP_
*695 dpath\.a_reg\.out\[3\]\$_DFFE_PP_
*696 dpath\.a_reg\.out\[4\]\$_DFFE_PP_
*697 dpath\.a_reg\.out\[5\]\$_DFFE_PP_
*698 dpath\.a_reg\.out\[6\]\$_DFFE_PP_
*699 dpath\.a_reg\.out\[7\]\$_DFFE_PP_
*700 dpath\.a_reg\.out\[8\]\$_DFFE_PP_
*701 dpath\.a_reg\.out\[9\]\$_DFFE_PP_
*702 dpath\.b_reg\.out\[0\]\$_DFFE_PP_
*703 dpath\.b_reg\.out\[10\]\$_DFFE_PP_
*704 dpath\.b_reg\.out\[11\]\$_DFFE_PP_
*705 dpath\.b_reg\.out\[12\]\$_DFFE_PP_
*706 dpath\.b_reg\.out\[13\]\$_DFFE_PP_
*707 dpath\.b_reg\.out\[14\]\$_DFFE_PP_
*708 dpath\.b_reg\.out\[15\]\$_DFFE_PP_
*709 dpath\.b_reg\.out\[1\]\$_DFFE_PP_
*710 dpath\.b_reg\.out\[2\]\$_DFFE_PP_
*711 dpath\.b_reg\.out\[3\]\$_DFFE_PP_
*712 dpath\.b_reg\.out\[4\]\$_DFFE_PP_
*713 dpath\.b_reg\.out\[5\]\$_DFFE_PP_
*714 dpath\.b_reg\.out\[6\]\$_DFFE_PP_
*715 dpath\.b_reg\.out\[7\]\$_DFFE_PP_
*716 dpath\.b_reg\.out\[8\]\$_DFFE_PP_
*717 dpath\.b_reg\.out\[9\]\$_DFFE_PP_
*596 input1
*795 input10
*796 input11
*797 input12
*798 input13
*799 input14
*800 input15
*801 input16
*802 input17
*803 input18
*804 input19
*593 input2
*805 input20
*806 input21
*807 input22
*808 input23
*809 input24
*810 input25
*811 input26
*812 input27
*813 input28
*814 input29
*583 input3
*815 input30
*816 input31
*817 input32
*818 input33
*819 input34
*820 input35
*577 input4
*564 input5
*545 input6
*499 input7
*496 input8
*495 input9
*821 output36
*822 output37
*823 output38
*824 output39
*825 output40
*826 output41
*827 output42
*828 output43
*829 output44
*830 output45
*831 output46
*832 output47
*833 output48
*834 output49
*835 output50
*836 output51
*837 output52
*838 output53
*920 place135
*841 place136
*842 place137
*840 place138
*839 place139
*921 place140
*922 place141
*844 place142
*843 place143
*845 place144
*846 place145
*923 place146
*924 place147
*850 place150
*851 place151
*848 place152
*852 place154
*853 place156
*854 place157
*855 place158
*856 place159
*857 place160
*858 place161
*859 place162
*860 place163
*861 place164
*927 place165
*863 place166
*864 place167
*862 place168
*865 place169
*866 place170
*867 place171
*868 place172
*869 place173
*870 place174
*871 place175
*872 place176
*873 place177
*874 place178
*928 place179
*875 place180
*876 place181
*877 place182
*878 place183
*880 place185
*881 place186
*884 place187
*886 place188
*887 place189
*885 place190
*889 place191
*890 place192
*891 place193
*893 place195
*894 place196
*888 place197
*896 place198
*895 place199
*898 place200
*897 place201
*899 place202
*900 place203
*901 place204
*902 place205
*903 place206
*883 place208
*905 place209
*906 place210
*909 place213
*910 place214
*882 place215
*911 place216
*912 place217
*914 place219
*915 place220
*929 place221
*917 place222
*935 rebuffer223
*936 rebuffer224
*937 rebuffer225
*941 rebuffer229
*942 rebuffer230
*945 rebuffer261
*943 rebuffer263
*847 rebuffer327
*947 rebuffer328
*948 rebuffer329
*949 rebuffer330
*951 rebuffer333
*849 rebuffer337
*953 rebuffer394
*940 rebuffer395
*954 rebuffer399
*955 rebuffer401
*956 rebuffer402
*957 rebuffer403
*958 rebuffer404
*892 rebuffer407
*960 rebuffer409
*961 rebuffer412
*962 rebuffer413
*963 rebuffer414
*964 rebuffer415
*965 rebuffer416
*966 rebuffer417
*968 rebuffer421
*969 rebuffer422
*970 rebuffer424
*971 rebuffer425
*972 rebuffer426
*973 rebuffer427
*974 rebuffer428
*975 rebuffer430
*939 rebuffer433
*944 rebuffer434
*950 rebuffer435
*976 rebuffer436
*925 rebuffer457
*946 rebuffer479
*926 rebuffer481
*959 rebuffer497
*879 rebuffer498
*967 rebuffer500
*908 rebuffer501

*PORTS
clk I
req_msg[0] I
req_msg[10] I
req_msg[11] I
req_msg[12] I
req_msg[13] I
req_msg[14] I
req_msg[15] I
req_msg[16] I
req_msg[17] I
req_msg[18] I
req_msg[19] I
req_msg[1] I
req_msg[20] I
req_msg[21] I
req_msg[22] I
req_msg[23] I
req_msg[24] I
req_msg[25] I
req_msg[26] I
req_msg[27] I
req_msg[28] I
req_msg[29] I
req_msg[2] I
req_msg[30] I
req_msg[31] I
req_msg[3] I
req_msg[4] I
req_msg[5] I
req_msg[6] I
req_msg[7] I
req_msg[8] I
req_msg[9] I
req_rdy O
req_val I
reset I
resp_msg[0] O
resp_msg[10] O
resp_msg[11] O
resp_msg[12] O
resp_msg[13] O
resp_msg[14] O
resp_msg[15] O
resp_msg[1] O
resp_msg[2] O
resp_msg[3] O
resp_msg[4] O
resp_msg[5] O
resp_msg[6] O
resp_msg[7] O
resp_msg[8] O
resp_msg[9] O
resp_rdy I
resp_val O

*D_NET *1 0.00133177
*CONN
*I *683:D I *D sky130_fd_sc_hd__dfxtp_4
*I *664:X O *D sky130_fd_sc_hd__a221o_1
*CAP
1 *683:D 0.000363767
2 *664:X 0.000363767
3 *683:D *664:A1 4.2806e-05
4 *683:D *664:A2 4.96877e-05
5 *683:D *664:B2 0.000256487
6 *683:D *664:C1 0
7 *683:D *674:B 0.000255255
8 *683:D *809:A 0
9 *683:D *820:A 0
10 *683:D *268:10 0
*RES
1 *664:X *683:D 37.676 
*END

*D_NET *2 0.00072951
*CONN
*I *684:D I *D sky130_fd_sc_hd__dfxtp_1
*I *673:Y O *D sky130_fd_sc_hd__a21oi_1
*CAP
1 *684:D 0.000206016
2 *673:Y 0.000206016
3 *684:D *684:CLK 0.000317478
4 *684:D *168:10 0
*RES
1 *673:Y *684:D 33.7115 
*END

*D_NET *3 0.000549544
*CONN
*I *685:D I *D sky130_fd_sc_hd__dfxtp_2
*I *676:Y O *D sky130_fd_sc_hd__nor2b_1
*CAP
1 *685:D 4.59357e-05
2 *676:Y 4.59357e-05
3 *685:D *682:A1 6.25883e-06
4 *685:D *821:A 0.000241485
5 *685:D *412:113 0.00014715
6 *685:D *412:119 6.27782e-05
*RES
1 *676:Y *685:D 21.2532 
*END

*D_NET *4 0.00127715
*CONN
*I *481:A I *D sky130_fd_sc_hd__xnor2_1
*I *468:X O *D sky130_fd_sc_hd__xor2_1
*CAP
1 *481:A 0.000341175
2 *468:X 0.000341175
3 *481:A *481:B 0.000510259
4 *481:A *514:A1 7.04109e-05
5 *481:A *946:A 1.41291e-05
*RES
1 *468:X *481:A 36.0094 
*END

*D_NET *5 0.00263687
*CONN
*I *477:A1 I *D sky130_fd_sc_hd__o31ai_4
*I *528:B1 I *D sky130_fd_sc_hd__o221ai_2
*I *958:A I *D sky130_fd_sc_hd__buf_6
*I *469:X O *D sky130_fd_sc_hd__and2b_2
*CAP
1 *477:A1 0.000161044
2 *528:B1 0
3 *958:A 0
4 *469:X 0.000138142
5 *5:23 0.000475722
6 *5:12 0.00045282
7 *477:A1 *477:A2 0.000186211
8 *477:A1 *667:D 6.96181e-05
9 *477:A1 *932:A 0.000153943
10 *477:A1 *10:12 0.000146044
11 *5:12 *8:10 0
12 *5:12 *416:24 2.89815e-05
13 *5:23 *486:A 0.000145547
14 *5:23 *490:A 0.000141935
15 *5:23 *528:A2 1.23455e-05
16 *5:23 *667:D 5.82465e-05
17 *5:23 *869:A 8.33115e-05
18 *5:23 *10:12 3.31882e-05
19 *5:23 *416:12 3.3652e-05
20 *5:23 *416:24 0.000109427
21 *5:23 *416:50 0.000143918
22 *5:23 *449:8 6.27782e-05
*RES
1 *469:X *5:12 21.2198 
2 *5:12 *958:A 9.24915 
3 *5:12 *5:23 15.7813 
4 *5:23 *528:B1 13.7491 
5 *5:23 *477:A1 20.1489 
*END

*D_NET *6 0.00130696
*CONN
*I *474:A2 I *D sky130_fd_sc_hd__a211oi_4
*I *487:A1 I *D sky130_fd_sc_hd__a21oi_1
*I *470:Y O *D sky130_fd_sc_hd__nand2b_4
*CAP
1 *474:A2 0.000139126
2 *487:A1 0
3 *470:Y 0.000120548
4 *6:10 0.000259674
5 *474:A2 *474:B1 0
6 *474:A2 *487:A2 1.07248e-05
7 *474:A2 *20:8 1.90335e-05
8 *474:A2 *275:14 0
9 *6:10 *470:A_N 0.000271058
10 *6:10 *473:A 0.000115934
11 *6:10 *487:A2 0.000210743
12 *6:10 *668:B 1.32509e-05
13 *6:10 *9:12 0.000122083
14 *6:10 *20:8 2.47808e-05
*RES
1 *470:Y *6:10 20.184 
2 *6:10 *487:A1 13.7491 
3 *6:10 *474:A2 17.2421 
*END

*D_NET *7 0.00487658
*CONN
*I *474:A1 I *D sky130_fd_sc_hd__a211oi_4
*I *878:A I *D sky130_fd_sc_hd__buf_4
*I *471:Y O *D sky130_fd_sc_hd__nor2b_4
*CAP
1 *474:A1 0.000469389
2 *878:A 0
3 *471:Y 0.000871315
4 *7:12 0.0013407
5 *474:A1 *562:A 0.000625856
6 *474:A1 *562:B 0.000120471
7 *474:A1 *708:D 0
8 *474:A1 *708:DE 3.92805e-05
9 *474:A1 *275:14 0.000107496
10 *474:A1 *403:27 4.00512e-05
11 *474:A1 *412:16 0
12 *474:A1 *414:10 0.000111968
13 *474:A1 *414:14 0.000252327
14 *7:12 *653:A0 4.89251e-05
15 *7:12 *653:S 0.000259894
16 *7:12 *901:A 2.58616e-05
17 *7:12 *186:10 0.000150943
18 *7:12 *412:16 0
19 *7:12 *412:20 0
20 *7:12 *414:14 0.000235838
21 *7:12 *414:28 8.89366e-05
22 *7:12 *415:10 3.34491e-05
23 *7:12 *428:16 5.38708e-05
*RES
1 *471:Y *7:12 31.0186 
2 *7:12 *878:A 13.7491 
3 *7:12 *474:A1 30.4935 
*END

*D_NET *8 0.00157505
*CONN
*I *474:B1 I *D sky130_fd_sc_hd__a211oi_4
*I *877:A I *D sky130_fd_sc_hd__buf_4
*I *472:Y O *D sky130_fd_sc_hd__nor2b_2
*CAP
1 *474:B1 0.000226438
2 *877:A 0
3 *472:Y 0.000224379
4 *8:10 0.000450816
5 *474:B1 *474:C1 7.48918e-05
6 *474:B1 *936:A 0.000158338
7 *8:10 *488:A2 8.05809e-05
8 *8:10 *668:B 2.53202e-05
9 *8:10 *936:A 5.92342e-05
10 *8:10 *193:23 0.000209487
11 *8:10 *453:18 6.5568e-05
12 *474:A2 *474:B1 0
13 *5:12 *8:10 0
*RES
1 *472:Y *8:10 20.4571 
2 *8:10 *877:A 13.7491 
3 *8:10 *474:B1 10.8998 
*END

*D_NET *9 0.00132164
*CONN
*I *474:C1 I *D sky130_fd_sc_hd__a211oi_4
*I *487:B1 I *D sky130_fd_sc_hd__a21oi_1
*I *473:Y O *D sky130_fd_sc_hd__nor2b_2
*CAP
1 *474:C1 0.000329012
2 *487:B1 0
3 *473:Y 6.11761e-05
4 *9:12 0.000390188
5 *474:C1 *668:B 1.65872e-05
6 *474:C1 *936:A 0.000118166
7 *474:C1 *166:41 6.58192e-05
8 *9:12 *20:8 0.000122083
9 *9:12 *166:41 2.16355e-05
10 *474:B1 *474:C1 7.48918e-05
11 *6:10 *9:12 0.000122083
*RES
1 *473:Y *9:12 21.2198 
2 *9:12 *487:B1 9.24915 
3 *9:12 *474:C1 27.4811 
*END

*D_NET *10 0.00318884
*CONN
*I *477:A2 I *D sky130_fd_sc_hd__o31ai_4
*I *935:A I *D sky130_fd_sc_hd__buf_4
*I *528:B2 I *D sky130_fd_sc_hd__o221ai_2
*I *474:Y O *D sky130_fd_sc_hd__a211oi_4
*CAP
1 *477:A2 0.000147283
2 *935:A 7.80859e-05
3 *528:B2 2.31432e-05
4 *474:Y 0.000278952
5 *10:12 0.000186168
6 *10:8 0.000511175
7 *477:A2 *530:B 2.08274e-05
8 *477:A2 *530:D 6.93171e-05
9 *477:A2 *667:B 0.000146907
10 *477:A2 *671:C 0.000161956
11 *528:B2 *528:C1 3.81056e-05
12 *528:B2 *166:41 0.000115934
13 *935:A *528:A1 3.41935e-05
14 *935:A *528:A2 6.50727e-05
15 *935:A *528:C1 0.000277502
16 *935:A *166:41 1.41689e-05
17 *10:8 *377:39 0.000546947
18 *10:12 *528:A2 8.62625e-06
19 *10:12 *530:D 9.90332e-05
20 *477:A1 *477:A2 0.000186211
21 *477:A1 *10:12 0.000146044
22 *5:23 *10:12 3.31882e-05
*RES
1 *474:Y *10:8 21.1278 
2 *10:8 *10:12 7.57775 
3 *10:12 *528:B2 10.5271 
4 *10:12 *935:A 13.3484 
5 *10:8 *477:A2 19.49 
*END

*D_NET *11 0.00192839
*CONN
*I *529:A I *D sky130_fd_sc_hd__nand2_1
*I *477:A3 I *D sky130_fd_sc_hd__o31ai_4
*I *475:X O *D sky130_fd_sc_hd__and2b_1
*CAP
1 *529:A 0.0001206
2 *477:A3 0.000264886
3 *475:X 0.00012491
4 *11:10 0.000510396
5 *477:A3 *477:B1 0
6 *477:A3 *530:D 0
7 *477:A3 *45:10 0.00011815
8 *529:A *485:B 4.87301e-05
9 *529:A *528:C1 0.000381577
10 *529:A *529:B 5.19791e-05
11 *529:A *370:14 0
12 *529:A *384:14 5.36586e-05
13 *11:10 *477:B1 0
14 *11:10 *528:A1 7.14746e-05
15 *11:10 *890:A 0.000116971
16 *11:10 *195:16 6.50586e-05
*RES
1 *475:X *11:10 17.135 
2 *11:10 *477:A3 20.1489 
3 *11:10 *529:A 19.1117 
*END

*D_NET *12 0.00138815
*CONN
*I *477:B1 I *D sky130_fd_sc_hd__o31ai_4
*I *476:Y O *D sky130_fd_sc_hd__nand2b_1
*CAP
1 *477:B1 0.000479851
2 *476:Y 0.000479851
3 *477:B1 *485:B 3.88852e-05
4 *477:B1 *530:B 9.46208e-05
5 *477:B1 *195:14 6.64392e-05
6 *477:B1 *197:40 9.46208e-05
7 *477:B1 *410:10 0.000133878
8 *477:A3 *477:B1 0
9 *11:10 *477:B1 0
*RES
1 *476:Y *477:B1 39.5002 
*END

*D_NET *13 0.00358217
*CONN
*I *533:A2 I *D sky130_fd_sc_hd__a21oi_4
*I *535:A1 I *D sky130_fd_sc_hd__a211oi_2
*I *955:A I *D sky130_fd_sc_hd__buf_4
*I *477:Y O *D sky130_fd_sc_hd__o31ai_4
*CAP
1 *533:A2 0.000189272
2 *535:A1 0.00024482
3 *955:A 0
4 *477:Y 0.000142117
5 *13:10 0.00024482
6 *13:8 0.000331389
7 *533:A2 *533:A1 0.00016553
8 *533:A2 *535:B1 9.14237e-05
9 *533:A2 *605:A3 0
10 *533:A2 *634:A 2.67638e-05
11 *533:A2 *698:CLK 6.50727e-05
12 *533:A2 *45:10 5.3781e-05
13 *533:A2 *132:18 0.000197555
14 *533:A2 *350:16 0.000157407
15 *535:A1 *531:B 3.54043e-05
16 *535:A1 *533:A1 4.88955e-05
17 *535:A1 *535:A2 0.000375013
18 *535:A1 *634:B 0.00017504
19 *535:A1 *886:A 0.000188475
20 *535:A1 *887:A 0.000694312
21 *535:A1 *197:40 6.50586e-05
22 *535:A1 *350:16 3.01683e-06
23 *535:A1 *410:14 2.77625e-06
24 *13:8 *698:CLK 0
25 *13:8 *45:10 7.35045e-05
26 *13:8 *350:16 1.07248e-05
*RES
1 *477:Y *13:8 17.2421 
2 *13:8 *13:10 4.5 
3 *13:10 *955:A 9.24915 
4 *13:10 *535:A1 31.4971 
5 *13:8 *533:A2 21.8478 
*END

*D_NET *14 0.00427189
*CONN
*I *531:B I *D sky130_fd_sc_hd__and2_1
*I *876:A I *D sky130_fd_sc_hd__buf_4
*I *478:X O *D sky130_fd_sc_hd__or2b_1
*CAP
1 *531:B 0.000356129
2 *876:A 4.47007e-05
3 *478:X 0.000329795
4 *14:8 0.000730624
5 *531:B *530:B 0.000106293
6 *531:B *533:A1 4.79321e-06
7 *531:B *714:CLK 0.000259225
8 *531:B *350:16 0.000507376
9 *531:B *410:14 0.000503898
10 *531:B *446:14 0.000316745
11 *876:A *713:CLK 9.32983e-05
12 *876:A *889:A 5.9036e-05
13 *876:A *410:64 6.27718e-05
14 *14:8 *483:B 0.000172706
15 *14:8 *530:B 3.20264e-05
16 *14:8 *195:14 6.14937e-05
17 *14:8 *370:14 0.00018596
18 *14:8 *410:68 0.000159989
19 *14:8 *410:72 5.27224e-05
20 *14:8 *446:14 0.000196902
21 *535:A1 *531:B 3.54043e-05
*RES
1 *478:X *14:8 26.3777 
2 *14:8 *876:A 15.5817 
3 *14:8 *531:B 29.2101 
*END

*D_NET *15 0.00113395
*CONN
*I *532:A2 I *D sky130_fd_sc_hd__a21boi_0
*I *875:A I *D sky130_fd_sc_hd__buf_4
*I *479:X O *D sky130_fd_sc_hd__or2b_1
*CAP
1 *532:A2 4.23365e-05
2 *875:A 9.4717e-05
3 *479:X 9.51564e-05
4 *15:12 0.00023221
5 *532:A2 *532:A1 6.69545e-05
6 *532:A2 *197:23 0.000211539
7 *875:A *532:A1 2.16355e-05
8 *875:A *197:23 1.50924e-05
9 *875:A *197:40 0.000157238
10 *875:A *369:12 6.27782e-05
11 *875:A *377:39 5.8493e-05
12 *15:12 *532:A1 7.57986e-05
*RES
1 *479:X *15:12 20.6599 
2 *15:12 *875:A 13.3002 
3 *15:12 *532:A2 11.6364 
*END

*D_NET *16 0.00309072
*CONN
*I *481:B I *D sky130_fd_sc_hd__xnor2_1
*I *480:Y O *D sky130_fd_sc_hd__a21boi_2
*CAP
1 *481:B 0.000692302
2 *480:Y 0.000692302
3 *481:B *468:A 0.000120546
4 *481:B *468:B 0.000267394
5 *481:B *482:A 2.16355e-05
6 *481:B *482:B 0.000115934
7 *481:B *514:A1 7.77309e-06
8 *481:B *713:DE 0.0001682
9 *481:B *848:A 1.18149e-05
10 *481:B *946:A 3.14978e-05
11 *481:B *369:16 9.82896e-06
12 *481:B *370:14 0.000211478
13 *481:B *377:10 0.000164829
14 *481:B *379:10 6.49279e-05
15 *481:A *481:B 0.000510259
*RES
1 *480:Y *481:B 49.0411 
*END

*D_NET *17 0.000326835
*CONN
*I *483:A I *D sky130_fd_sc_hd__xor2_2
*I *482:Y O *D sky130_fd_sc_hd__nand2_1
*CAP
1 *483:A 5.16791e-05
2 *482:Y 5.16791e-05
3 *483:A *196:25 0.000156823
4 *483:A *401:52 6.66538e-05
*RES
1 *482:Y *483:A 30.1608 
*END

*D_NET *18 0.0009687
*CONN
*I *486:B I *D sky130_fd_sc_hd__xnor2_2
*I *484:Y O *D sky130_fd_sc_hd__nor2_4
*CAP
1 *486:B 0.00016783
2 *484:Y 0.00016783
3 *486:B *647:B1 0.000118017
4 *486:B *869:A 0.000350099
5 *486:B *907:A 9.90296e-05
6 *486:B *278:12 5.04829e-06
7 *486:B *453:18 6.08467e-05
*RES
1 *484:Y *486:B 34.6215 
*END

*D_NET *19 0.00331049
*CONN
*I *486:A I *D sky130_fd_sc_hd__xnor2_2
*I *485:Y O *D sky130_fd_sc_hd__xnor2_1
*CAP
1 *486:A 0.00101094
2 *485:Y 0.00101094
3 *486:A *475:A_N 4.89898e-06
4 *486:A *476:A_N 2.1801e-05
5 *486:A *484:B 8.67835e-05
6 *486:A *485:A 0.000471416
7 *486:A *490:A 6.15149e-05
8 *486:A *869:A 0.000299491
9 *486:A *179:23 6.50727e-05
10 *486:A *195:14 2.02114e-05
11 *486:A *384:14 1.4091e-06
12 *486:A *453:18 0.000110458
13 *5:23 *486:A 0.000145547
*RES
1 *485:Y *486:A 47.8248 
*END

*D_NET *20 0.00272422
*CONN
*I *489:B I *D sky130_fd_sc_hd__or3_1
*I *488:B1 I *D sky130_fd_sc_hd__o21ai_0
*I *487:Y O *D sky130_fd_sc_hd__a21oi_1
*CAP
1 *489:B 0.000465449
2 *488:B1 0.000230542
3 *487:Y 0.000171694
4 *20:8 0.000867685
5 *488:B1 *488:A2 9.40976e-05
6 *488:B1 *668:B 6.46815e-05
7 *488:B1 *970:A 0.000144659
8 *488:B1 *275:14 5.46221e-05
9 *488:B1 *453:18 2.44969e-05
10 *489:B *470:A_N 0.00031994
11 *489:B *489:C 4.56004e-05
12 *20:8 *275:14 7.48503e-05
13 *474:A2 *20:8 1.90335e-05
14 *6:10 *20:8 2.47808e-05
15 *9:12 *20:8 0.000122083
*RES
1 *487:Y *20:8 18.9032 
2 *20:8 *488:B1 21.1899 
3 *20:8 *489:B 21.1278 
*END

*D_NET *21 0.0029259
*CONN
*I *490:B I *D sky130_fd_sc_hd__nand2_1
*I *488:Y O *D sky130_fd_sc_hd__o21ai_0
*CAP
1 *490:B 0.000926096
2 *488:Y 0.000926096
3 *490:B *472:A 6.29409e-05
4 *490:B *472:B_N 0.000261925
5 *490:B *488:A1 6.93171e-05
6 *490:B *490:A 0.000227207
7 *490:B *647:A2 0.00015617
8 *490:B *648:A 1.07248e-05
9 *490:B *668:B 0.0001239
10 *490:B *695:D 3.56615e-05
11 *490:B *178:27 6.27718e-05
12 *490:B *416:24 3.01628e-05
13 *490:B *453:18 3.29313e-05
*RES
1 *488:Y *490:B 47.5111 
*END

*D_NET *22 0.00224719
*CONN
*I *490:A I *D sky130_fd_sc_hd__nand2_1
*I *489:X O *D sky130_fd_sc_hd__or3_1
*CAP
1 *490:A 0.000622007
2 *489:X 0.000622007
3 *490:A *484:A 7.92757e-06
4 *490:A *488:A1 5.62934e-05
5 *490:A *489:A 2.85139e-05
6 *490:A *527:A 2.86013e-06
7 *490:A *694:DE 0.000250829
8 *490:A *869:A 7.36625e-05
9 *490:A *384:14 2.18041e-06
10 *490:A *401:10 9.26873e-05
11 *490:A *416:12 5.19205e-05
12 *490:A *449:31 5.64813e-06
13 *486:A *490:A 6.15149e-05
14 *490:B *490:A 0.000227207
15 *5:23 *490:A 0.000141935
*RES
1 *489:X *490:A 46.3907 
*END

*D_NET *23 0.000621126
*CONN
*I *492:B I *D sky130_fd_sc_hd__xnor2_1
*I *491:Y O *D sky130_fd_sc_hd__xnor2_2
*CAP
1 *492:B 0.000222091
2 *491:Y 0.000222091
3 *492:B *709:CLK 6.50727e-05
4 *492:B *276:12 4.47713e-05
5 *492:B *352:12 0
6 *492:B *386:14 6.71006e-05
7 *492:B *412:16 0
*RES
1 *491:Y *492:B 33.5179 
*END

*D_NET *24 0.00125659
*CONN
*I *559:A I *D sky130_fd_sc_hd__maj3_1
*I *928:A I *D sky130_fd_sc_hd__buf_4
*I *494:Y O *D sky130_fd_sc_hd__inv_1
*CAP
1 *559:A 0.000395224
2 *928:A 5.14248e-05
3 *494:Y 0.000119066
4 *24:12 0.000565714
5 *559:A *574:C1 3.03926e-05
6 *559:A *895:A 1.96842e-05
7 *24:12 *566:C1 0
8 *24:12 *579:A1 4.24378e-05
9 *24:12 *358:12 3.2648e-05
*RES
1 *494:Y *24:12 20.6666 
2 *24:12 *928:A 10.6477 
3 *24:12 *559:A 14.964 
*END

*D_NET *27 0.00032548
*CONN
*I *498:B1 I *D sky130_fd_sc_hd__o21ai_1
*I *497:Y O *D sky130_fd_sc_hd__nand2_2
*CAP
1 *498:B1 7.67835e-05
2 *497:Y 7.67835e-05
3 *498:B1 *498:A1 6.27718e-05
4 *498:B1 *498:A2 0.000109142
*RES
1 *497:Y *498:B1 21.4642 
*END

*D_NET *29 0.0024262
*CONN
*I *565:B I *D sky130_fd_sc_hd__maj3_2
*I *874:A I *D sky130_fd_sc_hd__buf_4
*I *502:Y O *D sky130_fd_sc_hd__inv_1
*CAP
1 *565:B 0.000232296
2 *874:A 0.000230221
3 *502:Y 0.000160152
4 *29:6 0.000622669
5 *565:B *553:A 0
6 *565:B *565:A 1.07248e-05
7 *565:B *565:C 0.000285031
8 *565:B *59:10 0
9 *565:B *74:16 0.000107496
10 *874:A *553:C 1.22289e-05
11 *874:A *565:C 0.000205476
12 *874:A *594:A 4.9e-05
13 *874:A *64:10 6.57318e-05
14 *874:A *272:16 0
15 *874:A *424:20 0.000214305
16 *29:6 *74:16 0.000230866
*RES
1 *502:Y *29:6 11.9137 
2 *29:6 *874:A 26.3099 
3 *29:6 *565:B 25.0964 
*END

*D_NET *30 0.0013704
*CONN
*I *504:B1 I *D sky130_fd_sc_hd__o21ai_1
*I *503:Y O *D sky130_fd_sc_hd__nand2_2
*CAP
1 *504:B1 0.000323624
2 *503:Y 0.000323624
3 *504:B1 *503:A 0.000112367
4 *504:B1 *705:DE 2.99412e-05
5 *504:B1 *911:A 3.61531e-05
6 *504:B1 *272:16 0.000143568
7 *504:B1 *352:82 0
8 *504:B1 *392:18 0.000401126
*RES
1 *503:Y *504:B1 38.0884 
*END

*D_NET *31 0.00253284
*CONN
*I *873:A I *D sky130_fd_sc_hd__buf_4
*I *542:A I *D sky130_fd_sc_hd__maj3_1
*I *505:Y O *D sky130_fd_sc_hd__inv_1
*CAP
1 *873:A 0.000173676
2 *542:A 0.000200671
3 *505:Y 0.000105766
4 *31:8 0.000480112
5 *542:A *537:A_N 1.30094e-05
6 *542:A *606:B_N 9.90332e-05
7 *542:A *183:41 0.00016697
8 *542:A *336:25 0.000431087
9 *873:A *507:B1 0.00031994
10 *873:A *611:B 0.000107496
11 *873:A *336:25 0.000234443
12 *873:A *367:6 0.000171288
13 *873:A *394:37 0
14 *873:A *396:26 0
15 *873:A *459:78 1.41689e-05
16 *31:8 *505:A 1.51793e-05
*RES
1 *505:Y *31:8 15.3044 
2 *31:8 *542:A 21.8099 
3 *31:8 *873:A 21.5691 
*END

*D_NET *32 0.00209438
*CONN
*I *507:B1 I *D sky130_fd_sc_hd__o21ai_1
*I *506:Y O *D sky130_fd_sc_hd__nand2_2
*CAP
1 *507:B1 0.000386247
2 *506:Y 0.000386247
3 *507:B1 *610:A1 8.74454e-05
4 *507:B1 *611:B 1.41853e-05
5 *507:B1 *613:A 0.000380473
6 *507:B1 *846:A 0.000175485
7 *507:B1 *336:25 0
8 *507:B1 *367:6 0.000149318
9 *507:B1 *394:37 2.95757e-05
10 *507:B1 *456:34 0.000165459
11 *873:A *507:B1 0.00031994
*RES
1 *506:Y *507:B1 43.0799 
*END

*D_NET *33 0.00752335
*CONN
*I *511:A1 I *D sky130_fd_sc_hd__o21ai_1
*I *538:A I *D sky130_fd_sc_hd__maj3_1
*I *610:A1 I *D sky130_fd_sc_hd__o311a_1
*I *608:A I *D sky130_fd_sc_hd__or3_1
*I *509:Y O *D sky130_fd_sc_hd__inv_1
*CAP
1 *511:A1 2.87772e-05
2 *538:A 0
3 *610:A1 0.000565871
4 *608:A 4.88369e-05
5 *509:Y 0.00031605
6 *33:25 0.00103261
7 *33:10 0.00134276
8 *33:6 0.00117201
9 *511:A1 *510:A 3.5063e-05
10 *608:A *521:B 0.000118136
11 *608:A *618:A2 0.000118017
12 *610:A1 *525:B 2.18685e-05
13 *610:A1 *846:A 0.000218456
14 *610:A1 *116:10 0.000110356
15 *610:A1 *171:14 8.72643e-05
16 *610:A1 *394:37 0.000256794
17 *610:A1 *425:8 1.50924e-05
18 *610:A1 *425:95 0.000354297
19 *33:6 *509:A 3.12968e-05
20 *33:6 *510:A 0.000307806
21 *33:6 *510:B 4.32384e-06
22 *33:10 *509:A 3.9684e-05
23 *33:10 *511:A2 5.23952e-05
24 *33:10 *35:14 1.38008e-05
25 *33:10 *183:33 0.000253367
26 *33:10 *184:16 3.00082e-05
27 *33:10 *425:95 4.46813e-05
28 *33:10 *459:66 1.65872e-05
29 *33:10 *459:78 3.31745e-05
30 *33:25 *521:B 7.40248e-05
31 *33:25 *618:A1 7.74044e-06
32 *33:25 *618:A2 0.000107643
33 *33:25 *425:95 0.00057711
34 *507:B1 *610:A1 8.74454e-05
*RES
1 *509:Y *33:6 14.6867 
2 *33:6 *33:10 17.4247 
3 *33:10 *608:A 15.9964 
4 *33:10 *33:25 13.5713 
5 *33:25 *610:A1 34.5135 
6 *33:25 *538:A 9.24915 
7 *33:6 *511:A1 10.2378 
*END

*D_NET *34 0.000325559
*CONN
*I *511:B1 I *D sky130_fd_sc_hd__o21ai_1
*I *510:Y O *D sky130_fd_sc_hd__nand2_1
*CAP
1 *511:B1 3.77843e-05
2 *510:Y 3.77843e-05
3 *511:B1 *509:A 0.000181495
4 *511:B1 *510:A 6.84955e-05
*RES
1 *510:Y *511:B1 20.9337 
*END

*D_NET *35 0.00164073
*CONN
*I *872:A I *D sky130_fd_sc_hd__buf_4
*I *526:A I *D sky130_fd_sc_hd__or4_1
*I *520:X O *D sky130_fd_sc_hd__xor2_1
*CAP
1 *872:A 0
2 *526:A 0.000231297
3 *520:X 0.000194775
4 *35:14 0.000426072
5 *526:A *633:A1 0.000110458
6 *526:A *633:B1 6.89706e-05
7 *526:A *129:20 0.000185275
8 *526:A *183:33 0.000143526
9 *35:14 *509:A 6.36477e-05
10 *35:14 *633:B1 5.8334e-05
11 *35:14 *949:A 7.29011e-05
12 *35:14 *183:33 7.16754e-05
13 *33:10 *35:14 1.38008e-05
*RES
1 *520:X *35:14 24.2981 
2 *35:14 *526:A 17.3994 
3 *35:14 *872:A 9.24915 
*END

*D_NET *36 0.00241175
*CONN
*I *526:B I *D sky130_fd_sc_hd__or4_1
*I *871:A I *D sky130_fd_sc_hd__buf_4
*I *521:X O *D sky130_fd_sc_hd__xor2_1
*CAP
1 *526:B 0
2 *871:A 0.000223758
3 *521:X 0.000298201
4 *36:10 0.000521959
5 *871:A *609:B2 6.23567e-05
6 *871:A *618:A1 0
7 *871:A *111:14 8.36586e-06
8 *871:A *341:14 8.07794e-05
9 *871:A *345:14 2.36494e-05
10 *871:A *459:66 0.000525807
11 *36:10 *526:C 0.000229137
12 *36:10 *425:95 0.000203756
13 *36:10 *459:66 0.000233978
*RES
1 *521:X *36:10 21.7056 
2 *36:10 *871:A 23.0557 
3 *36:10 *526:B 13.7491 
*END

*D_NET *37 0.00445079
*CONN
*I *610:A3 I *D sky130_fd_sc_hd__o311a_1
*I *524:A_N I *D sky130_fd_sc_hd__nand2b_1
*I *608:B I *D sky130_fd_sc_hd__or3_1
*I *607:B I *D sky130_fd_sc_hd__or3_1
*I *522:Y O *D sky130_fd_sc_hd__nor2b_1
*CAP
1 *610:A3 0.000333874
2 *524:A_N 3.88229e-05
3 *608:B 5.03948e-05
4 *607:B 0.000124182
5 *522:Y 0
6 *37:12 0.000525147
7 *37:8 0.000513698
8 *37:6 0.000458178
9 *524:A_N *524:B 0.000171273
10 *524:A_N *823:A 6.50586e-05
11 *524:A_N *459:78 6.75302e-05
12 *607:B *608:C 5.26455e-05
13 *608:B *608:C 7.92757e-06
14 *610:A3 *522:A 1.94615e-05
15 *610:A3 *524:B 9.22253e-05
16 *610:A3 *610:A2 7.82454e-06
17 *610:A3 *610:B1 3.60185e-05
18 *610:A3 *621:A0 3.60459e-05
19 *610:A3 *621:A1 6.36477e-05
20 *610:A3 *621:S 0.000460051
21 *610:A3 *837:A 0.000169077
22 *610:A3 *336:106 0.000203756
23 *610:A3 *374:12 7.4173e-05
24 *37:8 *524:B 0.000213177
25 *37:8 *837:A 6.85778e-05
26 *37:8 *375:32 0
27 *37:8 *396:26 0
28 *37:12 *609:B1 1.03594e-05
29 *37:12 *618:A2 0.000426891
30 *37:12 *618:A3 1.96636e-05
31 *37:12 *881:A 0.000141104
32 *37:12 *375:32 0
33 *37:12 *396:26 0
34 *37:12 *459:78 0
*RES
1 *522:Y *37:6 13.7491 
2 *37:6 *37:8 4.32351 
3 *37:8 *37:12 15.4675 
4 *37:12 *607:B 12.408 
5 *37:12 *608:B 9.97254 
6 *37:8 *524:A_N 16.1364 
7 *37:6 *610:A3 25.73 
*END

*D_NET *38 0.00259526
*CONN
*I *524:B I *D sky130_fd_sc_hd__nand2b_1
*I *610:B1 I *D sky130_fd_sc_hd__o311a_1
*I *523:Y O *D sky130_fd_sc_hd__nand2b_1
*CAP
1 *524:B 0.000240472
2 *610:B1 0.000524309
3 *523:Y 0
4 *38:4 0.000764781
5 *524:B *522:A 0.000110858
6 *524:B *823:A 3.09257e-05
7 *524:B *396:26 4.78596e-05
8 *610:B1 *523:B 4.36316e-05
9 *610:B1 *610:A2 4.92606e-05
10 *610:B1 *621:A0 5.97521e-05
11 *610:B1 *621:S 0.000113244
12 *610:B1 *336:106 1.91848e-05
13 *610:B1 *374:12 7.41269e-05
14 *610:B1 *374:35 4.16232e-06
15 *524:A_N *524:B 0.000171273
16 *610:A3 *524:B 9.22253e-05
17 *610:A3 *610:B1 3.60185e-05
18 *37:8 *524:B 0.000213177
*RES
1 *523:Y *38:4 9.24915 
2 *38:4 *610:B1 19.0632 
3 *38:4 *524:B 26.9592 
*END

*D_NET *39 0.00231615
*CONN
*I *857:A I *D sky130_fd_sc_hd__buf_4
*I *526:C I *D sky130_fd_sc_hd__or4_1
*I *524:Y O *D sky130_fd_sc_hd__nand2b_1
*CAP
1 *857:A 0.000326356
2 *526:C 0.000332483
3 *524:Y 0
4 *39:6 0.000658839
5 *526:C *618:A1 1.89692e-05
6 *526:C *619:B 0
7 *526:C *619:C 6.66538e-05
8 *526:C *183:33 8.96342e-05
9 *526:C *355:99 0
10 *526:C *396:26 0
11 *526:C *459:78 0.000127475
12 *857:A *619:B 0
13 *857:A *620:A 3.86872e-05
14 *857:A *620:B 0.000143901
15 *857:A *625:A 2.98342e-05
16 *857:A *628:A2 0.000254176
17 *857:A *396:26 0
18 *36:10 *526:C 0.000229137
*RES
1 *524:Y *39:6 13.7491 
2 *39:6 *526:C 24.3014 
3 *39:6 *857:A 23.4709 
*END

*D_NET *40 0.00284216
*CONN
*I *870:A I *D sky130_fd_sc_hd__buf_4
*I *526:D I *D sky130_fd_sc_hd__or4_1
*I *525:X O *D sky130_fd_sc_hd__xor2_1
*CAP
1 *870:A 0
2 *526:D 0.000848272
3 *525:X 5.68583e-05
4 *40:8 0.000905131
5 *526:D *525:B 2.02349e-05
6 *526:D *540:A 2.57986e-05
7 *526:D *540:B 0.000112231
8 *526:D *608:C 0.000111067
9 *526:D *609:B2 3.44254e-06
10 *526:D *618:B1 0.000266294
11 *526:D *112:20 4.50725e-05
12 *526:D *374:35 0.000312159
13 *40:8 *618:B1 2.16355e-05
14 *40:8 *396:26 0.000113968
*RES
1 *525:X *40:8 11.1059 
2 *40:8 *526:D 34.964 
3 *40:8 *870:A 9.24915 
*END

*D_NET *41 0.00460904
*CONN
*I *543:A1 I *D sky130_fd_sc_hd__o31a_1
*I *526:X O *D sky130_fd_sc_hd__or4_1
*CAP
1 *543:A1 0
2 *526:X 0.00069835
3 *41:14 0.00069835
4 *41:14 *543:A3 3.64034e-05
5 *41:14 *603:B 0.000157313
6 *41:14 *609:A3 1.2693e-05
7 *41:14 *629:B 0.000286312
8 *41:14 *630:A 0.000113309
9 *41:14 *631:A1 0.000156823
10 *41:14 *631:S 1.91199e-05
11 *41:14 *636:A 0.000111352
12 *41:14 *336:79 0.0016651
13 *41:14 *355:82 0
14 *41:14 *459:66 0.000653915
*RES
1 *526:X *41:14 49.0966 
2 *41:14 *543:A1 9.24915 
*END

*D_NET *42 0.00399923
*CONN
*I *528:A2 I *D sky130_fd_sc_hd__o221ai_2
*I *869:A I *D sky130_fd_sc_hd__buf_4
*I *527:Y O *D sky130_fd_sc_hd__inv_1
*CAP
1 *528:A2 5.91769e-05
2 *869:A 0.000464276
3 *527:Y 0.000338955
4 *42:8 0.000862408
5 *528:A2 *907:A 1.77537e-06
6 *528:A2 *166:41 6.50727e-05
7 *869:A *647:B1 1.79338e-05
8 *869:A *694:DE 0.000109033
9 *869:A *831:A 0.000381917
10 *869:A *907:A 3.18543e-05
11 *869:A *278:12 0.000159968
12 *869:A *401:10 3.84177e-05
13 *869:A *421:106 2.65667e-05
14 *42:8 *166:41 0.000549264
15 *486:A *869:A 0.000299491
16 *486:B *869:A 0.000350099
17 *490:A *869:A 7.36625e-05
18 *935:A *528:A2 6.50727e-05
19 *5:23 *528:A2 1.23455e-05
20 *5:23 *869:A 8.33115e-05
21 *10:12 *528:A2 8.62625e-06
*RES
1 *527:Y *42:8 19.7413 
2 *42:8 *869:A 33.7451 
3 *42:8 *528:A2 15.474 
*END

*D_NET *43 0.000556701
*CONN
*I *530:C I *D sky130_fd_sc_hd__nand4b_1
*I *528:Y O *D sky130_fd_sc_hd__o221ai_2
*CAP
1 *530:C 0.000228442
2 *528:Y 0.000228442
3 *530:C *528:C1 6.92705e-05
4 *530:C *530:B 1.03594e-05
5 *530:C *166:41 2.01874e-05
6 *530:C *416:12 0
*RES
1 *528:Y *530:C 31.9934 
*END

*D_NET *44 0.00342815
*CONN
*I *530:D I *D sky130_fd_sc_hd__nand4b_1
*I *529:Y O *D sky130_fd_sc_hd__nand2_1
*CAP
1 *530:D 0.000849885
2 *529:Y 0.000849885
3 *530:D *528:C1 0.000897484
4 *530:D *667:B 8.36586e-06
5 *530:D *889:A 6.08467e-05
6 *530:D *932:A 6.08467e-05
7 *530:D *45:10 0.000345607
8 *530:D *377:39 0.000186883
9 *477:A2 *530:D 6.93171e-05
10 *477:A3 *530:D 0
11 *10:12 *530:D 9.90332e-05
*RES
1 *529:Y *530:D 47.0212 
*END

*D_NET *45 0.00526816
*CONN
*I *534:A1 I *D sky130_fd_sc_hd__a21boi_1
*I *940:A I *D sky130_fd_sc_hd__buf_4
*I *536:A2 I *D sky130_fd_sc_hd__a21oi_1
*I *530:Y O *D sky130_fd_sc_hd__nand4b_1
*CAP
1 *534:A1 0.000323445
2 *940:A 1.7842e-05
3 *536:A2 0
4 *530:Y 0.000818675
5 *45:19 0.000503917
6 *45:10 0.000981305
7 *534:A1 *534:A2 0.000152161
8 *534:A1 *543:A2 5.04829e-06
9 *534:A1 *156:12 0.000572557
10 *940:A *604:A 0.000112367
11 *940:A *198:34 0.000112367
12 *45:10 *535:B1 9.12416e-06
13 *45:10 *667:B 6.27782e-05
14 *45:10 *889:A 9.97105e-05
15 *45:10 *156:12 0.000326413
16 *45:10 *413:47 6.00674e-06
17 *45:19 *534:A2 2.0573e-05
18 *45:19 *535:B1 0.000145396
19 *45:19 *48:8 1.75625e-05
20 *45:19 *156:12 0.000360681
21 *45:19 *401:68 2.91831e-05
22 *477:A3 *45:10 0.00011815
23 *530:D *45:10 0.000345607
24 *533:A2 *45:10 5.3781e-05
25 *13:8 *45:10 7.35045e-05
*RES
1 *530:Y *45:10 31.6829 
2 *45:10 *536:A2 13.7491 
3 *45:10 *45:19 6.81502 
4 *45:19 *940:A 15.0271 
5 *45:19 *534:A1 25.5794 
*END

*D_NET *46 0.00244028
*CONN
*I *533:A1 I *D sky130_fd_sc_hd__a21oi_4
*I *535:A2 I *D sky130_fd_sc_hd__a211oi_2
*I *531:X O *D sky130_fd_sc_hd__and2_1
*CAP
1 *533:A1 0.000235377
2 *535:A2 0.000387305
3 *531:X 0
4 *46:4 0.000622683
5 *533:A1 *634:A 7.16893e-05
6 *533:A1 *698:CLK 0
7 *533:A1 *350:16 0.000132382
8 *535:A2 *536:B1 8.16184e-05
9 *535:A2 *543:A3 7.58217e-06
10 *535:A2 *886:A 0.000307413
11 *535:A2 *156:12 0
12 *531:B *533:A1 4.79321e-06
13 *533:A2 *533:A1 0.00016553
14 *535:A1 *533:A1 4.88955e-05
15 *535:A1 *535:A2 0.000375013
*RES
1 *531:X *46:4 9.24915 
2 *46:4 *535:A2 27.8694 
3 *46:4 *533:A1 24.1616 
*END

*D_NET *47 0.000294327
*CONN
*I *856:A I *D sky130_fd_sc_hd__buf_4
*I *532:Y O *D sky130_fd_sc_hd__a21boi_0
*CAP
1 *856:A 0.00010634
2 *532:Y 0.00010634
3 *856:A *957:A 3.1546e-05
4 *856:A *459:32 2.48716e-05
5 *856:A *459:66 2.52285e-05
*RES
1 *532:Y *856:A 30.1608 
*END

*D_NET *48 0.00372476
*CONN
*I *534:A2 I *D sky130_fd_sc_hd__a21boi_1
*I *973:A I *D sky130_fd_sc_hd__buf_4
*I *972:A I *D sky130_fd_sc_hd__buf_4
*I *533:Y O *D sky130_fd_sc_hd__a21oi_4
*CAP
1 *534:A2 0.000505778
2 *973:A 0.000148533
3 *972:A 0.000109489
4 *533:Y 0.00015798
5 *48:12 0.000302691
6 *48:8 0.000708426
7 *534:A2 *604:A 0.000132607
8 *534:A2 *401:68 7.04109e-05
9 *972:A *536:B1 9.54448e-05
10 *972:A *634:B 0.000118166
11 *972:A *50:8 0.000164815
12 *973:A *536:B1 7.6719e-06
13 *973:A *604:A 6.3657e-05
14 *973:A *604:B_N 8.70622e-06
15 *973:A *605:A2 5.07314e-05
16 *973:A *908:A 0
17 *973:A *182:16 4.38712e-05
18 *973:A *182:18 0.000111384
19 *973:A *401:68 0.000684979
20 *48:8 *535:B1 3.92275e-05
21 *48:8 *604:A 9.89388e-06
22 *534:A1 *534:A2 0.000152161
23 *45:19 *534:A2 2.0573e-05
24 *45:19 *48:8 1.75625e-05
*RES
1 *533:Y *48:8 16.8269 
2 *48:8 *48:12 5.2328 
3 *48:12 *972:A 13.3002 
4 *48:12 *973:A 17.7852 
5 *48:8 *534:A2 27.2082 
*END

*D_NET *49 0.00120899
*CONN
*I *543:A2 I *D sky130_fd_sc_hd__o31a_1
*I *534:Y O *D sky130_fd_sc_hd__a21boi_1
*CAP
1 *543:A2 0.000353954
2 *534:Y 0.000353954
3 *543:A2 *534:B1_N 0.00011818
4 *543:A2 *537:A_N 0.000178842
5 *543:A2 *543:B1 0.000136343
6 *543:A2 *715:D 1.94615e-05
7 *543:A2 *887:A 2.51196e-05
8 *543:A2 *172:16 1.80887e-05
9 *534:A1 *543:A2 5.04829e-06
*RES
1 *534:Y *543:A2 37.5338 
*END

*D_NET *50 0.00244749
*CONN
*I *971:A I *D sky130_fd_sc_hd__buf_4
*I *536:A1 I *D sky130_fd_sc_hd__a21oi_1
*I *535:Y O *D sky130_fd_sc_hd__a211oi_2
*CAP
1 *971:A 0.000128154
2 *536:A1 0.000120182
3 *535:Y 0.00014944
4 *50:8 0.000397775
5 *536:A1 *536:B1 3.03173e-05
6 *536:A1 *543:A3 0.00015887
7 *536:A1 *634:A 2.65667e-05
8 *536:A1 *132:18 2.16355e-05
9 *536:A1 *156:12 0.000230844
10 *971:A *534:B1_N 2.29838e-05
11 *971:A *543:A3 0.000284822
12 *971:A *156:12 0.000347257
13 *50:8 *535:B1 1.59527e-05
14 *50:8 *535:C1 0.000321919
15 *50:8 *634:B 2.59533e-05
16 *972:A *50:8 0.000164815
*RES
1 *535:Y *50:8 18.9094 
2 *50:8 *536:A1 18.7961 
3 *50:8 *971:A 20.1489 
*END

*D_NET *51 0.00138203
*CONN
*I *543:A3 I *D sky130_fd_sc_hd__o31a_1
*I *536:Y O *D sky130_fd_sc_hd__a21oi_1
*CAP
1 *543:A3 0.000298133
2 *536:Y 0.000298133
3 *543:A3 *534:B1_N 0.000163344
4 *543:A3 *535:C1 3.87196e-05
5 *543:A3 *536:B1 9.60216e-05
6 *543:A3 *886:A 0
7 *535:A2 *543:A3 7.58217e-06
8 *536:A1 *543:A3 0.00015887
9 *971:A *543:A3 0.000284822
10 *41:14 *543:A3 3.64034e-05
*RES
1 *536:Y *543:A3 37.8069 
*END

*D_NET *52 0.00229031
*CONN
*I *538:C I *D sky130_fd_sc_hd__maj3_1
*I *868:A I *D sky130_fd_sc_hd__buf_4
*I *537:Y O *D sky130_fd_sc_hd__nand2b_1
*CAP
1 *538:C 0.000127489
2 *868:A 0.000127782
3 *537:Y 0.000219061
4 *52:8 0.000474333
5 *538:C *540:A 4.7903e-06
6 *538:C *115:16 0.000176159
7 *868:A *669:B 0
8 *868:A *669:C 6.64392e-05
9 *868:A *115:16 9.35846e-05
10 *868:A *375:19 3.23315e-05
11 *52:8 *540:B 7.66391e-06
12 *52:8 *541:A2 0.000114271
13 *52:8 *541:B1 0.000430792
14 *52:8 *112:12 2.97109e-05
15 *52:8 *112:20 0.000367049
16 *52:8 *374:41 1.88563e-05
*RES
1 *537:Y *52:8 22.237 
2 *52:8 *868:A 17.5503 
3 *52:8 *538:C 17.2421 
*END

*D_NET *53 0.00211463
*CONN
*I *540:B I *D sky130_fd_sc_hd__nor2_1
*I *539:B I *D sky130_fd_sc_hd__nand2_1
*I *538:X O *D sky130_fd_sc_hd__maj3_1
*CAP
1 *540:B 0.000101725
2 *539:B 0
3 *538:X 0.000538719
4 *53:12 0.000640444
5 *540:B *541:A2 4.03096e-05
6 *540:B *112:12 0.000170273
7 *540:B *112:20 7.9266e-05
8 *540:B *374:41 0.000109427
9 *53:12 *618:B1 1.16107e-05
10 *53:12 *669:B 5.03545e-06
11 *53:12 *112:20 9.03762e-06
12 *53:12 *183:41 0.000242518
13 *53:12 *394:37 4.63668e-05
14 *526:D *540:B 0.000112231
15 *52:8 *540:B 7.66391e-06
*RES
1 *538:X *53:12 27.3204 
2 *53:12 *539:B 9.24915 
3 *53:12 *540:B 15.0122 
*END

*D_NET *54 0.00024209
*CONN
*I *541:A2 I *D sky130_fd_sc_hd__a21oi_1
*I *539:Y O *D sky130_fd_sc_hd__nand2_1
*CAP
1 *541:A2 3.53387e-05
2 *539:Y 3.53387e-05
3 *541:A2 *112:12 1.68322e-05
4 *540:B *541:A2 4.03096e-05
5 *52:8 *541:A2 0.000114271
*RES
1 *539:Y *541:A2 20.355 
*END

*D_NET *55 0.00122344
*CONN
*I *541:B1 I *D sky130_fd_sc_hd__a21oi_1
*I *540:Y O *D sky130_fd_sc_hd__nor2_1
*CAP
1 *541:B1 0.000310202
2 *540:Y 0.000310202
3 *541:B1 *537:A_N 2.50929e-05
4 *541:B1 *542:C 1.03594e-05
5 *541:B1 *112:12 6.27718e-05
6 *541:B1 *394:37 7.40248e-05
7 *52:8 *541:B1 0.000430792
*RES
1 *540:Y *541:B1 34.2441 
*END

*D_NET *56 0.000273636
*CONN
*I *542:C I *D sky130_fd_sc_hd__maj3_1
*I *541:Y O *D sky130_fd_sc_hd__a21oi_1
*CAP
1 *542:C 6.83343e-05
2 *541:Y 6.83343e-05
3 *542:C *537:A_N 6.58216e-05
4 *542:C *394:37 6.07862e-05
5 *541:B1 *542:C 1.03594e-05
*RES
1 *541:Y *542:C 30.1608 
*END

*D_NET *57 0.00117649
*CONN
*I *543:B1 I *D sky130_fd_sc_hd__o31a_1
*I *542:X O *D sky130_fd_sc_hd__maj3_1
*CAP
1 *543:B1 0.000288173
2 *542:X 0.000288173
3 *543:B1 *534:B1_N 0.000350077
4 *543:B1 *537:A_N 4.86511e-05
5 *543:B1 *542:B 6.50727e-05
6 *543:B1 *156:12 0
7 *543:A2 *543:B1 0.000136343
*RES
1 *542:X *543:B1 37.113 
*END

*D_NET *58 0.00342261
*CONN
*I *565:A I *D sky130_fd_sc_hd__maj3_2
*I *944:A I *D sky130_fd_sc_hd__buf_4
*I *543:X O *D sky130_fd_sc_hd__o31a_1
*CAP
1 *565:A 0.000394724
2 *944:A 0
3 *543:X 0.000761316
4 *58:18 0.00115604
5 *565:A *553:A 0
6 *565:A *553:B 0
7 *565:A *553:C 6.18142e-05
8 *565:A *565:C 1.44467e-05
9 *565:A *599:A 0
10 *565:A *850:A 0.000286123
11 *565:A *344:12 0.000112367
12 *58:18 *602:B1 8.19046e-05
13 *58:18 *850:A 0.000114271
14 *58:18 *943:A 9.95594e-05
15 *58:18 *336:79 0.00016195
16 *58:18 *344:12 0.000167372
17 *565:B *565:A 1.07248e-05
*RES
1 *543:X *58:18 29.4078 
2 *58:18 *944:A 9.24915 
3 *58:18 *565:A 28.724 
*END

*D_NET *59 0.00201723
*CONN
*I *867:A I *D sky130_fd_sc_hd__buf_4
*I *553:A I *D sky130_fd_sc_hd__nand4_1
*I *544:Y O *D sky130_fd_sc_hd__xnor2_1
*CAP
1 *867:A 0
2 *553:A 0.000245683
3 *544:Y 0.000502328
4 *59:10 0.000748011
5 *553:A *553:D 0
6 *553:A *560:A1 5.55532e-05
7 *553:A *599:A 3.90891e-05
8 *553:A *271:10 0
9 *59:10 *271:10 0
10 *59:10 *271:29 0
11 *59:10 *272:16 6.19724e-05
12 *59:10 *393:8 0.000261128
13 *59:10 *413:71 7.75178e-06
14 *59:10 *424:14 9.5713e-05
15 *565:A *553:A 0
16 *565:B *553:A 0
17 *565:B *59:10 0
*RES
1 *544:Y *59:10 25.5822 
2 *59:10 *553:A 20.5109 
3 *59:10 *867:A 13.7491 
*END

*D_NET *61 0.00167676
*CONN
*I *553:B I *D sky130_fd_sc_hd__nand4_1
*I *866:A I *D sky130_fd_sc_hd__buf_4
*I *546:Y O *D sky130_fd_sc_hd__xnor2_1
*CAP
1 *553:B 0.000332763
2 *866:A 0.000126201
3 *546:Y 0.000128179
4 *61:8 0.000587143
5 *553:B *553:C 6.27782e-05
6 *553:B *553:D 6.49531e-05
7 *553:B *566:A2 4.89392e-05
8 *553:B *844:A 3.55757e-05
9 *553:B *191:18 7.11518e-06
10 *866:A *586:B 0.000111352
11 *866:A *844:A 6.46815e-05
12 *866:A *338:12 6.27332e-05
13 *61:8 *191:18 4.43421e-05
14 *565:A *553:B 0
*RES
1 *546:Y *61:8 16.8269 
2 *61:8 *866:A 17.4238 
3 *61:8 *553:B 22.1506 
*END

*D_NET *62 0.00232247
*CONN
*I *549:A I *D sky130_fd_sc_hd__nor2b_1
*I *865:A I *D sky130_fd_sc_hd__buf_4
*I *547:Y O *D sky130_fd_sc_hd__nor2b_1
*CAP
1 *549:A 0
2 *865:A 0.000393003
3 *547:Y 0.000327715
4 *62:14 0.000720718
5 *865:A *502:A 3.0676e-05
6 *865:A *575:A2 4.98642e-05
7 *865:A *862:A 0.000140123
8 *865:A *64:10 0
9 *865:A *359:12 0.000104815
10 *865:A *424:20 0
11 *62:14 *558:A2 0.00011766
12 *62:14 *704:CLK 2.41274e-06
13 *62:14 *862:A 0
14 *62:14 *63:8 0
15 *62:14 *352:82 0.000113436
16 *62:14 *414:174 1.55378e-05
17 *62:14 *424:20 0.000306512
*RES
1 *547:Y *62:14 28.0382 
2 *62:14 *865:A 28.9395 
3 *62:14 *549:A 9.24915 
*END

*D_NET *63 0.00111325
*CONN
*I *549:B_N I *D sky130_fd_sc_hd__nor2b_1
*I *862:A I *D sky130_fd_sc_hd__buf_4
*I *548:Y O *D sky130_fd_sc_hd__nand2b_1
*CAP
1 *549:B_N 0
2 *862:A 0.000136682
3 *548:Y 0.000196406
4 *63:8 0.000333088
5 *862:A *559:C 6.00124e-05
6 *862:A *575:A2 3.00829e-05
7 *862:A *191:14 2.85892e-05
8 *63:8 *191:14 6.30274e-06
9 *63:8 *409:33 0.00017419
10 *63:8 *424:20 0
11 *63:8 *459:88 7.77309e-06
12 *865:A *862:A 0.000140123
13 *62:14 *862:A 0
14 *62:14 *63:8 0
*RES
1 *548:Y *63:8 19.3184 
2 *63:8 *862:A 18.7961 
3 *63:8 *549:B_N 13.7491 
*END

*D_NET *64 0.00238351
*CONN
*I *855:A I *D sky130_fd_sc_hd__buf_4
*I *553:C I *D sky130_fd_sc_hd__nand4_1
*I *549:Y O *D sky130_fd_sc_hd__nor2b_1
*CAP
1 *855:A 0
2 *553:C 0.000452697
3 *549:Y 0.000304184
4 *64:10 0.000756881
5 *553:C *502:A 1.39717e-06
6 *553:C *565:C 0.00011552
7 *553:C *566:A2 0
8 *553:C *594:A 0.000196138
9 *553:C *191:18 0
10 *64:10 *502:A 5.33868e-05
11 *64:10 *558:A2 0.000162433
12 *64:10 *424:20 0.00013832
13 *553:B *553:C 6.27782e-05
14 *565:A *553:C 6.18142e-05
15 *865:A *64:10 0
16 *874:A *553:C 1.22289e-05
17 *874:A *64:10 6.57318e-05
*RES
1 *549:Y *64:10 21.151 
2 *64:10 *553:C 25.8553 
3 *64:10 *855:A 13.7491 
*END

*D_NET *65 0.00163922
*CONN
*I *558:A1 I *D sky130_fd_sc_hd__o21bai_1
*I *864:A I *D sky130_fd_sc_hd__buf_4
*I *550:Y O *D sky130_fd_sc_hd__nor2b_1
*CAP
1 *558:A1 0.00010861
2 *864:A 8.78839e-05
3 *550:Y 0.000156482
4 *65:10 0.000352976
5 *558:A1 *558:A2 3.11466e-05
6 *558:A1 *558:B1_N 6.08467e-05
7 *558:A1 *352:82 0.000364356
8 *864:A *174:10 1.61631e-05
9 *864:A *352:82 0.000186479
10 *864:A *358:12 1.00766e-05
11 *65:10 *498:A1 0.000119674
12 *65:10 *558:B1_N 0.000144531
13 *65:10 *191:14 0
*RES
1 *550:Y *65:10 23.4032 
2 *65:10 *864:A 12.2151 
3 *65:10 *558:A1 13.8789 
*END

*D_NET *66 0.000891581
*CONN
*I *558:B1_N I *D sky130_fd_sc_hd__o21bai_1
*I *863:A I *D sky130_fd_sc_hd__buf_4
*I *551:Y O *D sky130_fd_sc_hd__nor2b_1
*CAP
1 *558:B1_N 0.000135615
2 *863:A 0
3 *551:Y 4.37961e-05
4 *66:8 0.000179411
5 *558:B1_N *498:A1 7.56859e-06
6 *558:B1_N *500:S 0.000111708
7 *558:B1_N *357:8 0.000143032
8 *558:B1_N *409:10 0
9 *66:8 *500:S 6.50727e-05
10 *558:A1 *558:B1_N 6.08467e-05
11 *65:10 *558:B1_N 0.000144531
*RES
1 *551:Y *66:8 10.5513 
2 *66:8 *863:A 9.24915 
3 *66:8 *558:B1_N 23.3283 
*END

*D_NET *67 0.00532512
*CONN
*I *553:D I *D sky130_fd_sc_hd__nand4_1
*I *854:A I *D sky130_fd_sc_hd__buf_4
*I *552:Y O *D sky130_fd_sc_hd__nor2_1
*CAP
1 *553:D 0.00069842
2 *854:A 0.000492545
3 *552:Y 0.000161842
4 *67:12 0.00135281
5 *553:D *566:A2 0.000171273
6 *553:D *566:B1 6.50727e-05
7 *553:D *566:C1 0.000111722
8 *553:D *567:A 2.26792e-05
9 *553:D *567:B 1.15389e-05
10 *553:D *581:A 0.000207266
11 *553:D *844:A 3.83727e-05
12 *553:D *81:8 0.00014642
13 *854:A resp_msg[14] 0.000405947
14 *854:A *582:A1 0.000113254
15 *854:A *582:B1 0
16 *854:A *582:D1 0.000208292
17 *854:A *585:A1 7.41781e-05
18 *854:A *586:B 0.000410772
19 *854:A *592:A 5.31465e-05
20 *854:A *601:A 0
21 *854:A *677:B1_N 0.00016553
22 *854:A *827:A 6.08467e-05
23 *854:A *84:39 7.17847e-05
24 *67:12 *582:B1 0
25 *67:12 *81:8 0.000216458
26 *553:A *553:D 0
27 *553:B *553:D 6.49531e-05
*RES
1 *552:Y *67:12 22.4683 
2 *67:12 *854:A 36.3547 
3 *67:12 *553:D 26.4901 
*END

*D_NET *68 0.00160282
*CONN
*I *560:A1 I *D sky130_fd_sc_hd__o21ai_4
*I *553:Y O *D sky130_fd_sc_hd__nand4_1
*CAP
1 *560:A1 0.00067698
2 *553:Y 0.00067698
3 *560:A1 *560:A2 0
4 *560:A1 *86:10 4.18826e-05
5 *560:A1 *165:18 0.000151426
6 *560:A1 *344:12 0
7 *553:A *560:A1 5.55532e-05
*RES
1 *553:Y *560:A1 41.5498 
*END

*D_NET *69 0.000650085
*CONN
*I *557:A2 I *D sky130_fd_sc_hd__a21oi_1
*I *554:Y O *D sky130_fd_sc_hd__nand2b_1
*CAP
1 *557:A2 0.000170274
2 *554:Y 0.000170274
3 *557:A2 *554:B 1.47046e-05
4 *557:A2 *557:A1 0.000173637
5 *557:A2 *557:B1 0.000121197
*RES
1 *554:Y *557:A2 23.6826 
*END

*D_NET *70 0.000188884
*CONN
*I *556:A2 I *D sky130_fd_sc_hd__a21oi_1
*I *555:Y O *D sky130_fd_sc_hd__nor2_1
*CAP
1 *556:A2 4.12614e-05
2 *555:Y 4.12614e-05
3 *556:A2 *456:21 5.0715e-05
4 *556:A2 *459:88 5.56461e-05
*RES
1 *555:Y *556:A2 20.355 
*END

*D_NET *71 0.000961046
*CONN
*I *557:B1 I *D sky130_fd_sc_hd__a21oi_1
*I *556:Y O *D sky130_fd_sc_hd__a21oi_1
*CAP
1 *557:B1 0.00027532
2 *556:Y 0.00027532
3 *557:B1 *556:B1 5.92342e-05
4 *557:B1 *557:A1 1.1957e-05
5 *557:B1 *558:A2 3.18748e-06
6 *557:B1 *188:16 1.23455e-05
7 *557:B1 *271:29 0.000177704
8 *557:B1 *272:16 2.47808e-05
9 *557:A2 *557:B1 0.000121197
*RES
1 *556:Y *557:B1 34.0966 
*END

*D_NET *72 0.00150945
*CONN
*I *558:A2 I *D sky130_fd_sc_hd__o21bai_1
*I *557:Y O *D sky130_fd_sc_hd__a21oi_1
*CAP
1 *558:A2 0.000457972
2 *557:Y 0.000457972
3 *558:A2 *559:C 0.000205681
4 *558:A2 *352:82 7.33966e-05
5 *557:B1 *558:A2 3.18748e-06
6 *558:A1 *558:A2 3.11466e-05
7 *62:14 *558:A2 0.00011766
8 *64:10 *558:A2 0.000162433
*RES
1 *557:Y *558:A2 31.3024 
*END

*D_NET *73 0.00112834
*CONN
*I *559:C I *D sky130_fd_sc_hd__maj3_1
*I *558:Y O *D sky130_fd_sc_hd__o21bai_1
*CAP
1 *559:C 0.000294016
2 *558:Y 0.000294016
3 *559:C *191:14 0.000274613
4 *558:A2 *559:C 0.000205681
5 *862:A *559:C 6.00124e-05
*RES
1 *558:Y *559:C 35.0395 
*END

*D_NET *74 0.00486666
*CONN
*I *560:B1 I *D sky130_fd_sc_hd__o21ai_4
*I *559:X O *D sky130_fd_sc_hd__maj3_1
*CAP
1 *560:B1 0.00066225
2 *559:X 0.000892475
3 *74:16 0.00155473
4 *560:B1 *560:A2 0
5 *560:B1 *599:B 0.000286002
6 *560:B1 *600:A0 6.87503e-05
7 *560:B1 *600:A1 0
8 *560:B1 *601:A 1.91246e-05
9 *560:B1 *602:A1 0.000101468
10 *560:B1 *602:A2 0.000144531
11 *560:B1 *602:B1 8.52256e-05
12 *560:B1 *842:A 0
13 *560:B1 *271:29 0
14 *560:B1 *355:12 3.25846e-05
15 *560:B1 *406:12 0
16 *560:B1 *413:17 7.86825e-06
17 *560:B1 *425:14 0
18 *74:16 *502:A 1.32185e-05
19 *74:16 *594:A 6.08467e-05
20 *74:16 *670:A 0.000214239
21 *74:16 *895:A 0.000384993
22 *565:B *74:16 0.000107496
23 *29:6 *74:16 0.000230866
*RES
1 *559:X *74:16 31.4965 
2 *74:16 *560:B1 32.6065 
*END

*D_NET *75 0.00166459
*CONN
*I *572:A I *D sky130_fd_sc_hd__maj3_2
*I *950:A I *D sky130_fd_sc_hd__buf_6
*I *560:Y O *D sky130_fd_sc_hd__o21ai_4
*CAP
1 *572:A 9.45254e-05
2 *950:A 3.11696e-05
3 *560:Y 0.000247982
4 *75:10 0.000373677
5 *572:A *572:B 0.000171096
6 *950:A *86:14 0.000118166
7 *75:10 *86:14 0.000211478
8 *75:10 *86:41 0.000316335
9 *75:10 *441:12 0.000100162
*RES
1 *560:Y *75:10 19.0391 
2 *75:10 *950:A 10.5271 
3 *75:10 *572:A 21.3269 
*END

*D_NET *76 0.00195716
*CONN
*I *562:A I *D sky130_fd_sc_hd__xnor2_2
*I *561:X O *D sky130_fd_sc_hd__xor2_1
*CAP
1 *562:A 0.000360736
2 *561:X 0.000360736
3 *562:A *678:B 1.72644e-05
4 *562:A *403:27 0.000592566
5 *474:A1 *562:A 0.000625856
*RES
1 *561:X *562:A 40.1972 
*END

*D_NET *77 0.00475193
*CONN
*I *576:C I *D sky130_fd_sc_hd__nor3_1
*I *581:B I *D sky130_fd_sc_hd__or4_1
*I *927:A I *D sky130_fd_sc_hd__buf_4
*I *563:Y O *D sky130_fd_sc_hd__nand2b_1
*CAP
1 *576:C 0.000113494
2 *581:B 0
3 *927:A 0.000472495
4 *563:Y 0
5 *77:33 0.000898318
6 *77:4 0.00125732
7 *576:C *574:A2 4.41944e-05
8 *576:C *175:23 1.18938e-05
9 *576:C *175:36 5.66868e-06
10 *576:C *358:12 8.62625e-06
11 *576:C *358:16 0.000132307
12 *927:A *675:A2 0.000152857
13 *927:A *677:B1_N 0.000132607
14 *927:A *83:12 3.79836e-05
15 *927:A *158:10 0.000199546
16 *927:A *421:10 6.27782e-05
17 *927:A *421:44 7.06993e-05
18 *77:33 *563:A_N 2.91926e-05
19 *77:33 *574:A2 2.70705e-05
20 *77:33 *581:D 0.000153386
21 *77:33 *677:A1 0.000386456
22 *77:33 *920:A 0
23 *77:33 *942:A 0
24 *77:33 *158:10 4.95892e-05
25 *77:33 *175:10 8.80977e-05
26 *77:33 *175:23 9.13249e-05
27 *77:33 *338:12 1.37054e-05
28 *77:33 *352:44 0
29 *77:33 *358:16 7.24909e-05
30 *77:33 *388:56 0.000117991
31 *77:33 *455:10 6.14273e-05
32 *77:33 *455:12 6.04133e-05
*RES
1 *563:Y *77:4 9.24915 
2 *77:4 *927:A 28.4591 
3 *77:4 *77:33 28.2577 
4 *77:33 *581:B 13.7491 
5 *77:33 *576:C 17.1444 
*END

*D_NET *79 0.0017869
*CONN
*I *924:A I *D sky130_fd_sc_hd__buf_6
*I *566:A1 I *D sky130_fd_sc_hd__a211oi_2
*I *565:X O *D sky130_fd_sc_hd__maj3_2
*CAP
1 *924:A 0
2 *566:A1 0.000102079
3 *565:X 0.000397972
4 *79:10 0.000500052
5 *566:A1 *191:18 0.000223549
6 *566:A1 *409:10 0.000227147
7 *566:A1 *418:10 0.000111722
8 *79:10 *418:10 0.000224381
*RES
1 *565:X *79:10 19.0391 
2 *79:10 *566:A1 23.4354 
3 *79:10 *924:A 9.24915 
*END

*D_NET *80 0.00205104
*CONN
*I *844:A I *D sky130_fd_sc_hd__buf_4
*I *567:A I *D sky130_fd_sc_hd__nor2_2
*I *566:Y O *D sky130_fd_sc_hd__a211oi_2
*CAP
1 *844:A 0.000334064
2 *567:A 0.000456863
3 *566:Y 0.000790928
4 *567:A *566:B1 7.01935e-06
5 *567:A *566:C1 5.31465e-05
6 *567:A *567:B 4.24629e-05
7 *567:A *581:A 2.66571e-05
8 *567:A *581:D 6.08467e-05
9 *567:A *81:8 1.1957e-05
10 *844:A *191:18 9.5713e-05
11 *844:A *338:12 1.00766e-05
12 *553:B *844:A 3.55757e-05
13 *553:D *567:A 2.26792e-05
14 *553:D *844:A 3.83727e-05
15 *866:A *844:A 6.46815e-05
*RES
1 *566:Y *567:A 27.0585 
2 *566:Y *844:A 34.1288 
*END

*D_NET *81 0.00157134
*CONN
*I *586:A I *D sky130_fd_sc_hd__xnor2_1
*I *582:A1 I *D sky130_fd_sc_hd__o2111ai_2
*I *567:Y O *D sky130_fd_sc_hd__nor2_2
*CAP
1 *586:A 0
2 *582:A1 0.000105807
3 *567:Y 0.000188751
4 *81:8 0.000294557
5 *582:A1 *582:A2 1.03594e-05
6 *582:A1 *582:B1 1.4426e-05
7 *582:A1 *582:D1 0.000115157
8 *582:A1 *586:B 0.000113309
9 *582:A1 *601:A 0.00012011
10 *582:A1 *677:B1_N 1.59362e-06
11 *81:8 *567:B 6.08467e-05
12 *81:8 *601:A 2.16355e-05
13 *81:8 *827:A 3.6696e-05
14 *553:D *81:8 0.00014642
15 *567:A *81:8 1.1957e-05
16 *854:A *582:A1 0.000113254
17 *67:12 *81:8 0.000216458
*RES
1 *567:Y *81:8 15.5427 
2 *81:8 *582:A1 22.6049 
3 *81:8 *586:A 9.24915 
*END

*D_NET *82 0.00160042
*CONN
*I *584:A I *D sky130_fd_sc_hd__nor3_1
*I *573:B I *D sky130_fd_sc_hd__nand4_1
*I *568:Y O *D sky130_fd_sc_hd__inv_1
*CAP
1 *584:A 0.000140159
2 *573:B 0.000426797
3 *568:Y 0
4 *82:4 0.000566956
5 *573:B *568:A 8.02081e-05
6 *573:B *585:A2 2.84758e-05
7 *573:B *585:B1 6.34737e-05
8 *573:B *691:D 0.000112367
9 *573:B *433:20 6.45083e-05
10 *584:A *584:C 0.000111352
11 *584:A *585:B1 6.12629e-06
*RES
1 *568:Y *82:4 9.24915 
2 *82:4 *573:B 19.5334 
3 *82:4 *584:A 12.4683 
*END

*D_NET *83 0.000801165
*CONN
*I *860:A I *D sky130_fd_sc_hd__buf_4
*I *570:B I *D sky130_fd_sc_hd__nor2_1
*I *569:Y O *D sky130_fd_sc_hd__inv_1
*CAP
1 *860:A 0
2 *570:B 6.31577e-05
3 *569:Y 0.00014834
4 *83:12 0.000211497
5 *570:B *570:A 4.09549e-05
6 *570:B *675:A2 0.000167398
7 *570:B *84:20 1.37189e-05
8 *570:B *421:44 4.65954e-06
9 *83:12 *563:A_N 5.43217e-05
10 *83:12 *675:A2 1.83628e-05
11 *83:12 *158:10 4.07705e-05
12 *927:A *83:12 3.79836e-05
*RES
1 *569:Y *83:12 21.773 
2 *83:12 *570:B 12.2392 
3 *83:12 *860:A 9.24915 
*END

*D_NET *84 0.0073527
*CONN
*I *853:A I *D sky130_fd_sc_hd__buf_4
*I *574:B1 I *D sky130_fd_sc_hd__o2111ai_1
*I *573:C I *D sky130_fd_sc_hd__nand4_1
*I *570:Y O *D sky130_fd_sc_hd__nor2_1
*CAP
1 *853:A 0.000463776
2 *574:B1 0
3 *573:C 0.000617496
4 *570:Y 0.000593231
5 *84:39 0.000827554
6 *84:20 0.0015745
7 *573:C *573:A 3.44412e-06
8 *573:C *582:D1 0.000109479
9 *573:C *585:A1 0.000305874
10 *573:C *585:C1 0.000112361
11 *853:A *574:C1 0.000419741
12 *853:A *89:10 0.000416082
13 *853:A *347:6 0.00015901
14 *853:A *358:12 0.000227288
15 *853:A *358:16 1.44467e-05
16 *84:20 *563:A_N 0.000123582
17 *84:20 *568:A 0.000111504
18 *84:20 *570:A 0.000165459
19 *84:20 *584:C 3.3738e-05
20 *84:20 *677:A1 0.000475722
21 *84:20 *677:B1_N 4.45962e-06
22 *84:39 *574:C1 1.07248e-05
23 *84:39 *582:D1 6.11872e-05
24 *84:39 *584:C 6.97758e-05
25 *84:39 *358:16 1.12605e-05
26 *84:39 *388:56 0.000355497
27 *570:B *84:20 1.37189e-05
28 *854:A *84:39 7.17847e-05
*RES
1 *570:Y *84:20 34.3885 
2 *84:20 *573:C 28.8449 
3 *84:20 *84:39 13.9781 
4 *84:39 *574:B1 13.7491 
5 *84:39 *853:A 30.1556 
*END

*D_NET *85 0.0017209
*CONN
*I *572:C I *D sky130_fd_sc_hd__maj3_2
*I *679:B I *D sky130_fd_sc_hd__xnor2_2
*I *571:Y O *D sky130_fd_sc_hd__inv_1
*CAP
1 *572:C 0.000204762
2 *679:B 1.5337e-05
3 *571:Y 4.24756e-05
4 *85:6 0.000262575
5 *572:C *562:B 0
6 *572:C *572:B 0.000359108
7 *572:C *86:10 4.18826e-05
8 *572:C *441:12 0
9 *679:B *679:A 6.08467e-05
10 *679:B *414:118 2.65831e-05
11 *85:6 *571:A 0.000238155
12 *85:6 *679:A 0.000403827
13 *85:6 *414:118 6.53528e-05
*RES
1 *571:Y *85:6 13.5775 
2 *85:6 *679:B 9.97254 
3 *85:6 *572:C 25.0642 
*END

*D_NET *86 0.00454308
*CONN
*I *842:A I *D sky130_fd_sc_hd__buf_8
*I *922:A I *D sky130_fd_sc_hd__buf_6
*I *921:A I *D sky130_fd_sc_hd__buf_6
*I *840:A I *D sky130_fd_sc_hd__buf_6
*I *942:A I *D sky130_fd_sc_hd__buf_4
*I *572:X O *D sky130_fd_sc_hd__maj3_2
*CAP
1 *842:A 0.000264318
2 *922:A 0
3 *921:A 0
4 *840:A 0
5 *942:A 8.75533e-05
6 *572:X 5.38174e-05
7 *86:41 0.000634271
8 *86:16 0.000323485
9 *86:14 0.000705926
10 *86:10 0.000893765
11 *842:A *157:12 0.00038312
12 *942:A *573:A 2.02035e-05
13 *942:A *920:A 0.000171351
14 *942:A *175:10 3.47232e-05
15 *942:A *404:12 9.12416e-06
16 *86:14 *415:10 0.000119972
17 *86:16 *352:44 0.000111708
18 *560:A1 *86:10 4.18826e-05
19 *560:B1 *842:A 0
20 *572:C *86:10 4.18826e-05
21 *950:A *86:14 0.000118166
22 *75:10 *86:14 0.000211478
23 *75:10 *86:41 0.000316335
24 *77:33 *942:A 0
*RES
1 *572:X *86:10 20.0811 
2 *86:10 *86:14 11.8396 
3 *86:14 *86:16 5.71483 
4 *86:16 *942:A 21.3269 
5 *86:16 *840:A 9.24915 
6 *86:14 *921:A 9.24915 
7 *86:10 *86:41 10.1758 
8 *86:41 *922:A 9.24915 
9 *86:41 *842:A 26.3422 
*END

*D_NET *87 0.000934962
*CONN
*I *582:A2 I *D sky130_fd_sc_hd__o2111ai_2
*I *573:Y O *D sky130_fd_sc_hd__nand4_1
*CAP
1 *582:A2 0.000259594
2 *573:Y 0.000259594
3 *582:A2 *582:B1 1.03594e-05
4 *582:A2 *584:B 1.85244e-05
5 *582:A2 *585:A1 8.96342e-05
6 *582:A2 *585:C1 1.67067e-05
7 *582:A2 *352:57 1.30094e-05
8 *582:A2 *433:20 0.00025718
9 *582:A1 *582:A2 1.03594e-05
*RES
1 *573:Y *582:A2 33.1026 
*END

*D_NET *88 0.00124966
*CONN
*I *582:B1 I *D sky130_fd_sc_hd__o2111ai_2
*I *574:Y O *D sky130_fd_sc_hd__o2111ai_1
*CAP
1 *582:B1 0.000319977
2 *574:Y 0.000319977
3 *582:B1 *552:A 2.99287e-05
4 *582:B1 *552:B 2.74378e-05
5 *582:B1 *579:B1 3.68416e-05
6 *582:B1 *586:B 0.00014244
7 *582:B1 *591:A2 1.43983e-05
8 *582:B1 *352:57 0.00033388
9 *582:A1 *582:B1 1.4426e-05
10 *582:A2 *582:B1 1.03594e-05
11 *854:A *582:B1 0
12 *67:12 *582:B1 0
*RES
1 *574:Y *582:B1 38.0884 
*END

*D_NET *89 0.00430946
*CONN
*I *939:A I *D sky130_fd_sc_hd__buf_4
*I *841:A I *D sky130_fd_sc_hd__buf_4
*I *579:A2 I *D sky130_fd_sc_hd__o2111ai_2
*I *575:X O *D sky130_fd_sc_hd__a21o_4
*CAP
1 *939:A 0.000428879
2 *841:A 0.000237626
3 *579:A2 0.000176812
4 *575:X 0.000259614
5 *89:23 0.000991867
6 *89:10 0.000761787
7 *579:A2 *574:C1 0
8 *579:A2 *579:B1 5.22654e-06
9 *579:A2 *587:A 4.34092e-05
10 *579:A2 *352:57 0
11 *579:A2 *376:19 2.86829e-05
12 *841:A *587:B 0.00035467
13 *939:A *591:A2 1.95129e-05
14 *939:A *690:D 0
15 *939:A *690:CLK 1.77537e-06
16 *939:A *941:A 0.000114271
17 *89:10 *376:19 0.000154993
18 *89:23 *578:B 2.94093e-05
19 *89:23 *587:A 8.42498e-05
20 *89:23 *390:8 4.15595e-05
21 *89:23 *390:14 0.000159038
22 *853:A *89:10 0.000416082
*RES
1 *575:X *89:10 21.9871 
2 *89:10 *579:A2 18.0727 
3 *89:10 *89:23 12.4332 
4 *89:23 *841:A 15.5427 
5 *89:23 *939:A 28.8634 
*END

*D_NET *90 0.00171033
*CONN
*I *579:B1 I *D sky130_fd_sc_hd__o2111ai_2
*I *576:Y O *D sky130_fd_sc_hd__nor3_1
*CAP
1 *579:B1 0.000540537
2 *576:Y 0.000540537
3 *579:B1 *552:B 0.000515631
4 *579:B1 *574:C1 0
5 *579:B1 *591:A2 1.61631e-05
6 *579:B1 *352:57 5.53934e-05
7 *579:A2 *579:B1 5.22654e-06
8 *582:B1 *579:B1 3.68416e-05
*RES
1 *576:Y *579:B1 37.6788 
*END

*D_NET *92 0.0011223
*CONN
*I *579:D1 I *D sky130_fd_sc_hd__o2111ai_2
*I *578:Y O *D sky130_fd_sc_hd__nand2b_1
*CAP
1 *579:D1 0.000334787
2 *578:Y 0.000334787
3 *579:D1 *587:A 0.000301926
4 *579:D1 *588:A1 1.67329e-05
5 *579:D1 *588:A2 3.20069e-06
6 *579:D1 *588:B1_N 8.66189e-06
7 *579:D1 *591:A1 3.2648e-05
8 *579:D1 *591:A2 1.25301e-05
9 *579:D1 *390:8 2.30636e-05
10 *579:D1 *390:14 5.39639e-05
*RES
1 *578:Y *579:D1 34.4107 
*END

*D_NET *93 0.000915934
*CONN
*I *582:C1 I *D sky130_fd_sc_hd__o2111ai_2
*I *579:Y O *D sky130_fd_sc_hd__o2111ai_2
*CAP
1 *582:C1 0.00031418
2 *579:Y 0.00031418
3 *582:C1 *588:A2 3.88002e-05
4 *582:C1 *589:A_N 0.000122083
5 *582:C1 *352:57 0.000102129
6 *582:C1 *390:14 2.4562e-05
7 *582:C1 *433:26 0
*RES
1 *579:Y *582:C1 36.8048 
*END

*D_NET *94 0.00221994
*CONN
*I *581:D I *D sky130_fd_sc_hd__or4_1
*I *580:Y O *D sky130_fd_sc_hd__nand2_1
*CAP
1 *581:D 0.000444836
2 *580:Y 0.000444836
3 *581:D *546:A 3.96696e-05
4 *581:D *581:A 2.16355e-05
5 *581:D *601:A 0.00035118
6 *581:D *677:A1 9.22866e-05
7 *581:D *920:A 9.65909e-05
8 *581:D *334:12 1.30836e-05
9 *581:D *338:12 0.000149678
10 *581:D *388:29 0.000351914
11 *567:A *581:D 6.08467e-05
12 *77:33 *581:D 0.000153386
*RES
1 *580:Y *581:D 43.1803 
*END

*D_NET *95 0.00269022
*CONN
*I *582:D1 I *D sky130_fd_sc_hd__o2111ai_2
*I *581:X O *D sky130_fd_sc_hd__or4_1
*CAP
1 *582:D1 0.000424633
2 *581:X 0.000424633
3 *582:D1 *584:C 0.000247443
4 *582:D1 *585:A1 0.000307778
5 *582:D1 *585:C1 0.000112361
6 *582:D1 *586:B 7.5301e-06
7 *582:D1 *677:B1_N 0.00016553
8 *582:D1 *920:A 4.15661e-05
9 *582:D1 *334:12 0.000186597
10 *582:D1 *338:12 0.000156076
11 *582:D1 *404:12 0.000121954
12 *582:D1 *409:10 0
13 *573:C *582:D1 0.000109479
14 *582:A1 *582:D1 0.000115157
15 *854:A *582:D1 0.000208292
16 *84:39 *582:D1 6.11872e-05
*RES
1 *581:X *582:D1 44.7734 
*END

*D_NET *96 0.000710544
*CONN
*I *585:C1 I *D sky130_fd_sc_hd__a211o_1
*I *582:Y O *D sky130_fd_sc_hd__o2111ai_2
*CAP
1 *585:C1 0.00014227
2 *582:Y 0.00014227
3 *585:C1 *584:B 1.54694e-05
4 *585:C1 *677:B1_N 0.000142144
5 *585:C1 *421:10 1.12493e-05
6 *585:C1 *433:20 1.5714e-05
7 *573:C *585:C1 0.000112361
8 *582:A2 *585:C1 1.67067e-05
9 *582:D1 *585:C1 0.000112361
*RES
1 *582:Y *585:C1 31.854 
*END

*D_NET *98 0.000693208
*CONN
*I *585:B1 I *D sky130_fd_sc_hd__a211o_1
*I *584:Y O *D sky130_fd_sc_hd__nor3_1
*CAP
1 *585:B1 0.00025962
2 *584:Y 0.00025962
3 *585:B1 *568:A 2.85e-05
4 *585:B1 *584:C 5.31465e-05
5 *585:B1 *585:A2 7.62898e-06
6 *585:B1 *433:20 1.50924e-05
7 *573:B *585:B1 6.34737e-05
8 *584:A *585:B1 6.12629e-06
*RES
1 *584:Y *585:B1 24.9847 
*END

*D_NET *99 0.0017768
*CONN
*I *588:A1 I *D sky130_fd_sc_hd__a21bo_1
*I *589:C I *D sky130_fd_sc_hd__nand3b_1
*I *587:X O *D sky130_fd_sc_hd__xor2_2
*CAP
1 *588:A1 9.96452e-05
2 *589:C 6.79659e-05
3 *587:X 6.65903e-05
4 *99:8 0.000234201
5 *588:A1 *579:C1 0.000425203
6 *588:A1 *588:A2 0.000111708
7 *588:A1 *588:B1_N 4.67442e-05
8 *589:C *589:A_N 0.000122083
9 *589:C *352:57 0.000195139
10 *589:C *390:14 7.65861e-05
11 *99:8 *352:57 0.000161413
12 *99:8 *390:14 0.000152787
13 *579:D1 *588:A1 1.67329e-05
*RES
1 *587:X *99:8 16.8269 
2 *99:8 *589:C 17.2421 
3 *99:8 *588:A1 18.3548 
*END

*D_NET *100 0.000663643
*CONN
*I *591:A1 I *D sky130_fd_sc_hd__a31oi_1
*I *588:X O *D sky130_fd_sc_hd__a21bo_1
*CAP
1 *591:A1 0.000186064
2 *588:X 0.000186064
3 *591:A1 *591:A2 0.000258867
4 *579:D1 *591:A1 3.2648e-05
*RES
1 *588:X *591:A1 33.4828 
*END

*D_NET *101 0.00163629
*CONN
*I *591:A2 I *D sky130_fd_sc_hd__a31oi_1
*I *589:Y O *D sky130_fd_sc_hd__nand3b_1
*CAP
1 *591:A2 0.00046929
2 *589:Y 0.00046929
3 *591:A2 *552:B 0
4 *591:A2 *579:C1 8.71199e-05
5 *591:A2 *588:A2 0.000144546
6 *591:A2 *589:B 0.00014457
7 *579:B1 *591:A2 1.61631e-05
8 *579:D1 *591:A2 1.25301e-05
9 *582:B1 *591:A2 1.43983e-05
10 *591:A1 *591:A2 0.000258867
11 *939:A *591:A2 1.95129e-05
*RES
1 *589:Y *591:A2 41.7133 
*END

*D_NET *102 0.00025601
*CONN
*I *591:B1 I *D sky130_fd_sc_hd__a31oi_1
*I *590:Y O *D sky130_fd_sc_hd__nor2_1
*CAP
1 *591:B1 3.18631e-05
2 *590:Y 3.18631e-05
3 *591:B1 *590:A 0.000121892
4 *591:B1 *590:B 1.02267e-05
5 *591:B1 *591:A3 3.00829e-05
6 *591:B1 *347:6 3.00829e-05
*RES
1 *590:Y *591:B1 20.355 
*END

*D_NET *104 0.000574269
*CONN
*I *598:A1 I *D sky130_fd_sc_hd__o21ai_1
*I *595:Y O *D sky130_fd_sc_hd__mux2i_1
*CAP
1 *598:A1 0.000168991
2 *595:Y 0.000168991
3 *598:A1 *595:A1 0.000175485
4 *598:A1 *598:B1 1.2601e-05
5 *598:A1 *825:A 3.37407e-05
6 *577:A *598:A1 1.44611e-05
*RES
1 *595:Y *598:A1 32.4086 
*END

*D_NET *106 0.000473078
*CONN
*I *598:B1 I *D sky130_fd_sc_hd__o21ai_1
*I *597:Y O *D sky130_fd_sc_hd__nand2_1
*CAP
1 *598:B1 0.000188248
2 *597:Y 0.000188248
3 *598:B1 *597:B 0
4 *598:B1 *824:A 6.92705e-05
5 *577:A *598:B1 0
6 *583:A *598:B1 1.47102e-05
7 *598:A1 *598:B1 1.2601e-05
*RES
1 *597:Y *598:B1 31.4388 
*END

*D_NET *107 0.000550015
*CONN
*I *602:A2 I *D sky130_fd_sc_hd__o21ai_1
*I *600:Y O *D sky130_fd_sc_hd__mux2i_1
*CAP
1 *602:A2 0.000141895
2 *600:Y 0.000141895
3 *602:A2 *600:A0 6.08467e-05
4 *602:A2 *172:16 6.08467e-05
5 *602:A2 *425:14 0
6 *560:B1 *602:A2 0.000144531
*RES
1 *600:Y *602:A2 31.6076 
*END

*D_NET *108 0.00129771
*CONN
*I *602:B1 I *D sky130_fd_sc_hd__o21ai_1
*I *601:Y O *D sky130_fd_sc_hd__nand2_1
*CAP
1 *602:B1 0.000419474
2 *601:Y 0.000419474
3 *602:B1 *599:B 0.000291629
4 *560:B1 *602:B1 8.52256e-05
5 *58:18 *602:B1 8.19046e-05
*RES
1 *601:Y *602:B1 37.531 
*END

*D_NET *109 0.00302884
*CONN
*I *618:A2 I *D sky130_fd_sc_hd__a31oi_4
*I *851:A I *D sky130_fd_sc_hd__buf_6
*I *603:Y O *D sky130_fd_sc_hd__nand2_4
*CAP
1 *618:A2 0.000424491
2 *851:A 5.87126e-05
3 *603:Y 0.000446442
4 *109:10 0.000929646
5 *618:A2 *521:B 9.49981e-05
6 *618:A2 *609:B1 3.19128e-05
7 *618:A2 *618:A1 0
8 *618:A2 *881:A 9.99386e-06
9 *618:A2 *375:19 0
10 *618:A2 *378:10 3.20069e-06
11 *618:A2 *378:21 4.87198e-05
12 *109:10 *618:A1 0
13 *109:10 *198:34 7.621e-05
14 *109:10 *355:39 0.00016195
15 *109:10 *378:10 9.0014e-05
16 *608:A *618:A2 0.000118017
17 *33:25 *618:A2 0.000107643
18 *37:12 *618:A2 0.000426891
*RES
1 *603:Y *109:10 25.7188 
2 *109:10 *851:A 15.0271 
3 *109:10 *618:A2 27.2082 
*END

*D_NET *110 0.00232103
*CONN
*I *605:B1 I *D sky130_fd_sc_hd__a31oi_4
*I *604:Y O *D sky130_fd_sc_hd__nor2b_1
*CAP
1 *605:B1 0.000576277
2 *604:Y 0.000576277
3 *605:B1 *698:D 0.000147016
4 *605:B1 *698:DE 4.69495e-06
5 *605:B1 *111:14 0.000317591
6 *605:B1 *182:16 0.000610533
7 *605:B1 *182:18 4.51698e-05
8 *605:B1 *401:52 4.32489e-05
9 *605:B1 *401:56 2.25583e-07
*RES
1 *604:Y *605:B1 41.0008 
*END

*D_NET *111 0.00456007
*CONN
*I *618:A1 I *D sky130_fd_sc_hd__a31oi_4
*I *847:A I *D sky130_fd_sc_hd__buf_6
*I *605:Y O *D sky130_fd_sc_hd__a31oi_4
*CAP
1 *618:A1 0.000574813
2 *847:A 5.24556e-05
3 *605:Y 0.000573253
4 *111:14 0.00120052
5 *618:A1 *521:B 0.000184139
6 *618:A1 *609:B2 5.74223e-05
7 *618:A1 *183:33 3.21615e-05
8 *618:A1 *341:14 8.42523e-05
9 *618:A1 *345:14 0.000101148
10 *618:A1 *378:10 9.0014e-05
11 *618:A1 *378:21 5.19205e-05
12 *618:A1 *459:78 0.000208233
13 *847:A *715:D 9.50664e-05
14 *847:A *378:10 0.000112367
15 *111:14 *698:D 3.9193e-05
16 *111:14 *715:D 6.49694e-05
17 *111:14 *132:18 5.72663e-05
18 *111:14 *198:22 0.000141544
19 *111:14 *350:16 0.000112361
20 *111:14 *459:66 0.000374306
21 *526:C *618:A1 1.89692e-05
22 *605:B1 *111:14 0.000317591
23 *618:A2 *618:A1 0
24 *871:A *618:A1 0
25 *871:A *111:14 8.36586e-06
26 *33:25 *618:A1 7.74044e-06
27 *109:10 *618:A1 0
*RES
1 *605:Y *111:14 37.7256 
2 *111:14 *847:A 11.6364 
3 *111:14 *618:A1 35.4455 
*END

*D_NET *112 0.0051524
*CONN
*I *618:B1 I *D sky130_fd_sc_hd__a31oi_4
*I *608:C I *D sky130_fd_sc_hd__or3_1
*I *607:C I *D sky130_fd_sc_hd__or3_1
*I *606:Y O *D sky130_fd_sc_hd__nor2b_1
*CAP
1 *618:B1 0.000591247
2 *608:C 0.000122193
3 *607:C 0
4 *606:Y 0.000316189
5 *112:20 0.000283309
6 *112:12 0.00106855
7 *618:B1 *538:B 0.000200794
8 *618:B1 *616:B 0.000168313
9 *618:B1 *200:8 0.00044466
10 *618:B1 *396:26 0.00013925
11 *112:12 *537:A_N 0.000265491
12 *112:12 *537:B 3.82683e-05
13 *112:12 *606:A 1.98326e-05
14 *112:12 *396:26 6.27718e-05
15 *112:20 *540:A 7.39487e-05
16 *112:20 *669:B 3.20264e-05
17 *112:20 *374:35 1.15781e-05
18 *112:20 *374:41 6.27782e-05
19 *526:D *608:C 0.000111067
20 *526:D *618:B1 0.000266294
21 *526:D *112:20 4.50725e-05
22 *540:B *112:12 0.000170273
23 *540:B *112:20 7.9266e-05
24 *541:A2 *112:12 1.68322e-05
25 *541:B1 *112:12 6.27718e-05
26 *607:B *608:C 5.26455e-05
27 *608:B *608:C 7.92757e-06
28 *40:8 *618:B1 2.16355e-05
29 *52:8 *112:12 2.97109e-05
30 *52:8 *112:20 0.000367049
31 *53:12 *618:B1 1.16107e-05
32 *53:12 *112:20 9.03762e-06
*RES
1 *606:Y *112:12 21.8753 
2 *112:12 *112:20 11.1011 
3 *112:20 *607:C 9.24915 
4 *112:20 *608:C 12.7456 
5 *112:12 *618:B1 32.0207 
*END

*D_NET *113 0.00127192
*CONN
*I *609:B1 I *D sky130_fd_sc_hd__a32o_2
*I *607:X O *D sky130_fd_sc_hd__or3_1
*CAP
1 *609:B1 0.000217349
2 *607:X 0.000217349
3 *609:B1 *609:A2 0.000386481
4 *609:B1 *881:A 9.49579e-05
5 *609:B1 *115:16 0.000313509
6 *618:A2 *609:B1 3.19128e-05
7 *37:12 *609:B1 1.03594e-05
*RES
1 *607:X *609:B1 36.2267 
*END

*D_NET *114 0.000473704
*CONN
*I *609:B2 I *D sky130_fd_sc_hd__a32o_2
*I *608:X O *D sky130_fd_sc_hd__or3_1
*CAP
1 *609:B2 0.000175027
2 *608:X 0.000175027
3 *609:B2 *183:33 4.28856e-07
4 *526:D *609:B2 3.44254e-06
5 *618:A1 *609:B2 5.74223e-05
6 *871:A *609:B2 6.23567e-05
*RES
1 *608:X *609:B2 31.4388 
*END

*D_NET *115 0.00445203
*CONN
*I *610:C1 I *D sky130_fd_sc_hd__o311a_1
*I *609:X O *D sky130_fd_sc_hd__a32o_2
*CAP
1 *610:C1 0.000247241
2 *609:X 0.000872186
3 *115:16 0.00111943
4 *610:C1 *525:B 5.04734e-05
5 *610:C1 *610:A2 4.51777e-05
6 *610:C1 *623:A2 2.55271e-05
7 *610:C1 *171:14 3.20835e-05
8 *610:C1 *187:10 5.9708e-05
9 *610:C1 *374:35 0.000323022
10 *115:16 *538:B 0.000105589
11 *115:16 *609:A2 3.58208e-05
12 *115:16 *616:B 2.844e-05
13 *115:16 *669:C 7.97098e-06
14 *115:16 *362:6 2.16355e-05
15 *115:16 *375:19 0.000120594
16 *115:16 *375:32 0.00041174
17 *115:16 *396:26 0.000362141
18 *538:C *115:16 0.000176159
19 *609:B1 *115:16 0.000313509
20 *868:A *115:16 9.35846e-05
*RES
1 *609:X *115:16 42.652 
2 *115:16 *610:C1 22.6404 
*END

*D_NET *116 0.0019283
*CONN
*I *974:A I *D sky130_fd_sc_hd__buf_6
*I *846:A I *D sky130_fd_sc_hd__buf_6
*I *610:X O *D sky130_fd_sc_hd__o311a_1
*CAP
1 *974:A 3.73114e-05
2 *846:A 0.000132239
3 *610:X 0.000170684
4 *116:10 0.000340234
5 *846:A *611:B 0.000224381
6 *846:A *613:A 1.92172e-05
7 *846:A *171:14 0.00021498
8 *846:A *394:8 5.73392e-05
9 *846:A *459:78 6.22868e-05
10 *974:A *187:10 1.03403e-05
11 *116:10 *610:A2 5.04829e-06
12 *116:10 *171:14 0.000115954
13 *116:10 *235:18 3.39906e-05
14 *507:B1 *846:A 0.000175485
15 *610:A1 *846:A 0.000218456
16 *610:A1 *116:10 0.000110356
*RES
1 *610:X *116:10 17.829 
2 *116:10 *846:A 21.7084 
3 *116:10 *974:A 14.4725 
*END

*D_NET *117 0.00115729
*CONN
*I *612:B I *D sky130_fd_sc_hd__nand2_2
*I *611:Y O *D sky130_fd_sc_hd__xnor2_4
*CAP
1 *612:B 0.000355269
2 *611:Y 0.000355269
3 *612:B *595:S 5.03545e-06
4 *612:B *611:B 0
5 *612:B *336:25 0
6 *612:B *414:156 0.000439667
7 *612:B *414:227 2.0456e-06
8 *612:B *456:34 0
*RES
1 *611:Y *612:B 38.0506 
*END

*D_NET *118 0.000834981
*CONN
*I *613:B I *D sky130_fd_sc_hd__xor2_1
*I *612:Y O *D sky130_fd_sc_hd__nand2_2
*CAP
1 *613:B 0.000236719
2 *612:Y 0.000236719
3 *613:B *595:S 0.000265284
4 *613:B *598:A2 0
5 *613:B *615:A2 0
6 *613:B *352:94 6.61747e-05
7 *613:B *409:60 3.00829e-05
*RES
1 *612:Y *613:B 34.2062 
*END

*D_NET *119 0.00121236
*CONN
*I *615:A2 I *D sky130_fd_sc_hd__o21ai_1
*I *613:X O *D sky130_fd_sc_hd__xor2_1
*CAP
1 *615:A2 0.000414678
2 *613:X 0.000414678
3 *615:A2 *595:S 5.24081e-05
4 *615:A2 *598:A2 0
5 *615:A2 *613:A 9.28161e-05
6 *615:A2 *615:B1 0.000109487
7 *615:A2 *687:D 0.000110297
8 *615:A2 *352:94 3.60933e-06
9 *615:A2 *425:66 1.43832e-05
10 *613:B *615:A2 0
*RES
1 *613:X *615:A2 38.3994 
*END

*D_NET *120 0.00161524
*CONN
*I *615:B1 I *D sky130_fd_sc_hd__o21ai_1
*I *614:Y O *D sky130_fd_sc_hd__nand2_1
*CAP
1 *615:B1 0.000502502
2 *614:Y 0.000502502
3 *615:B1 *595:S 0.000352523
4 *615:B1 *613:A 0.000148224
5 *615:B1 *352:94 0
6 *615:A2 *615:B1 0.000109487
*RES
1 *614:Y *615:B1 37.163 
*END

*D_NET *121 0.000728561
*CONN
*I *859:A I *D sky130_fd_sc_hd__buf_4
*I *619:B I *D sky130_fd_sc_hd__maj3_2
*I *617:Y O *D sky130_fd_sc_hd__inv_1
*CAP
1 *859:A 0.000104805
2 *619:B 0.000207382
3 *617:Y 0
4 *121:4 0.000312188
5 *619:B *617:A 1.95713e-05
6 *619:B *619:C 3.67528e-06
7 *619:B *620:B 0
8 *619:B *625:A 5.40999e-06
9 *619:B *355:99 5.82321e-05
10 *859:A *617:A 0
11 *859:A *625:A 1.72971e-05
12 *859:A *201:12 0
13 *859:A *284:8 0
14 *526:C *619:B 0
15 *857:A *619:B 0
*RES
1 *617:Y *121:4 9.24915 
2 *121:4 *619:B 22.4669 
3 *121:4 *859:A 11.6484 
*END

*D_NET *122 0.000591268
*CONN
*I *849:A I *D sky130_fd_sc_hd__buf_6
*I *619:C I *D sky130_fd_sc_hd__maj3_2
*I *618:Y O *D sky130_fd_sc_hd__a31oi_4
*CAP
1 *849:A 9.37502e-05
2 *619:C 0.000141057
3 *618:Y 0
4 *122:4 0.000234807
5 *619:C *200:8 2.41338e-05
6 *619:C *355:99 0
7 *849:A *200:8 2.7191e-05
8 *526:C *619:C 6.66538e-05
9 *619:B *619:C 3.67528e-06
*RES
1 *618:Y *122:4 9.24915 
2 *122:4 *619:C 22.1896 
3 *122:4 *849:A 11.6605 
*END

*D_NET *123 0.00110142
*CONN
*I *620:B I *D sky130_fd_sc_hd__xnor2_2
*I *619:X O *D sky130_fd_sc_hd__maj3_2
*CAP
1 *620:B 0.000337307
2 *619:X 0.000337307
3 *620:B *823:A 0.00028291
4 *620:B *355:99 0
5 *619:B *620:B 0
6 *857:A *620:B 0.000143901
*RES
1 *619:X *620:B 34.2118 
*END

*D_NET *124 0.000550094
*CONN
*I *623:A2 I *D sky130_fd_sc_hd__o21ai_1
*I *621:Y O *D sky130_fd_sc_hd__mux2i_1
*CAP
1 *623:A2 0.000236831
2 *621:Y 0.000236831
3 *623:A2 *621:A1 1.32165e-05
4 *623:A2 *374:35 9.89388e-06
5 *623:A2 *409:82 2.77959e-05
6 *610:C1 *623:A2 2.55271e-05
*RES
1 *621:Y *623:A2 32.2032 
*END

*D_NET *125 0.00108839
*CONN
*I *623:B1 I *D sky130_fd_sc_hd__o21ai_1
*I *622:Y O *D sky130_fd_sc_hd__nand2_1
*CAP
1 *623:B1 0.000392346
2 *622:Y 0.000392346
3 *623:B1 *701:D 2.74956e-05
4 *623:B1 *880:A 1.32772e-05
5 *623:B1 *235:18 0.000162323
6 *623:B1 *355:111 4.87301e-05
7 *623:B1 *409:82 5.18728e-05
*RES
1 *622:Y *623:B1 36.5934 
*END

*D_NET *126 0.000651295
*CONN
*I *626:B1 I *D sky130_fd_sc_hd__a21oi_2
*I *625:Y O *D sky130_fd_sc_hd__nor2_4
*CAP
1 *626:B1 0.000135403
2 *625:Y 0.000135403
3 *626:B1 *508:A0 0.000119904
4 *626:B1 *626:A1 9.87648e-05
5 *626:B1 *628:A2 0.00016182
*RES
1 *625:Y *626:B1 23.128 
*END

*D_NET *127 0.00233633
*CONN
*I *628:A2 I *D sky130_fd_sc_hd__o21ai_1
*I *626:Y O *D sky130_fd_sc_hd__a21oi_2
*CAP
1 *628:A2 0.000615478
2 *626:Y 0.000615478
3 *628:A2 *508:A0 0.000415942
4 *628:A2 *620:A 0.000233845
5 *628:A2 *627:B 1.59362e-06
6 *628:A2 *185:14 3.80007e-05
7 *626:B1 *628:A2 0.00016182
8 *857:A *628:A2 0.000254176
*RES
1 *626:Y *628:A2 41.9679 
*END

*D_NET *128 0.000916728
*CONN
*I *628:B1 I *D sky130_fd_sc_hd__o21ai_1
*I *627:Y O *D sky130_fd_sc_hd__nand2_1
*CAP
1 *628:B1 0.000364944
2 *627:Y 0.000364944
3 *628:B1 *627:A 4.30017e-06
4 *628:B1 *627:B 0
5 *628:B1 *700:D 0.000153225
6 *628:B1 *700:DE 5.66868e-06
7 *628:B1 *184:10 0
8 *593:A *628:B1 2.36463e-05
*RES
1 *627:Y *628:B1 35.4548 
*END

*D_NET *129 0.00345314
*CONN
*I *630:B I *D sky130_fd_sc_hd__xnor2_2
*I *629:Y O *D sky130_fd_sc_hd__nand2_2
*CAP
1 *630:B 0
2 *629:Y 0.000839227
3 *129:20 0.000839227
4 *129:20 *629:A 6.27718e-05
5 *129:20 *630:A 1.8298e-05
6 *129:20 *633:B1 0.000223179
7 *129:20 *636:A 5.27185e-05
8 *129:20 *183:10 0.000330407
9 *129:20 *183:33 0.000295018
10 *129:20 *215:22 0.000607022
11 *129:20 *282:12 0
12 *526:A *129:20 0.000185275
*RES
1 *629:Y *129:20 43.0734 
2 *129:20 *630:B 9.24915 
*END

*D_NET *130 0.00145601
*CONN
*I *633:A2 I *D sky130_fd_sc_hd__o21ai_1
*I *631:Y O *D sky130_fd_sc_hd__mux2i_1
*CAP
1 *633:A2 0.00039943
2 *631:Y 0.00039943
3 *633:A2 *624:B 0
4 *633:A2 *629:B 0.000311263
5 *633:A2 *633:B1 0
6 *633:A2 *699:CLK 0.000258423
7 *633:A2 *215:22 7.73661e-05
8 *633:A2 *341:14 1.00981e-05
*RES
1 *631:Y *633:A2 36.8668 
*END

*D_NET *131 0.00177907
*CONN
*I *633:B1 I *D sky130_fd_sc_hd__o21ai_1
*I *632:Y O *D sky130_fd_sc_hd__nand2_1
*CAP
1 *633:B1 0.00039132
2 *632:Y 0.00039132
3 *633:B1 *624:B 0.000147412
4 *633:B1 *629:A 7.09666e-06
5 *633:B1 *632:A 6.64392e-05
6 *633:B1 *843:A 1.37189e-05
7 *633:B1 *183:33 1.7662e-06
8 *633:B1 *215:22 0.000370827
9 *633:B1 *231:12 3.86835e-05
10 *526:A *633:B1 6.89706e-05
11 *633:A2 *633:B1 0
12 *35:14 *633:B1 5.8334e-05
13 *129:20 *633:B1 0.000223179
*RES
1 *632:Y *633:B1 40.8023 
*END

*D_NET *132 0.00312145
*CONN
*I *636:B I *D sky130_fd_sc_hd__xnor2_2
*I *634:Y O *D sky130_fd_sc_hd__nand2_2
*CAP
1 *636:B 0
2 *634:Y 0.00112208
3 *132:18 0.00112208
4 *132:18 *535:B1 1.65872e-05
5 *132:18 *536:B1 1.43983e-05
6 *132:18 *603:A 1.2495e-05
7 *132:18 *634:A 1.81052e-05
8 *132:18 *698:D 0.000271917
9 *132:18 *698:CLK 4.41404e-05
10 *132:18 *198:22 1.94615e-05
11 *132:18 *401:56 0.000191526
12 *132:18 *431:12 1.21954e-05
13 *533:A2 *132:18 0.000197555
14 *536:A1 *132:18 2.16355e-05
15 *111:14 *132:18 5.72663e-05
*RES
1 *634:Y *132:18 41.8066 
2 *132:18 *636:B 9.24915 
*END

*D_NET *133 0.00213985
*CONN
*I *636:A I *D sky130_fd_sc_hd__xnor2_2
*I *635:Y O *D sky130_fd_sc_hd__xnor2_1
*CAP
1 *636:A 0.000857816
2 *635:Y 0.000857816
3 *636:A *699:DE 5.25142e-05
4 *636:A *198:14 0.000120967
5 *636:A *215:22 4.26384e-05
6 *636:A *281:20 1.99054e-05
7 *636:A *336:79 2.41177e-05
8 *41:14 *636:A 0.000111352
9 *129:20 *636:A 5.27185e-05
*RES
1 *635:Y *636:A 43.5703 
*END

*D_NET *134 0.000433615
*CONN
*I *639:A2 I *D sky130_fd_sc_hd__o21ai_1
*I *637:Y O *D sky130_fd_sc_hd__mux2i_1
*CAP
1 *639:A2 4.30747e-05
2 *637:Y 4.30747e-05
3 *639:A2 *639:B1 0.000112361
4 *639:A2 *198:34 2.64835e-05
5 *639:A2 *355:52 0.000208621
*RES
1 *637:Y *639:A2 20.8855 
*END

*D_NET *135 0.0012717
*CONN
*I *639:B1 I *D sky130_fd_sc_hd__o21ai_1
*I *638:Y O *D sky130_fd_sc_hd__nand2_1
*CAP
1 *639:B1 0.000331191
2 *638:Y 0.000331191
3 *639:B1 *637:A1 0.000419197
4 *639:B1 *198:34 7.59212e-05
5 *639:B1 *355:52 1.83827e-06
6 *639:A2 *639:B1 0.000112361
*RES
1 *638:Y *639:B1 25.7805 
*END

*D_NET *136 0.000862116
*CONN
*I *642:A2 I *D sky130_fd_sc_hd__o21ai_1
*I *640:Y O *D sky130_fd_sc_hd__mux2i_1
*CAP
1 *642:A2 0.000343782
2 *640:Y 0.000343782
3 *642:A2 *479:A 6.27782e-05
4 *642:A2 *642:A1 8.871e-05
5 *642:A2 *697:D 2.30636e-05
*RES
1 *640:Y *642:A2 35.8756 
*END

*D_NET *137 0.00154845
*CONN
*I *642:B1 I *D sky130_fd_sc_hd__o21ai_1
*I *641:Y O *D sky130_fd_sc_hd__nand2_1
*CAP
1 *642:B1 0.000414617
2 *641:Y 0.000414617
3 *642:B1 *642:A1 0.000205195
4 *642:B1 *644:B 3.67708e-05
5 *642:B1 *645:B1 0
6 *642:B1 *696:DE 3.51249e-05
7 *642:B1 *180:24 0
8 *642:B1 *181:10 0.000121494
9 *642:B1 *196:10 0.000129071
10 *642:B1 *196:25 2.24632e-05
11 *642:B1 *421:110 0.000169093
*RES
1 *641:Y *642:B1 40.9573 
*END

*D_NET *138 0.00092209
*CONN
*I *645:A2 I *D sky130_fd_sc_hd__o21ai_1
*I *643:Y O *D sky130_fd_sc_hd__mux2i_1
*CAP
1 *645:A2 0.000420796
2 *643:Y 0.000420796
3 *645:A2 *642:A1 2.41274e-06
4 *645:A2 *696:DE 0
5 *645:A2 *180:18 7.80856e-05
*RES
1 *643:Y *645:A2 34.4905 
*END

*D_NET *139 0.000955391
*CONN
*I *645:B1 I *D sky130_fd_sc_hd__o21ai_1
*I *644:Y O *D sky130_fd_sc_hd__nand2_1
*CAP
1 *645:B1 0.000313803
2 *644:Y 0.000313803
3 *645:B1 *644:A 3.14978e-05
4 *645:B1 *644:B 0
5 *645:B1 *696:D 0.000122083
6 *645:B1 *696:DE 0.000174205
7 *642:B1 *645:B1 0
*RES
1 *644:Y *645:B1 35.3154 
*END

*D_NET *140 0.000978922
*CONN
*I *647:B1 I *D sky130_fd_sc_hd__a21oi_2
*I *646:Y O *D sky130_fd_sc_hd__nor2_4
*CAP
1 *647:B1 0.000160635
2 *646:Y 0.000160635
3 *647:B1 *647:A1 6.08467e-05
4 *647:B1 *907:A 0.000304359
5 *647:B1 *278:12 0.000144525
6 *647:B1 *401:10 1.19705e-05
7 *486:B *647:B1 0.000118017
8 *869:A *647:B1 1.79338e-05
*RES
1 *646:Y *647:B1 34.3456 
*END

*D_NET *141 0.00153178
*CONN
*I *649:A1 I *D sky130_fd_sc_hd__o21ai_1
*I *647:Y O *D sky130_fd_sc_hd__a21oi_2
*CAP
1 *649:A1 0.000490631
2 *647:Y 0.000490631
3 *649:A1 *488:A1 6.68457e-06
4 *649:A1 *517:A0 0.000160047
5 *649:A1 *647:A1 7.01935e-06
6 *649:A1 *647:A2 4.97938e-05
7 *649:A1 *650:S 0.000212339
8 *649:A1 *694:CLK 8.15868e-05
9 *649:A1 *178:12 2.23269e-05
10 *649:A1 *421:221 1.07248e-05
*RES
1 *647:Y *649:A1 38.0884 
*END

*D_NET *142 0.000234404
*CONN
*I *649:B1 I *D sky130_fd_sc_hd__o21ai_1
*I *648:Y O *D sky130_fd_sc_hd__nand2_1
*CAP
1 *649:B1 1.35015e-05
2 *648:Y 1.35015e-05
3 *649:B1 *648:B 6.50727e-05
4 *649:B1 *277:8 2.41483e-05
5 *649:B1 *421:106 0.00011818
*RES
1 *648:Y *649:B1 19.7763 
*END

*D_NET *143 0.00128627
*CONN
*I *652:A2 I *D sky130_fd_sc_hd__o21ai_1
*I *650:Y O *D sky130_fd_sc_hd__mux2i_1
*CAP
1 *652:A2 0.000436056
2 *650:Y 0.000436056
3 *652:A2 resp_msg[15] 0.000107496
4 *652:A2 *650:A0 0.000104731
5 *652:A2 *652:A1 1.43983e-05
6 *652:A2 *810:A 0.000101118
7 *652:A2 *937:A 8.64186e-05
*RES
1 *650:Y *652:A2 35.5997 
*END

*D_NET *144 0.000160044
*CONN
*I *652:B1 I *D sky130_fd_sc_hd__o21ai_1
*I *651:Y O *D sky130_fd_sc_hd__nand2_1
*CAP
1 *652:B1 3.53298e-05
2 *651:Y 3.53298e-05
3 *652:B1 *652:A1 6.64392e-05
4 *652:B1 *421:221 2.29454e-05
*RES
1 *651:Y *652:B1 19.7763 
*END

*D_NET *145 0.000852917
*CONN
*I *655:A2 I *D sky130_fd_sc_hd__o21ai_1
*I *653:Y O *D sky130_fd_sc_hd__mux2i_1
*CAP
1 *655:A2 0.000183987
2 *653:Y 0.000183987
3 *655:A2 *655:A1 6.50586e-05
4 *655:A2 *829:A 0.000317619
5 *655:A2 *901:A 7.07672e-05
6 *655:A2 *352:12 0
7 *655:A2 *423:45 3.14978e-05
*RES
1 *653:Y *655:A2 34.2062 
*END

*D_NET *146 0.000459159
*CONN
*I *655:B1 I *D sky130_fd_sc_hd__o21ai_1
*I *654:Y O *D sky130_fd_sc_hd__nand2_1
*CAP
1 *655:B1 2.92403e-05
2 *654:Y 2.92403e-05
3 *655:B1 *655:A1 9.9028e-05
4 *655:B1 *421:168 2.41483e-05
5 *655:B1 *423:45 0.000277502
*RES
1 *654:Y *655:B1 21.4401 
*END

*D_NET *147 0.000200957
*CONN
*I *657:B I *D sky130_fd_sc_hd__xor2_1
*I *656:Y O *D sky130_fd_sc_hd__nand2_2
*CAP
1 *657:B 2.67309e-05
2 *656:Y 2.67309e-05
3 *657:B *656:B 7.58194e-05
4 *657:B *452:22 7.16754e-05
*RES
1 *656:Y *657:B 20.3309 
*END

*D_NET *148 0.00098621
*CONN
*I *659:A2 I *D sky130_fd_sc_hd__o21ai_1
*I *657:X O *D sky130_fd_sc_hd__xor2_1
*CAP
1 *659:A2 0.000187788
2 *657:X 0.000187788
3 *659:A2 *471:A 3.20407e-05
4 *659:A2 *659:A1 1.03403e-05
5 *659:A2 *693:CLK 3.25539e-05
6 *659:A2 *170:10 0.000298668
7 *659:A2 *423:45 0.000237031
*RES
1 *657:X *659:A2 34.2062 
*END

*D_NET *149 0.000810015
*CONN
*I *659:B1 I *D sky130_fd_sc_hd__o21ai_1
*I *658:Y O *D sky130_fd_sc_hd__nand2_1
*CAP
1 *659:B1 0.00020224
2 *658:Y 0.00020224
3 *659:B1 resp_msg[0] 7.48633e-05
4 *659:B1 *658:A 0
5 *659:B1 *659:A1 0.000262611
6 *659:B1 *693:CLK 1.07248e-05
7 *659:B1 *170:10 3.31881e-05
8 *659:B1 *352:12 0
9 *659:B1 *421:60 2.41483e-05
*RES
1 *658:Y *659:B1 34.903 
*END

*D_NET *150 0.000302703
*CONN
*I *664:A2 I *D sky130_fd_sc_hd__a221o_1
*I *660:Y O *D sky130_fd_sc_hd__inv_1
*CAP
1 *664:A2 9.95508e-05
2 *660:Y 9.95508e-05
3 *664:A2 *660:A 3.20544e-05
4 *664:A2 *664:A1 3.01683e-06
5 *664:A2 *664:B2 0
6 *664:A2 *674:B 1.88422e-05
7 *683:D *664:A2 4.96877e-05
*RES
1 *660:Y *664:A2 21.633 
*END

*D_NET *151 0.000309775
*CONN
*I *663:A I *D sky130_fd_sc_hd__nor2_4
*I *661:Y O *D sky130_fd_sc_hd__inv_1
*CAP
1 *663:A 0.000115613
2 *661:Y 0.000115613
3 *663:A *672:A2 3.58321e-05
4 *663:A *673:A1 4.27168e-05
5 *663:A *673:B1 0
6 *663:A *676:A 0
*RES
1 *661:Y *663:A 30.1916 
*END

*D_NET *152 0.000331683
*CONN
*I *666:A2 I *D sky130_fd_sc_hd__o21ai_0
*I *665:Y O *D sky130_fd_sc_hd__inv_1
*CAP
1 *666:A2 9.79292e-05
2 *665:Y 9.79292e-05
3 *666:A2 *665:A 5.04829e-06
4 *666:A2 *666:A1 0.000130777
5 *666:A2 *673:B1 0
*RES
1 *665:Y *666:A2 30.1916 
*END

*D_NET *153 0.000401588
*CONN
*I *673:A2 I *D sky130_fd_sc_hd__a21oi_1
*I *666:Y O *D sky130_fd_sc_hd__o21ai_0
*CAP
1 *673:A2 7.95486e-05
2 *666:Y 7.95486e-05
3 *673:A2 *666:B1 4.82966e-05
4 *673:A2 *673:A1 7.60278e-05
5 *673:A2 *673:B1 0.000118166
*RES
1 *666:Y *673:A2 21.4642 
*END

*D_NET *154 0.000854401
*CONN
*I *671:A I *D sky130_fd_sc_hd__and4_1
*I *667:Y O *D sky130_fd_sc_hd__nor4_2
*CAP
1 *671:A 0.000198414
2 *667:Y 0.000198414
3 *671:A *667:A 1.50924e-05
4 *671:A *667:B 4.76161e-06
5 *671:A *671:C 6.20146e-05
6 *671:A *671:D 0.000219249
7 *671:A *155:12 0.000114271
8 *671:A *158:10 4.21835e-05
*RES
1 *667:Y *671:A 24.7918 
*END

*D_NET *155 0.00297697
*CONN
*I *671:B I *D sky130_fd_sc_hd__and4_1
*I *668:Y O *D sky130_fd_sc_hd__nor4_1
*CAP
1 *671:B 0
2 *668:Y 0.000907768
3 *155:12 0.000907768
4 *155:12 *561:B 4.19316e-05
5 *155:12 *893:A 2.16355e-05
6 *155:12 *158:10 4.67117e-05
7 *155:12 *164:12 0.000289482
8 *155:12 *192:10 0.00024596
9 *155:12 *414:73 1.66771e-05
10 *155:12 *421:52 0.000384761
11 *671:A *155:12 0.000114271
*RES
1 *668:Y *155:12 41.9936 
2 *155:12 *671:B 9.24915 
*END

*D_NET *156 0.00610822
*CONN
*I *671:C I *D sky130_fd_sc_hd__and4_1
*I *669:Y O *D sky130_fd_sc_hd__nor4_2
*CAP
1 *671:C 0.000260821
2 *669:Y 0.000743523
3 *156:12 0.00100434
4 *671:C *530:B 7.84712e-05
5 *671:C *667:A 6.08467e-05
6 *671:C *667:B 0.000156353
7 *671:C *671:D 0.000219249
8 *671:C *861:A 1.5962e-05
9 *671:C *158:10 0.000168313
10 *671:C *197:40 6.27718e-05
11 *671:C *459:32 0.0010076
12 *156:12 *534:B1_N 8.56945e-05
13 *156:12 *536:B1 3.33173e-06
14 *156:12 *606:B_N 1.43983e-05
15 *156:12 *197:40 0.000160658
16 *156:12 *413:47 4.16201e-06
17 *477:A2 *671:C 0.000161956
18 *534:A1 *156:12 0.000572557
19 *535:A2 *156:12 0
20 *536:A1 *156:12 0.000230844
21 *543:B1 *156:12 0
22 *671:A *671:C 6.20146e-05
23 *971:A *156:12 0.000347257
24 *45:10 *156:12 0.000326413
25 *45:19 *156:12 0.000360681
*RES
1 *669:Y *156:12 44.4739 
2 *156:12 *671:C 24.4163 
*END

*D_NET *157 0.00490594
*CONN
*I *671:D I *D sky130_fd_sc_hd__and4_1
*I *670:Y O *D sky130_fd_sc_hd__nor4_2
*CAP
1 *671:D 2.34082e-05
2 *670:Y 0.00101877
3 *157:12 0.00104218
4 *157:12 *667:A 0.000174061
5 *157:12 *670:A 2.74378e-05
6 *157:12 *688:DE 0.000523901
7 *157:12 *715:CLK 0.000127164
8 *157:12 *861:A 7.40367e-05
9 *157:12 *888:A 0.000442157
10 *157:12 *895:A 2.57986e-05
11 *157:12 *336:10 5.64929e-05
12 *157:12 *414:156 7.0438e-05
13 *157:12 *425:14 0.000472989
14 *157:12 *459:22 5.4944e-06
15 *671:A *671:D 0.000219249
16 *671:C *671:D 0.000219249
17 *842:A *157:12 0.00038312
*RES
1 *670:Y *157:12 48.8852 
2 *157:12 *671:D 16.1364 
*END

*D_NET *158 0.0066017
*CONN
*I *672:A2 I *D sky130_fd_sc_hd__o21ai_1
*I *675:A1 I *D sky130_fd_sc_hd__o21ai_1
*I *671:X O *D sky130_fd_sc_hd__and4_1
*CAP
1 *672:A2 0.000457735
2 *675:A1 0.000102462
3 *671:X 0.00115832
4 *158:10 0.00171852
5 *672:A2 *662:B 0
6 *672:A2 *673:A1 6.50586e-05
7 *672:A2 *821:A 0.000114659
8 *672:A2 *914:A 0
9 *672:A2 *917:A 0
10 *672:A2 *286:10 0
11 *675:A1 *674:A 1.4625e-05
12 *675:A1 *675:A2 0.000205766
13 *675:A1 *675:B1 0.000129064
14 *675:A1 *423:74 6.08467e-05
15 *675:A1 *454:20 6.17626e-05
16 *158:10 *561:B 0.000303829
17 *158:10 *563:B 3.79103e-05
18 *158:10 *569:A 7.74892e-05
19 *158:10 *675:A2 0.000228151
20 *158:10 *861:A 0.000851321
21 *158:10 *893:A 6.27332e-05
22 *158:10 *412:12 9.01072e-05
23 *158:10 *423:72 8.29576e-05
24 *158:10 *423:74 0.000195438
25 *663:A *672:A2 3.58321e-05
26 *671:A *158:10 4.21835e-05
27 *671:C *158:10 0.000168313
28 *927:A *158:10 0.000199546
29 *77:33 *158:10 4.95892e-05
30 *83:12 *158:10 4.07705e-05
31 *155:12 *158:10 4.67117e-05
*RES
1 *671:X *158:10 46.2147 
2 *158:10 *675:A1 14.5962 
3 *158:10 *672:A2 29.1096 
*END

*D_NET *159 0.0010044
*CONN
*I *673:A1 I *D sky130_fd_sc_hd__a21oi_1
*I *672:Y O *D sky130_fd_sc_hd__o21ai_1
*CAP
1 *673:A1 0.000277462
2 *672:Y 0.000277462
3 *673:A1 *661:A 0.000136809
4 *673:A1 *666:B1 6.05439e-05
5 *673:A1 *672:B1 7.34948e-06
6 *673:A1 *168:21 6.09682e-05
7 *663:A *673:A1 4.27168e-05
8 *672:A2 *673:A1 6.50586e-05
9 *673:A2 *673:A1 7.60278e-05
*RES
1 *672:Y *673:A1 26.0698 
*END

*D_NET *160 0.00058738
*CONN
*I *675:B1 I *D sky130_fd_sc_hd__o21ai_1
*I *674:Y O *D sky130_fd_sc_hd__nand2_1
*CAP
1 *675:B1 9.11106e-05
2 *674:Y 9.11106e-05
3 *675:B1 *674:A 6.19675e-05
4 *675:B1 *676:B_N 0.000175061
5 *675:B1 *454:20 3.90664e-05
6 *675:A1 *675:B1 0.000129064
*RES
1 *674:Y *675:B1 22.911 
*END

*D_NET *161 0.0011103
*CONN
*I *676:B_N I *D sky130_fd_sc_hd__nor2b_1
*I *675:Y O *D sky130_fd_sc_hd__o21ai_1
*CAP
1 *676:B_N 0.000395424
2 *675:Y 0.000395424
3 *676:B_N *666:A1 2.41274e-06
4 *676:B_N *917:A 3.56119e-05
5 *676:B_N *454:20 6.46815e-05
6 *676:B_N *454:22 4.16815e-05
7 *675:B1 *676:B_N 0.000175061
*RES
1 *675:Y *676:B_N 34.4905 
*END

*D_NET *162 0.00122977
*CONN
*I *679:A I *D sky130_fd_sc_hd__xnor2_2
*I *678:Y O *D sky130_fd_sc_hd__nand2_4
*CAP
1 *679:A 0.000196692
2 *678:Y 0.000196692
3 *679:A *678:A 0.00033061
4 *679:A *414:118 4.11068e-05
5 *679:B *679:A 6.08467e-05
6 *85:6 *679:A 0.000403827
*RES
1 *678:Y *679:A 26.311 
*END

*D_NET *163 0.000880403
*CONN
*I *681:A1 I *D sky130_fd_sc_hd__o21ai_1
*I *679:Y O *D sky130_fd_sc_hd__xnor2_2
*CAP
1 *681:A1 0.000210891
2 *679:Y 0.000210891
3 *681:A1 *571:A 0.000123582
4 *681:A1 *572:B 5.88662e-05
5 *681:A1 *176:18 6.46815e-05
6 *681:A1 *414:118 0.000211492
*RES
1 *679:Y *681:A1 32.8561 
*END

*D_NET *164 0.00361186
*CONN
*I *681:B1 I *D sky130_fd_sc_hd__o21ai_1
*I *680:Y O *D sky130_fd_sc_hd__nand2_1
*CAP
1 *681:B1 0
2 *680:Y 0.000803151
3 *164:12 0.000803151
4 *164:12 *562:B 0.000365109
5 *164:12 *571:A 0.000169166
6 *164:12 *650:A0 0.000123582
7 *164:12 *668:A 0.000146652
8 *164:12 *710:D 0.000141544
9 *164:12 *192:10 0.000287705
10 *164:12 *275:14 0.000455741
11 *164:12 *421:54 0
12 *164:12 *421:97 2.65831e-05
13 *155:12 *164:12 0.000289482
*RES
1 *680:Y *164:12 47.7959 
2 *164:12 *681:B1 9.24915 
*END

*D_NET *165 0.0094562
*CONN
*P clk I
*I *919:A I *D sky130_fd_sc_hd__clkbuf_8
*CAP
1 clk 0.00436952
2 *919:A 0
3 *165:18 0.00436952
4 *165:18 *560:A2 0.000125822
5 *165:18 *599:A 8.24657e-07
6 *165:18 *601:A 0.000434508
7 *165:18 *602:A1 4.58254e-06
8 *560:A1 *165:18 0.000151426
9 *564:A *165:18 0
*RES
1 clk *165:18 20.6312 
2 *165:18 *919:A 13.7491 
*END

*D_NET *413 0.0118227
*CONN
*I *931:A I *D sky130_fd_sc_hd__clkbuf_8
*I *930:A I *D sky130_fd_sc_hd__clkbuf_8
*I *916:A I *D sky130_fd_sc_hd__clkbuf_8
*I *918:A I *D sky130_fd_sc_hd__clkbuf_8
*I *919:X O *D sky130_fd_sc_hd__clkbuf_8
*CAP
1 *931:A 7.27675e-05
2 *930:A 0
3 *916:A 0
4 *918:A 0
5 *919:X 0
6 *413:91 0.000925919
7 *413:71 0.000680924
8 *413:61 0.00248484
9 *413:47 0.0012199
10 *413:31 0.00113018
11 *413:21 0.00280608
12 *413:17 0.0015753
13 *413:6 0.000168524
14 *931:A *425:8 1.4106e-05
15 *931:A *425:12 2.84892e-05
16 *413:31 *414:10 0
17 *413:31 *459:22 0.000250116
18 *413:47 *414:128 0.000101476
19 *413:47 *416:12 0
20 *413:47 *459:22 0.00015547
21 *413:91 *414:156 9.62381e-05
22 *560:B1 *413:17 7.86825e-06
23 *565:C *413:71 1.21886e-05
24 *601:A *413:17 2.33658e-06
25 *667:B *413:47 3.8114e-06
26 *45:10 *413:47 6.00674e-06
27 *59:10 *413:71 7.75178e-06
28 *156:12 *413:47 4.16201e-06
29 *197:40 *413:47 5.86157e-05
30 *336:25 *413:91 9.60433e-06
31 *409:10 *413:31 0
*RES
1 *919:X *413:6 13.7491 
2 *413:6 *413:17 4.44163 
3 *413:17 *413:21 1.79871 
4 *413:21 *413:31 9.77439 
5 *413:31 *918:A 13.7491 
6 *413:21 *413:47 11.2226 
7 *413:47 *916:A 13.7491 
8 *413:17 *413:61 2.59884 
9 *413:61 *413:71 5.23231 
10 *413:71 *930:A 13.7491 
11 *413:61 *413:91 8.10249 
12 *413:91 *931:A 15.5817 
*END

*D_NET *412 0.0155895
*CONN
*I *685:CLK I *D sky130_fd_sc_hd__dfxtp_2
*I *691:CLK I *D sky130_fd_sc_hd__edfxtp_1
*I *683:CLK I *D sky130_fd_sc_hd__dfxtp_4
*I *708:CLK I *D sky130_fd_sc_hd__edfxtp_1
*I *709:CLK I *D sky130_fd_sc_hd__edfxtp_1
*I *710:CLK I *D sky130_fd_sc_hd__edfxtp_1
*I *702:CLK I *D sky130_fd_sc_hd__edfxtp_1
*I *684:CLK I *D sky130_fd_sc_hd__dfxtp_1
*I *686:CLK I *D sky130_fd_sc_hd__edfxtp_1
*I *693:CLK I *D sky130_fd_sc_hd__edfxtp_1
*I *918:X O *D sky130_fd_sc_hd__clkbuf_8
*CAP
1 *685:CLK 0
2 *691:CLK 0.000129112
3 *683:CLK 0.000225649
4 *708:CLK 2.31637e-05
5 *709:CLK 0.000270755
6 *710:CLK 2.51788e-05
7 *702:CLK 3.6352e-05
8 *684:CLK 0.000414648
9 *686:CLK 0.000514426
10 *693:CLK 0.000234683
11 *918:X 0.000472623
12 *412:119 0.000718467
13 *412:113 0.00103614
14 *412:47 0.0010212
15 *412:43 0.00108818
16 *412:24 0.00137566
17 *412:20 0.000468678
18 *412:16 0.000764616
19 *412:14 0.000428167
20 *412:12 0.00131842
21 *691:CLK *421:10 0
22 *693:CLK *423:45 0.000233433
23 *693:CLK *452:14 0
24 *709:CLK *414:28 1.65872e-05
25 *709:CLK *414:54 3.54435e-05
26 *710:CLK *656:B 7.20028e-05
27 *710:CLK *702:DE 6.91907e-05
28 *412:24 *656:B 0.000289137
29 *412:24 *702:DE 0.000140689
30 *412:24 *452:14 2.16355e-05
31 *412:43 *519:S 0.000151487
32 *412:43 *423:45 0.000132802
33 *412:113 *662:B 0.000160383
34 *412:113 *682:S 6.24474e-06
35 *412:113 *821:A 8.84971e-05
36 *412:113 *455:18 0.000258188
37 *412:119 *454:20 9.09599e-05
38 *471:A *412:43 4.47179e-05
39 *474:A1 *412:16 0
40 *492:B *709:CLK 6.50727e-05
41 *492:B *412:16 0
42 *596:A *686:CLK 0
43 *659:A2 *693:CLK 3.25539e-05
44 *659:B1 *693:CLK 1.07248e-05
45 *668:C *412:20 0.000114659
46 *674:B *412:119 0
47 *682:A0 *412:12 7.28994e-06
48 *682:A0 *412:14 1.37421e-05
49 *682:A1 *412:113 0.00056584
50 *682:A1 *412:119 1.83992e-05
51 *684:D *684:CLK 0.000317478
52 *685:D *412:113 0.00014715
53 *685:D *412:119 6.27782e-05
54 *686:D *686:CLK 0
55 *686:DE *686:CLK 0
56 *702:D *412:43 7.1682e-05
57 *708:D *412:14 5.11107e-05
58 *708:D *412:16 2.22198e-05
59 *709:D *709:CLK 6.27782e-05
60 *829:A *412:20 1.22289e-05
61 *838:A *683:CLK 0.000180012
62 *838:A *412:119 0.000122083
63 *892:A *412:20 0
64 *961:A *412:24 6.27782e-05
65 *7:12 *412:16 0
66 *7:12 *412:20 0
67 *158:10 *412:12 9.01072e-05
68 *166:41 *708:CLK 6.50727e-05
69 *170:10 *693:CLK 1.2819e-05
70 *186:10 *412:43 3.99086e-06
71 *267:10 *691:CLK 0
72 *267:10 *412:119 0
73 *268:10 *691:CLK 0
74 *268:10 *412:119 0
75 *276:12 *412:16 0.000120052
76 *276:12 *412:20 0.000245628
77 *286:10 *412:119 0.000350319
78 *352:12 *693:CLK 0
79 *352:12 *412:16 0
80 *352:44 *412:14 0
81 *352:44 *412:16 0
82 *386:14 *709:CLK 0.000183752
83 *395:8 *412:24 6.08467e-05
84 *403:10 *412:12 2.83365e-05
85 *403:27 *412:113 0.000110458
*RES
1 *918:X *412:12 21.8747 
2 *412:12 *412:14 3.90826 
3 *412:14 *412:16 6.39977 
4 *412:16 *412:20 11.7303 
5 *412:20 *412:24 12.4332 
6 *412:24 *693:CLK 20.5642 
7 *412:24 *412:43 22.4985 
8 *412:43 *412:47 5.778 
9 *412:47 *686:CLK 26.3777 
10 *412:47 *684:CLK 23.9509 
11 *412:43 *702:CLK 10.2378 
12 *412:20 *710:CLK 11.0817 
13 *412:16 *709:CLK 21.3207 
14 *412:14 *708:CLK 14.4725 
15 *412:12 *412:113 25.382 
16 *412:113 *412:119 15.3604 
17 *412:119 *683:CLK 20.0186 
18 *412:119 *691:CLK 16.8269 
19 *412:113 *685:CLK 9.24915 
*END

*D_NET *410 0.0203641
*CONN
*I *713:CLK I *D sky130_fd_sc_hd__edfxtp_1
*I *711:CLK I *D sky130_fd_sc_hd__edfxtp_1
*I *697:CLK I *D sky130_fd_sc_hd__edfxtp_1
*I *712:CLK I *D sky130_fd_sc_hd__edfxtp_1
*I *695:CLK I *D sky130_fd_sc_hd__edfxtp_1
*I *694:CLK I *D sky130_fd_sc_hd__edfxtp_1
*I *696:CLK I *D sky130_fd_sc_hd__edfxtp_1
*I *698:CLK I *D sky130_fd_sc_hd__edfxtp_1
*I *714:CLK I *D sky130_fd_sc_hd__edfxtp_1
*I *932:A I *D sky130_fd_sc_hd__clkbuf_1
*I *692:CLK I *D sky130_fd_sc_hd__edfxtp_1
*I *916:X O *D sky130_fd_sc_hd__clkbuf_8
*CAP
1 *713:CLK 0.000643549
2 *711:CLK 0.000108591
3 *697:CLK 4.2654e-05
4 *712:CLK 0
5 *695:CLK 0
6 *694:CLK 0.000365761
7 *696:CLK 0.000711367
8 *698:CLK 0.000257933
9 *714:CLK 0.000686002
10 *932:A 0.000192509
11 *692:CLK 0.000954345
12 *916:X 0.000119534
13 *410:101 0.0013775
14 *410:93 0.00101174
15 *410:78 0.000925269
16 *410:72 0.000479196
17 *410:68 0.000747741
18 *410:64 0.00112761
19 *410:14 0.00185949
20 *410:12 0.00139864
21 *410:10 0.000470081
22 *410:6 0.000399233
23 *694:CLK *647:A2 1.07248e-05
24 *694:CLK *650:S 8.69417e-05
25 *694:CLK *416:24 1.58551e-05
26 *694:CLK *421:221 0.000144546
27 *698:CLK *634:A 0.000108087
28 *698:CLK *446:14 0
29 *711:CLK *711:DE 3.42041e-05
30 *711:CLK *416:71 9.75929e-05
31 *714:CLK *832:A 0.000168313
32 *714:CLK *459:38 0.000402156
33 *932:A *416:12 5.00379e-05
34 *410:72 *712:DE 0.00014287
35 *410:72 *414:73 4.69495e-06
36 *410:78 *712:DE 0.000175396
37 *477:A1 *932:A 0.000153943
38 *477:B1 *410:10 0.000133878
39 *514:A0 *713:CLK 0.000305874
40 *514:A1 *713:CLK 7.01735e-05
41 *515:A1 *696:CLK 0.000113109
42 *528:A1 *410:68 0
43 *530:B *410:68 4.19841e-05
44 *530:D *932:A 6.08467e-05
45 *531:B *714:CLK 0.000259225
46 *531:B *410:14 0.000503898
47 *533:A1 *698:CLK 0
48 *533:A2 *698:CLK 6.50727e-05
49 *535:A1 *410:14 2.77625e-06
50 *605:A3 *698:CLK 6.50132e-05
51 *641:A *696:CLK 4.04995e-05
52 *649:A1 *694:CLK 8.15868e-05
53 *667:A *692:CLK 0.000140626
54 *667:A *410:14 7.20028e-05
55 *667:D *932:A 0.000157287
56 *694:D *694:CLK 6.50727e-05
57 *695:D *694:CLK 6.50727e-05
58 *695:D *410:101 4.12861e-05
59 *695:DE *410:101 2.90638e-06
60 *711:D *711:CLK 0.000138784
61 *712:D *696:CLK 0
62 *712:D *410:78 0
63 *713:D *713:CLK 3.62953e-05
64 *796:A *694:CLK 0
65 *799:A *696:CLK 7.09148e-05
66 *811:A *696:CLK 0
67 *812:A *694:CLK 1.4581e-05
68 *876:A *713:CLK 9.32983e-05
69 *876:A *410:64 6.27718e-05
70 *887:A *410:14 7.84712e-05
71 *889:A *713:CLK 5.99359e-05
72 *889:A *410:6 6.72453e-05
73 *889:A *410:64 2.39189e-05
74 *957:A *714:CLK 6.77815e-05
75 *13:8 *698:CLK 0
76 *14:8 *410:68 0.000159989
77 *14:8 *410:72 5.27224e-05
78 *132:18 *698:CLK 4.41404e-05
79 *176:18 *692:CLK 0.000251966
80 *178:12 *694:CLK 0.00049301
81 *179:10 *410:101 4.11817e-05
82 *180:24 *696:CLK 0
83 *180:24 *410:78 0
84 *196:25 *713:CLK 1.03403e-05
85 *197:40 *410:14 1.00766e-05
86 *350:16 *714:CLK 0.000535424
87 *370:14 *410:68 0.000196138
88 *377:39 *932:A 6.27718e-05
89 *400:21 *410:68 0
90 *401:39 *697:CLK 3.00829e-05
*RES
1 *916:X *410:6 12.191 
2 *410:6 *410:10 9.65401 
3 *410:10 *410:12 4.5 
4 *410:12 *410:14 11.8155 
5 *410:14 *692:CLK 24.8263 
6 *410:14 *932:A 24.5418 
7 *410:12 *714:CLK 27.4064 
8 *410:10 *698:CLK 21.0145 
9 *410:6 *410:64 1.8326 
10 *410:64 *410:68 15.4675 
11 *410:68 *410:72 10.8998 
12 *410:72 *410:78 10.2409 
13 *410:78 *696:CLK 30.6006 
14 *410:78 *410:93 4.5 
15 *410:93 *410:101 16.18 
16 *410:101 *694:CLK 31.675 
17 *410:101 *695:CLK 9.24915 
18 *410:93 *712:CLK 9.24915 
19 *410:72 *697:CLK 10.5271 
20 *410:68 *711:CLK 17.8002 
21 *410:64 *713:CLK 24.4163 
*END

*D_NET *424 0.00818129
*CONN
*I *933:A I *D sky130_fd_sc_hd__bufinv_16
*I *705:CLK I *D sky130_fd_sc_hd__edfxtp_1
*I *689:CLK I *D sky130_fd_sc_hd__edfxtp_1
*I *707:CLK I *D sky130_fd_sc_hd__edfxtp_1
*I *706:CLK I *D sky130_fd_sc_hd__edfxtp_1
*I *690:CLK I *D sky130_fd_sc_hd__edfxtp_1
*I *704:CLK I *D sky130_fd_sc_hd__edfxtp_1
*I *930:X O *D sky130_fd_sc_hd__clkbuf_8
*CAP
1 *933:A 0
2 *705:CLK 0
3 *689:CLK 0.000183413
4 *707:CLK 0
5 *706:CLK 0
6 *690:CLK 0.000309491
7 *704:CLK 2.41306e-05
8 *930:X 0.000204133
9 *424:80 0.000324142
10 *424:49 0.00086829
11 *424:39 0.00126047
12 *424:31 0.000991005
13 *424:20 0.000479473
14 *424:14 0.000510873
15 *501:A1 *689:CLK 4.17605e-05
16 *504:A1 *424:20 0
17 *544:B *424:20 0.000109421
18 *689:DE *424:80 3.34707e-05
19 *690:D *690:CLK 1.07248e-05
20 *704:D *424:20 6.80864e-05
21 *704:D *424:31 3.20069e-06
22 *705:D *689:CLK 0.000116502
23 *705:D *424:80 6.27718e-05
24 *706:D *690:CLK 6.58661e-05
25 *706:D *424:49 3.67528e-06
26 *707:D *424:39 0.000136267
27 *707:DE *424:39 8.52404e-05
28 *865:A *424:20 0
29 *874:A *424:20 0.000214305
30 *895:A *424:14 8.77012e-05
31 *911:A *424:39 0.000113244
32 *939:A *690:CLK 1.77537e-06
33 *59:10 *424:14 9.5713e-05
34 *62:14 *704:CLK 2.41274e-06
35 *62:14 *424:20 0.000306512
36 *63:8 *424:20 0
37 *64:10 *424:20 0.00013832
38 *191:14 *424:39 3.37485e-05
39 *272:16 *424:14 0.000137594
40 *272:16 *424:20 0
41 *352:82 *424:20 4.97328e-05
42 *352:82 *424:31 3.70569e-05
43 *352:82 *424:80 1.6989e-05
44 *376:19 *690:CLK 0
45 *392:18 *424:39 7.92757e-06
46 *393:8 *424:14 0.000246036
47 *393:8 *424:20 0.000112367
48 *405:14 *424:31 0
49 *405:14 *424:39 8.76513e-05
50 *406:12 *424:14 0.000261128
51 *406:12 *424:20 0.000208606
52 *409:33 *424:20 0
53 *409:60 *689:CLK 5.49214e-05
54 *409:60 *424:80 1.00766e-05
55 *414:174 *704:CLK 6.50586e-05
*RES
1 *930:X *424:14 26.2407 
2 *424:14 *424:20 17.4395 
3 *424:20 *704:CLK 14.4725 
4 *424:20 *424:31 3.493 
5 *424:31 *424:39 22.609 
6 *424:39 *424:49 16.9525 
7 *424:49 *690:CLK 22.0204 
8 *424:49 *706:CLK 13.7491 
9 *424:39 *707:CLK 9.24915 
10 *424:31 *424:80 8.7164 
11 *424:80 *689:CLK 23.7141 
12 *424:80 *705:CLK 9.24915 
13 *424:14 *933:A 9.24915 
*END

*D_NET *425 0.0160614
*CONN
*I *716:CLK I *D sky130_fd_sc_hd__edfxtp_1
*I *717:CLK I *D sky130_fd_sc_hd__edfxtp_1
*I *699:CLK I *D sky130_fd_sc_hd__edfxtp_1
*I *934:A I *D sky130_fd_sc_hd__clkbuf_1
*I *700:CLK I *D sky130_fd_sc_hd__edfxtp_1
*I *701:CLK I *D sky130_fd_sc_hd__edfxtp_1
*I *687:CLK I *D sky130_fd_sc_hd__edfxtp_1
*I *703:CLK I *D sky130_fd_sc_hd__edfxtp_1
*I *688:CLK I *D sky130_fd_sc_hd__edfxtp_1
*I *715:CLK I *D sky130_fd_sc_hd__edfxtp_1
*I *931:X O *D sky130_fd_sc_hd__clkbuf_8
*CAP
1 *716:CLK 1.99653e-05
2 *717:CLK 0.000317733
3 *699:CLK 0.000643649
4 *934:A 3.6352e-05
5 *700:CLK 0.000401774
6 *701:CLK 0
7 *687:CLK 4.01299e-05
8 *703:CLK 0.000231754
9 *688:CLK 0.00022538
10 *715:CLK 7.09668e-05
11 *931:X 2.12792e-05
12 *425:110 0.000507504
13 *425:95 0.00132803
14 *425:66 0.00113955
15 *425:51 0.00102437
16 *425:36 0.000829951
17 *425:14 0.000728273
18 *425:12 0.000984497
19 *425:8 0.000482031
20 *425:6 0.000780692
21 *425:36 *456:34 9.75356e-05
22 *425:51 *456:34 0.00022409
23 *425:95 *511:A2 5.38672e-05
24 *425:95 *459:66 2.16355e-05
25 *425:95 *459:78 6.13051e-05
26 *521:B *425:95 6.08467e-05
27 *538:B *425:95 0.000114584
28 *560:B1 *425:14 0
29 *593:A *700:CLK 0.000185447
30 *602:A2 *425:14 0
31 *610:A1 *425:8 1.50924e-05
32 *610:A1 *425:95 0.000354297
33 *613:A *425:66 0.000210184
34 *614:A *700:CLK 2.65831e-05
35 *614:A *425:66 1.22063e-05
36 *615:A2 *425:66 1.43832e-05
37 *622:B *700:CLK 6.3657e-05
38 *624:B *699:CLK 0
39 *633:A2 *699:CLK 0.000258423
40 *670:D *425:14 0
41 *687:D *425:66 2.51089e-05
42 *687:DE *425:66 3.95975e-06
43 *688:D *688:CLK 3.6886e-05
44 *688:DE *688:CLK 9.79372e-06
45 *703:D *703:CLK 5.48187e-06
46 *703:D *425:36 2.3339e-05
47 *703:D *425:51 3.07796e-05
48 *716:DE *717:CLK 0
49 *899:A *425:12 5.04829e-06
50 *931:A *425:8 1.4106e-05
51 *931:A *425:12 2.84892e-05
52 *949:A *716:CLK 2.16355e-05
53 *949:A *717:CLK 5.14448e-05
54 *949:A *425:110 4.87301e-05
55 *33:10 *425:95 4.46813e-05
56 *33:25 *425:95 0.00057711
57 *36:10 *425:95 0.000203756
58 *157:12 *715:CLK 0.000127164
59 *157:12 *425:14 0.000472989
60 *183:33 *699:CLK 0
61 *183:33 *425:95 3.52393e-05
62 *183:41 *425:8 0.00012826
63 *183:41 *425:95 0.000305685
64 *184:10 *717:CLK 0
65 *184:16 *699:CLK 4.9e-05
66 *184:16 *717:CLK 0
67 *184:16 *425:110 0.000139684
68 *200:6 *716:CLK 1.88014e-05
69 *200:6 *425:110 7.16893e-05
70 *200:8 *425:110 6.11872e-05
71 *231:12 *699:CLK 0
72 *235:18 *700:CLK 0.00110788
73 *235:18 *425:66 0
74 *281:20 *699:CLK 3.20264e-05
75 *352:111 *425:66 0.000265977
76 *355:63 *699:CLK 8.76828e-05
77 *355:82 *699:CLK 0.000218352
78 *355:99 *699:CLK 8.3256e-05
79 *355:99 *425:110 5.70252e-05
80 *391:10 *425:36 0
81 *391:10 *425:51 0
82 *393:6 *425:12 4.01825e-05
83 *409:82 *425:66 1.59362e-06
84 *414:156 *425:36 0
85 *414:162 *703:CLK 1.69178e-06
86 *414:170 *703:CLK 3.77027e-05
*RES
1 *931:X *425:6 9.82786 
2 *425:6 *425:8 5.71483 
3 *425:8 *425:12 9.10562 
4 *425:12 *425:14 11.798 
5 *425:14 *715:CLK 15.9964 
6 *425:14 *688:CLK 17.6796 
7 *425:12 *425:36 8.47603 
8 *425:36 *703:CLK 17.6796 
9 *425:36 *425:51 11.315 
10 *425:51 *687:CLK 10.2378 
11 *425:51 *425:66 19.0212 
12 *425:66 *701:CLK 13.7491 
13 *425:66 *700:CLK 29.7516 
14 *425:8 *934:A 10.2378 
15 *425:6 *425:95 23.5253 
16 *425:95 *699:CLK 30.9455 
17 *425:95 *425:110 10.6589 
18 *425:110 *717:CLK 25.968 
19 *425:110 *716:CLK 9.97254 
*END

*D_NET *166 0.00719291
*CONN
*I *907:A I *D sky130_fd_sc_hd__buf_16
*I *858:A I *D sky130_fd_sc_hd__buf_12
*I *663:B I *D sky130_fd_sc_hd__nor2_4
*I *662:X O *D sky130_fd_sc_hd__or2_4
*CAP
1 *907:A 0.000436125
2 *858:A 0
3 *663:B 0.000295683
4 *662:X 0.000377288
5 *166:41 0.00211799
6 *166:20 0.00176347
7 *907:A *484:B 0
8 *907:A *528:A1 0
9 *907:A *646:A 0.000332995
10 *907:A *831:A 3.00174e-06
11 *907:A *179:10 0
12 *907:A *179:23 0
13 *907:A *278:12 7.28994e-06
14 *166:41 *527:A 2.6874e-05
15 *166:41 *528:A1 3.30786e-05
16 *166:41 *528:C1 5.8256e-05
17 *166:41 *668:B 0.000107496
18 *166:41 *708:D 0.000141125
19 *166:41 *708:DE 6.63048e-05
20 *166:41 *708:CLK 6.50727e-05
21 *166:41 *936:A 2.15184e-05
22 *166:41 *192:10 5.02539e-05
23 *474:C1 *166:41 6.58192e-05
24 *486:B *907:A 9.90296e-05
25 *528:A2 *907:A 1.77537e-06
26 *528:A2 *166:41 6.50727e-05
27 *528:B2 *166:41 0.000115934
28 *530:C *166:41 2.01874e-05
29 *647:B1 *907:A 0.000304359
30 *869:A *907:A 3.18543e-05
31 *935:A *166:41 1.41689e-05
32 *9:12 *166:41 2.16355e-05
33 *42:8 *166:41 0.000549264
*RES
1 *662:X *663:B 24.7918 
2 *662:X *166:20 11.0817 
3 *166:20 *858:A 9.24915 
4 *166:20 *166:41 43.9417 
5 *166:41 *907:A 26.3777 
*END

*D_NET *167 0.00247139
*CONN
*I *920:A I *D sky130_fd_sc_hd__buf_12
*I *677:Y O *D sky130_fd_sc_hd__o21bai_4
*CAP
1 *920:A 0.000550619
2 *677:Y 0.000550619
3 *920:A *584:C 0.000109421
4 *920:A *586:B 0.000342667
5 *920:A *334:12 0.000287997
6 *920:A *352:44 0.000201734
7 *920:A *388:29 6.83813e-05
8 *920:A *404:12 2.2668e-05
9 *920:A *409:10 0
10 *920:A *433:20 2.77734e-05
11 *581:D *920:A 9.65909e-05
12 *582:D1 *920:A 4.15661e-05
13 *942:A *920:A 0.000171351
14 *77:33 *920:A 0
*RES
1 *677:Y *920:A 44.9041 
*END

*D_NET *168 0.00106412
*CONN
*I *672:A1 I *D sky130_fd_sc_hd__o21ai_1
*I *661:A I *D sky130_fd_sc_hd__inv_1
*I *666:B1 I *D sky130_fd_sc_hd__o21ai_0
*I *684:Q O *D sky130_fd_sc_hd__dfxtp_1
*CAP
1 *672:A1 0
2 *661:A 3.92394e-06
3 *666:B1 0.000118028
4 *684:Q 9.75037e-05
5 *168:21 0.00010203
6 *168:10 0.000313638
7 *666:B1 *673:B1 0.000122378
8 *673:A1 *661:A 0.000136809
9 *673:A1 *666:B1 6.05439e-05
10 *673:A1 *168:21 6.09682e-05
11 *673:A2 *666:B1 4.82966e-05
12 *684:D *168:10 0
*RES
1 *684:Q *168:10 20.4964 
2 *168:10 *666:B1 13.3002 
3 *168:10 *168:21 3.52053 
4 *168:21 *661:A 10.6779 
5 *168:21 *672:A1 9.24915 
*END

*D_NET *169 0.00185764
*CONN
*I *563:B I *D sky130_fd_sc_hd__nand2b_1
*I *569:A I *D sky130_fd_sc_hd__inv_1
*I *662:A I *D sky130_fd_sc_hd__or2_4
*I *914:A I *D sky130_fd_sc_hd__buf_4
*I *685:Q O *D sky130_fd_sc_hd__dfxtp_2
*CAP
1 *563:B 4.73427e-05
2 *569:A 1.35722e-05
3 *662:A 0
4 *914:A 0.000259346
5 *685:Q 4.27457e-05
6 *169:32 0.000263264
7 *169:10 0.000356395
8 *169:8 0.000342143
9 *563:B *423:72 0.000112618
10 *569:A *423:72 2.69716e-05
11 *914:A *662:B 4.94e-06
12 *914:A *672:B1 0.000117376
13 *914:A *423:10 0
14 *169:8 *682:A1 6.36477e-05
15 *169:10 *662:B 5.64028e-05
16 *169:10 *423:10 0
17 *169:32 *563:A_N 8.36586e-06
18 *169:32 *662:B 2.71045e-05
19 *672:A2 *914:A 0
20 *158:10 *563:B 3.79103e-05
21 *158:10 *569:A 7.74892e-05
*RES
1 *685:Q *169:8 14.4725 
2 *169:8 *169:10 2.6625 
3 *169:10 *914:A 20.3233 
4 *169:10 *662:A 13.7491 
5 *169:8 *169:32 8.82351 
6 *169:32 *569:A 10.1232 
7 *169:32 *563:B 11.8594 
*END

*D_NET *170 0.00260763
*CONN
*I *471:A I *D sky130_fd_sc_hd__nor2b_4
*I *961:A I *D sky130_fd_sc_hd__buf_6
*I *686:Q O *D sky130_fd_sc_hd__edfxtp_1
*CAP
1 *471:A 0.000119217
2 *961:A 7.99218e-05
3 *686:Q 0.000269323
4 *170:10 0.000468462
5 *471:A *518:A1 0.000203302
6 *471:A *519:S 6.27782e-05
7 *471:A *186:10 1.88422e-05
8 *471:A *412:43 4.47179e-05
9 *471:A *423:45 7.44384e-05
10 *961:A *656:B 2.37827e-05
11 *961:A *702:DE 7.56374e-05
12 *961:A *412:24 6.27782e-05
13 *170:10 *518:A1 0.000558131
14 *170:10 *659:A1 0.000143017
15 *170:10 *693:CLK 1.2819e-05
16 *170:10 *822:A 2.65667e-05
17 *659:A2 *471:A 3.20407e-05
18 *659:A2 *170:10 0.000298668
19 *659:B1 *170:10 3.31881e-05
*RES
1 *686:Q *170:10 25.4415 
2 *170:10 *961:A 16.1364 
3 *170:10 *471:A 18.9354 
*END

*D_NET *171 0.0024868
*CONN
*I *525:A I *D sky130_fd_sc_hd__xor2_1
*I *505:A I *D sky130_fd_sc_hd__inv_1
*I *687:Q O *D sky130_fd_sc_hd__edfxtp_1
*CAP
1 *525:A 0
2 *505:A 0.00010014
3 *687:Q 0.000496427
4 *171:14 0.000596568
5 *505:A *396:26 6.08467e-05
6 *171:14 *525:B 0.000226342
7 *171:14 *610:A2 0.000115954
8 *171:14 *187:10 0.00013592
9 *171:14 *235:18 9.29777e-05
10 *171:14 *396:26 0.000160617
11 *171:14 *409:82 3.55422e-05
12 *610:A1 *171:14 8.72643e-05
13 *610:C1 *171:14 3.20835e-05
14 *846:A *171:14 0.00021498
15 *31:8 *505:A 1.51793e-05
16 *116:10 *171:14 0.000115954
*RES
1 *687:Q *171:14 33.8503 
2 *171:14 *505:A 11.7871 
3 *171:14 *525:A 9.24915 
*END

*D_NET *172 0.00501881
*CONN
*I *556:A1 I *D sky130_fd_sc_hd__a21oi_1
*I *554:B I *D sky130_fd_sc_hd__nand2b_1
*I *912:A I *D sky130_fd_sc_hd__buf_4
*I *688:Q O *D sky130_fd_sc_hd__edfxtp_1
*CAP
1 *556:A1 0.000121584
2 *554:B 3.5672e-06
3 *912:A 0
4 *688:Q 0.00131794
5 *172:27 0.000446089
6 *172:16 0.00163888
7 *554:B *557:A1 1.47046e-05
8 *556:A1 *188:16 0.000111358
9 *556:A1 *391:10 0
10 *556:A1 *459:88 6.08467e-05
11 *172:16 *534:B1_N 7.33372e-06
12 *172:16 *600:A0 4.14867e-05
13 *172:16 *600:A1 3.78034e-05
14 *172:16 *600:S 0.00025991
15 *172:16 *670:D 5.90849e-06
16 *172:16 *887:A 2.16355e-05
17 *172:16 *336:25 5.51483e-06
18 *172:16 *414:156 7.50722e-05
19 *172:27 *600:A1 9.2346e-06
20 *172:27 *899:A 0.000214379
21 *172:27 *188:16 1.07248e-05
22 *172:27 *271:29 0.00015388
23 *172:27 *391:10 0
24 *172:27 *406:12 0.000367315
25 *543:A2 *172:16 1.80887e-05
26 *557:A2 *554:B 1.47046e-05
27 *602:A2 *172:16 6.08467e-05
*RES
1 *688:Q *172:16 39.0167 
2 *172:16 *912:A 9.24915 
3 *172:16 *172:27 15.7757 
4 *172:27 *554:B 13.924 
5 *172:27 *556:A1 16.7198 
*END

*D_NET *173 0.00355881
*CONN
*I *911:A I *D sky130_fd_sc_hd__buf_4
*I *556:B1 I *D sky130_fd_sc_hd__a21oi_1
*I *689:Q O *D sky130_fd_sc_hd__edfxtp_1
*CAP
1 *911:A 0.000234814
2 *556:B1 0.000288795
3 *689:Q 0.000275225
4 *173:10 0.000798835
5 *556:B1 *503:B 5.23435e-05
6 *556:B1 *555:A 0
7 *556:B1 *188:12 0
8 *556:B1 *188:16 8.62625e-06
9 *556:B1 *271:29 0.000131552
10 *556:B1 *272:18 2.86829e-05
11 *556:B1 *456:21 1.03403e-05
12 *556:B1 *459:88 6.50727e-05
13 *911:A *272:16 0.000154145
14 *911:A *352:94 0.000498351
15 *911:A *392:18 4.44437e-05
16 *911:A *405:14 0.000161825
17 *911:A *424:39 0.000113244
18 *173:10 *503:B 0.000271236
19 *173:10 *595:A1 4.96483e-05
20 *173:10 *272:18 0.000276244
21 *504:B1 *911:A 3.61531e-05
22 *557:B1 *556:B1 5.92342e-05
*RES
1 *689:Q *173:10 21.5677 
2 *173:10 *556:B1 22.1181 
3 *173:10 *911:A 23.3944 
*END

*D_NET *174 0.00236935
*CONN
*I *550:B_N I *D sky130_fd_sc_hd__nor2b_1
*I *551:A I *D sky130_fd_sc_hd__nor2b_1
*I *882:A I *D sky130_fd_sc_hd__buf_4
*I *690:Q O *D sky130_fd_sc_hd__edfxtp_1
*CAP
1 *550:B_N 0.000103079
2 *551:A 0
3 *882:A 0.000222187
4 *690:Q 0.000200284
5 *174:12 0.000222187
6 *174:10 0.000303363
7 *550:B_N *498:A1 9.63545e-05
8 *550:B_N *190:10 8.18934e-05
9 *882:A *500:A0 6.50586e-05
10 *882:A *500:S 0.000784762
11 *882:A *376:6 0.000116764
12 *174:10 *498:A1 4.87198e-05
13 *174:10 *190:10 1.44467e-05
14 *174:10 *190:14 4.27003e-05
15 *174:10 *352:82 5.13872e-05
16 *864:A *174:10 1.61631e-05
*RES
1 *690:Q *174:10 18.1063 
2 *174:10 *174:12 4.5 
3 *174:12 *882:A 17.737 
4 *174:12 *551:A 9.24915 
5 *174:10 *550:B_N 17.6574 
*END

*D_NET *175 0.003409
*CONN
*I *910:A I *D sky130_fd_sc_hd__buf_4
*I *494:A I *D sky130_fd_sc_hd__inv_1
*I *576:A I *D sky130_fd_sc_hd__nor3_1
*I *546:A I *D sky130_fd_sc_hd__xnor2_1
*I *691:Q O *D sky130_fd_sc_hd__edfxtp_1
*CAP
1 *910:A 0
2 *494:A 7.53733e-05
3 *576:A 2.97789e-05
4 *546:A 0.000208055
5 *691:Q 0.000139333
6 *175:36 0.000208331
7 *175:23 0.000468747
8 *175:10 0.000653398
9 *494:A *579:A1 0.000232859
10 *546:A *388:12 0.000154737
11 *546:A *388:29 0.000109427
12 *576:A *552:B 1.43983e-05
13 *175:10 *573:A 2.02035e-05
14 *175:10 *352:44 4.35719e-05
15 *175:10 *404:12 1.86178e-05
16 *175:23 *566:C1 7.2401e-05
17 *175:23 *574:A2 0.000134776
18 *175:23 *338:12 0.000182981
19 *175:23 *404:12 0.000285541
20 *175:36 *566:C1 8.50941e-05
21 *175:36 *358:12 0
22 *576:C *175:23 1.18938e-05
23 *576:C *175:36 5.66868e-06
24 *581:D *546:A 3.96696e-05
25 *942:A *175:10 3.47232e-05
26 *77:33 *175:10 8.80977e-05
27 *77:33 *175:23 9.13249e-05
*RES
1 *691:Q *175:10 17.4123 
2 *175:10 *546:A 20.0427 
3 *175:10 *175:23 9.72179 
4 *175:23 *576:A 14.4725 
5 *175:23 *175:36 7.993 
6 *175:36 *494:A 11.7871 
7 *175:36 *910:A 9.24915 
*END

*D_NET *176 0.00377389
*CONN
*I *572:B I *D sky130_fd_sc_hd__maj3_2
*I *909:A I *D sky130_fd_sc_hd__buf_4
*I *692:Q O *D sky130_fd_sc_hd__edfxtp_1
*CAP
1 *572:B 0.000306568
2 *909:A 0.000166316
3 *692:Q 0.000497162
4 *176:18 0.000970046
5 *572:B *562:B 0
6 *572:B *571:A 1.76994e-05
7 *572:B *415:10 0
8 *909:A *403:10 0.00010949
9 *909:A *421:44 2.08274e-05
10 *909:A *459:22 0.000225347
11 *176:18 *667:A 0.000183371
12 *176:18 *692:D 0.000244102
13 *176:18 *692:DE 8.53392e-05
14 *176:18 *692:CLK 0.000251966
15 *176:18 *421:44 4.19058e-05
16 *572:A *572:B 0.000171096
17 *572:C *572:B 0.000359108
18 *681:A1 *572:B 5.88662e-05
19 *681:A1 *176:18 6.46815e-05
*RES
1 *692:Q *176:18 26.1163 
2 *176:18 *909:A 14.6023 
3 *176:18 *572:B 28.3862 
*END

*D_NET *177 0.00343319
*CONN
*I *473:A I *D sky130_fd_sc_hd__nor2b_2
*I *470:B I *D sky130_fd_sc_hd__nand2b_4
*I *879:A I *D sky130_fd_sc_hd__buf_4
*I *693:Q O *D sky130_fd_sc_hd__edfxtp_1
*CAP
1 *473:A 1.52723e-05
2 *470:B 0.000436451
3 *879:A 1.15099e-05
4 *693:Q 0.000376432
5 *177:12 0.000809121
6 *470:B *470:A_N 7.84383e-05
7 *470:B *487:A2 0.000421989
8 *470:B *653:S 6.08467e-05
9 *470:B *656:B 5.46384e-06
10 *470:B *668:D 0.000180792
11 *470:B *709:D 4.69495e-06
12 *470:B *892:A 4.66492e-05
13 *470:B *415:10 9.89469e-05
14 *470:B *428:16 6.69545e-05
15 *473:A *487:A2 0.000115934
16 *879:A *653:S 6.27718e-05
17 *879:A *892:A 6.27718e-05
18 *177:12 *517:A1 0
19 *177:12 *654:A 0.000148144
20 *177:12 *656:B 0.000130268
21 *177:12 *395:14 0
22 *177:12 *414:28 0.000183801
23 *177:12 *428:16 0
24 *6:10 *473:A 0.000115934
*RES
1 *693:Q *177:12 28.0018 
2 *177:12 *879:A 9.97254 
3 *177:12 *470:B 33.051 
4 *470:B *473:A 19.7763 
*END

*D_NET *178 0.00472546
*CONN
*I *472:A I *D sky130_fd_sc_hd__nor2b_2
*I *469:B I *D sky130_fd_sc_hd__and2b_2
*I *951:A I *D sky130_fd_sc_hd__buf_4
*I *694:Q O *D sky130_fd_sc_hd__edfxtp_1
*CAP
1 *472:A 0.000120209
2 *469:B 0
3 *951:A 2.38271e-05
4 *694:Q 0.00114326
5 *178:27 0.000271
6 *178:12 0.00131788
7 *472:A *472:B_N 8.77991e-05
8 *472:A *668:B 6.27718e-05
9 *472:A *453:18 0.000516163
10 *951:A *488:A1 2.84758e-05
11 *951:A *517:A0 0.000114271
12 *178:12 *647:A2 2.17105e-05
13 *178:12 *648:A 3.1218e-05
14 *178:12 *694:D 7.89943e-06
15 *178:12 *694:DE 6.4304e-05
16 *178:12 *694:CLK 0.00049301
17 *178:12 *695:D 0.0001454
18 *178:12 *796:A 0
19 *178:12 *798:A 3.8357e-05
20 *178:12 *959:A 0
21 *178:12 *416:24 4.3755e-05
22 *178:27 *416:24 3.60437e-05
23 *178:27 *453:18 1.00766e-05
24 *490:B *472:A 6.29409e-05
25 *490:B *178:27 6.27718e-05
26 *649:A1 *178:12 2.23269e-05
*RES
1 *694:Q *178:12 37.6788 
2 *178:12 *951:A 15.0271 
3 *178:12 *178:27 8.30115 
4 *178:27 *469:B 9.24915 
5 *178:27 *472:A 15.9526 
*END

*D_NET *179 0.00233131
*CONN
*I *476:A_N I *D sky130_fd_sc_hd__nand2b_1
*I *475:B I *D sky130_fd_sc_hd__and2b_1
*I *906:A I *D sky130_fd_sc_hd__buf_4
*I *695:Q O *D sky130_fd_sc_hd__edfxtp_1
*CAP
1 *476:A_N 6.47146e-05
2 *475:B 0
3 *906:A 0
4 *695:Q 0.000592726
5 *179:23 0.000200968
6 *179:10 0.00072898
7 *476:A_N *475:A_N 1.61631e-05
8 *476:A_N *476:B 0
9 *476:A_N *485:A 2.57986e-05
10 *476:A_N *195:16 0.000151462
11 *179:10 *516:A0 3.96296e-05
12 *179:10 *516:A1 0.000330879
13 *179:10 *646:A 0
14 *179:10 *410:101 4.11817e-05
15 *179:23 *475:A_N 1.00981e-05
16 *179:23 *516:A0 2.14842e-06
17 *179:23 *400:21 3.96867e-05
18 *486:A *476:A_N 2.1801e-05
19 *486:A *179:23 6.50727e-05
20 *907:A *179:10 0
21 *907:A *179:23 0
*RES
1 *695:Q *179:10 26.9687 
2 *179:10 *906:A 13.7491 
3 *179:10 *179:23 8.30115 
4 *179:23 *475:B 9.24915 
5 *179:23 *476:A_N 12.0704 
*END

*D_NET *180 0.00598651
*CONN
*I *905:A I *D sky130_fd_sc_hd__buf_4
*I *479:A I *D sky130_fd_sc_hd__or2b_1
*I *478:B_N I *D sky130_fd_sc_hd__or2b_1
*I *696:Q O *D sky130_fd_sc_hd__edfxtp_1
*CAP
1 *905:A 0
2 *479:A 0.000367574
3 *478:B_N 0.000211219
4 *696:Q 0.000935899
5 *180:24 0.000955654
6 *180:18 0.00131276
7 *478:B_N *478:A 3.66374e-05
8 *479:A *478:A 2.77383e-05
9 *479:A *532:A1 7.46648e-06
10 *479:A *642:A1 1.65872e-05
11 *479:A *697:D 0.000107496
12 *479:A *181:10 0.000233506
13 *479:A *196:25 0.000664049
14 *479:A *377:10 0.000124377
15 *180:18 *515:A0 0.000175485
16 *180:18 *642:A1 5.31074e-05
17 *180:18 *696:D 6.08467e-05
18 *180:18 *421:106 0.000125635
19 *180:18 *421:130 0.000111722
20 *180:24 *696:CLK 0
21 *180:24 *712:D 0.000200236
22 *180:24 *712:DE 0
23 *180:24 *196:10 0
24 *180:24 *401:52 0.000117649
25 *180:24 *410:78 0
26 *642:A2 *479:A 6.27782e-05
27 *642:B1 *180:24 0
28 *645:A2 *180:18 7.80856e-05
*RES
1 *696:Q *180:18 38.6362 
2 *180:18 *180:24 19.9675 
3 *180:24 *478:B_N 13.8789 
4 *180:24 *479:A 33.5436 
5 *180:18 *905:A 9.24915 
*END

*D_NET *181 0.00350389
*CONN
*I *532:A1 I *D sky130_fd_sc_hd__a21boi_0
*I *883:A I *D sky130_fd_sc_hd__buf_4
*I *697:Q O *D sky130_fd_sc_hd__edfxtp_1
*CAP
1 *532:A1 0.000345645
2 *883:A 0
3 *697:Q 0.000940282
4 *181:10 0.00128593
5 *532:A1 *957:A 0
6 *532:A1 *377:10 0.000192763
7 *532:A1 *377:39 0.000114659
8 *181:10 *640:A1 0
9 *181:10 *642:A1 6.93171e-05
10 *181:10 *696:DE 2.22974e-05
11 *181:10 *848:A 0
12 *181:10 *957:A 0
13 *181:10 *196:25 6.14682e-06
14 *479:A *532:A1 7.46648e-06
15 *479:A *181:10 0.000233506
16 *532:A2 *532:A1 6.69545e-05
17 *642:B1 *181:10 0.000121494
18 *875:A *532:A1 2.16355e-05
19 *15:12 *532:A1 7.57986e-05
*RES
1 *697:Q *181:10 33.0638 
2 *181:10 *883:A 13.7491 
3 *181:10 *532:A1 22.6996 
*END

*D_NET *182 0.00494074
*CONN
*I *967:A I *D sky130_fd_sc_hd__buf_6
*I *908:A I *D sky130_fd_sc_hd__buf_4
*I *604:B_N I *D sky130_fd_sc_hd__nor2b_1
*I *536:B1 I *D sky130_fd_sc_hd__a21oi_1
*I *698:Q O *D sky130_fd_sc_hd__edfxtp_1
*CAP
1 *967:A 0.000143056
2 *908:A 1.52564e-05
3 *604:B_N 1.69248e-05
4 *536:B1 0.000270162
5 *698:Q 0.000127775
6 *182:18 0.000379946
7 *182:16 0.000571049
8 *182:12 0.000733765
9 *536:B1 *535:B1 0.000247443
10 *536:B1 *634:A 6.92705e-05
11 *536:B1 *634:B 6.08467e-05
12 *967:A *635:A 0.000324843
13 *967:A *198:14 4.56831e-05
14 *967:A *458:10 0.000121197
15 *182:12 *513:S 2.37624e-06
16 *182:16 *605:A2 0.000217951
17 *182:16 *635:B 0.000222836
18 *182:16 *699:DE 1.2894e-05
19 *182:16 *198:14 4.56173e-05
20 *182:16 *198:22 9.0828e-05
21 *182:16 *401:68 6.11359e-06
22 *182:18 *604:A 6.64392e-05
23 *535:A2 *536:B1 8.16184e-05
24 *536:A1 *536:B1 3.03173e-05
25 *543:A3 *536:B1 9.60216e-05
26 *605:B1 *182:16 0.000610533
27 *605:B1 *182:18 4.51698e-05
28 *972:A *536:B1 9.54448e-05
29 *973:A *536:B1 7.6719e-06
30 *973:A *604:B_N 8.70622e-06
31 *973:A *908:A 0
32 *973:A *182:16 4.38712e-05
33 *973:A *182:18 0.000111384
34 *132:18 *536:B1 1.43983e-05
35 *156:12 *536:B1 3.33173e-06
*RES
1 *698:Q *182:12 20.5272 
2 *182:12 *182:16 15.7218 
3 *182:16 *182:18 3.49641 
4 *182:18 *536:B1 27.0953 
5 *182:18 *604:B_N 9.82786 
6 *182:16 *908:A 9.82786 
7 *182:12 *967:A 15.0122 
*END

*D_NET *183 0.00789425
*CONN
*I *521:A I *D sky130_fd_sc_hd__xor2_1
*I *537:B I *D sky130_fd_sc_hd__nand2b_1
*I *606:A I *D sky130_fd_sc_hd__nor2b_1
*I *512:A0 I *D sky130_fd_sc_hd__mux2_4
*I *699:Q O *D sky130_fd_sc_hd__edfxtp_1
*CAP
1 *521:A 0
2 *537:B 8.30212e-06
3 *606:A 8.163e-05
4 *512:A0 0
5 *699:Q 0.000691432
6 *183:41 0.000585309
7 *183:33 0.00164864
8 *183:10 0.0018447
9 *537:B *537:A_N 1.29295e-06
10 *606:A *537:A_N 0.000122588
11 *606:A *606:B_N 0.000270814
12 *183:10 *512:S 0
13 *183:10 *815:A 0
14 *183:33 *512:S 0
15 *183:33 *521:B 2.16355e-05
16 *183:33 *629:A 1.16552e-05
17 *183:33 *633:A1 4.47179e-05
18 *183:33 *699:CLK 0
19 *183:33 *947:A 0.000102291
20 *183:33 *949:A 7.53432e-05
21 *183:33 *425:95 3.52393e-05
22 *183:33 *459:78 6.27718e-05
23 *183:41 *537:A_N 4.9e-05
24 *183:41 *538:B 0.000117376
25 *183:41 *425:8 0.00012826
26 *183:41 *425:95 0.000305685
27 *526:A *183:33 0.000143526
28 *526:C *183:33 8.96342e-05
29 *542:A *183:41 0.00016697
30 *609:B2 *183:33 4.28856e-07
31 *618:A1 *183:33 3.21615e-05
32 *633:B1 *183:33 1.7662e-06
33 *33:10 *183:33 0.000253367
34 *35:14 *183:33 7.16754e-05
35 *53:12 *183:41 0.000242518
36 *112:12 *537:B 3.82683e-05
37 *112:12 *606:A 1.98326e-05
38 *129:20 *183:10 0.000330407
39 *129:20 *183:33 0.000295018
*RES
1 *699:Q *183:10 26.835 
2 *183:10 *512:A0 13.7491 
3 *183:10 *183:33 38.3135 
4 *183:33 *183:41 25.557 
5 *183:41 *606:A 13.3484 
6 *183:41 *537:B 10.0389 
7 *183:33 *521:A 9.24915 
*END

*D_NET *184 0.00456241
*CONN
*I *903:A I *D sky130_fd_sc_hd__buf_4
*I *509:A I *D sky130_fd_sc_hd__inv_1
*I *520:A I *D sky130_fd_sc_hd__xor2_1
*I *700:Q O *D sky130_fd_sc_hd__edfxtp_1
*CAP
1 *903:A 0
2 *509:A 0.000250057
3 *520:A 0
4 *700:Q 0.00103555
5 *184:16 0.00052045
6 *184:10 0.00130594
7 *509:A *510:A 4.63933e-05
8 *509:A *510:B 0.000164383
9 *509:A *511:A2 0.000410286
10 *184:10 *717:CLK 0
11 *184:10 *355:99 0.000175629
12 *184:16 *511:A2 2.17403e-05
13 *184:16 *520:B 4.43331e-05
14 *184:16 *699:CLK 4.9e-05
15 *184:16 *717:CLK 0
16 *184:16 *355:99 5.28264e-05
17 *184:16 *425:110 0.000139684
18 *511:B1 *509:A 0.000181495
19 *628:B1 *184:10 0
20 *33:6 *509:A 3.12968e-05
21 *33:10 *509:A 3.9684e-05
22 *33:10 *184:16 3.00082e-05
23 *35:14 *509:A 6.36477e-05
*RES
1 *700:Q *184:10 35.1372 
2 *184:10 *184:16 12.0384 
3 *184:16 *520:A 9.24915 
4 *184:16 *509:A 19.5395 
5 *184:10 *903:A 13.7491 
*END

*D_NET *185 0.00198402
*CONN
*I *902:A I *D sky130_fd_sc_hd__buf_4
*I *523:B I *D sky130_fd_sc_hd__nand2b_1
*I *522:A I *D sky130_fd_sc_hd__nor2b_1
*I *701:Q O *D sky130_fd_sc_hd__edfxtp_1
*CAP
1 *902:A 0
2 *523:B 5.95644e-05
3 *522:A 0.000152917
4 *701:Q 0.000264181
5 *185:14 0.000476662
6 *522:A *617:A 0.000209232
7 *522:A *201:12 7.63284e-05
8 *522:A *396:26 4.37227e-05
9 *523:B *336:106 0.000172318
10 *185:14 *620:A 7.95458e-05
11 *185:14 *336:106 0.000110458
12 *185:14 *355:103 1.43439e-05
13 *185:14 *355:111 9.76996e-05
14 *185:14 *396:26 1.50924e-05
15 *524:B *522:A 0.000110858
16 *610:A3 *522:A 1.94615e-05
17 *610:B1 *523:B 4.36316e-05
18 *628:A2 *185:14 3.80007e-05
*RES
1 *701:Q *185:14 25.9578 
2 *185:14 *522:A 23.7141 
3 *185:14 *523:B 11.2626 
4 *185:14 *902:A 9.24915 
*END

*D_NET *186 0.00139384
*CONN
*I *901:A I *D sky130_fd_sc_hd__buf_4
*I *471:B_N I *D sky130_fd_sc_hd__nor2b_4
*I *702:Q O *D sky130_fd_sc_hd__edfxtp_1
*CAP
1 *901:A 0.000167494
2 *471:B_N 0
3 *702:Q 0.00034777
4 *186:10 0.000515264
5 *901:A *491:B 1.59362e-06
6 *901:A *276:12 4.18215e-06
7 *186:10 *519:S 8.7133e-05
8 *186:10 *412:43 3.99086e-06
9 *471:A *186:10 1.88422e-05
10 *655:A2 *901:A 7.07672e-05
11 *7:12 *901:A 2.58616e-05
12 *7:12 *186:10 0.000150943
*RES
1 *702:Q *186:10 16.9533 
2 *186:10 *471:B_N 9.24915 
3 *186:10 *901:A 22.8808 
*END

*D_NET *187 0.00148848
*CONN
*I *900:A I *D sky130_fd_sc_hd__buf_4
*I *525:B I *D sky130_fd_sc_hd__xor2_1
*I *703:Q O *D sky130_fd_sc_hd__edfxtp_1
*CAP
1 *900:A 2.50285e-05
2 *525:B 0.000201271
3 *703:Q 0.000228544
4 *187:10 0.000454843
5 *525:B *374:35 8.21849e-06
6 *900:A *394:8 2.16355e-05
7 *900:A *459:78 2.16355e-05
8 *187:10 *610:A2 2.41274e-06
9 *526:D *525:B 2.02349e-05
10 *610:A1 *525:B 2.18685e-05
11 *610:C1 *525:B 5.04734e-05
12 *610:C1 *187:10 5.9708e-05
13 *974:A *187:10 1.03403e-05
14 *171:14 *525:B 0.000226342
15 *171:14 *187:10 0.00013592
*RES
1 *703:Q *187:10 18.5216 
2 *187:10 *525:B 19.8464 
3 *187:10 *900:A 14.4725 
*END

*D_NET *188 0.00325342
*CONN
*I *555:B I *D sky130_fd_sc_hd__nor2_1
*I *554:A_N I *D sky130_fd_sc_hd__nand2b_1
*I *899:A I *D sky130_fd_sc_hd__buf_4
*I *704:Q O *D sky130_fd_sc_hd__edfxtp_1
*CAP
1 *555:B 0
2 *554:A_N 0
3 *899:A 0.000292567
4 *704:Q 0.000303755
5 *188:16 0.000443384
6 *188:12 0.000454572
7 *899:A *271:29 0.000217722
8 *899:A *393:6 0.000366486
9 *899:A *393:8 0.000401119
10 *899:A *406:12 0.000107496
11 *899:A *425:12 5.04829e-06
12 *188:12 *555:A 0.000143032
13 *188:12 *414:170 4.94429e-05
14 *188:16 *271:29 0.000111358
15 *188:16 *391:10 0
16 *556:A1 *188:16 0.000111358
17 *556:B1 *188:12 0
18 *556:B1 *188:16 8.62625e-06
19 *557:B1 *188:16 1.23455e-05
20 *172:27 *899:A 0.000214379
21 *172:27 *188:16 1.07248e-05
*RES
1 *704:Q *188:12 19.809 
2 *188:12 *188:16 4.37236 
3 *188:16 *899:A 26.1452 
4 *188:16 *554:A_N 13.7491 
5 *188:12 *555:B 13.7491 
*END

*D_NET *189 0.00157016
*CONN
*I *897:A I *D sky130_fd_sc_hd__buf_4
*I *555:A I *D sky130_fd_sc_hd__nor2_1
*I *898:A I *D sky130_fd_sc_hd__buf_4
*I *705:Q O *D sky130_fd_sc_hd__edfxtp_1
*CAP
1 *897:A 0
2 *555:A 0.000214491
3 *898:A 2.35819e-05
4 *705:Q 0.000136144
5 *189:14 0.000284915
6 *189:12 0.000182987
7 *555:A *391:10 0.00015499
8 *898:A *503:A 4.89251e-05
9 *898:A *392:18 4.89251e-05
10 *189:12 *595:A0 2.72533e-05
11 *189:12 *409:60 8.0879e-05
12 *189:14 *503:A 9.0845e-05
13 *189:14 *391:10 0.000112367
14 *189:14 *392:18 2.08274e-05
15 *556:B1 *555:A 0
16 *188:12 *555:A 0.000143032
*RES
1 *705:Q *189:12 21.3577 
2 *189:12 *189:14 2.38721 
3 *189:14 *898:A 10.5271 
4 *189:14 *555:A 25.0642 
5 *189:12 *897:A 9.24915 
*END

*D_NET *190 0.00696364
*CONN
*I *550:A I *D sky130_fd_sc_hd__nor2b_1
*I *551:B_N I *D sky130_fd_sc_hd__nor2b_1
*I *895:A I *D sky130_fd_sc_hd__buf_4
*I *896:A I *D sky130_fd_sc_hd__buf_4
*I *706:Q O *D sky130_fd_sc_hd__edfxtp_1
*CAP
1 *550:A 9.23879e-05
2 *551:B_N 0
3 *895:A 0.00155661
4 *896:A 0.000363999
5 *706:Q 0
6 *190:14 0.00219859
7 *190:10 0.000431898
8 *190:4 0.000246308
9 *550:A *706:DE 0
10 *550:A *414:174 7.82586e-05
11 *895:A *502:A 9.55569e-06
12 *895:A *559:B 1.43698e-05
13 *895:A *574:C1 0.000196447
14 *895:A *594:A 1.03403e-05
15 *895:A *670:A 0.000473004
16 *895:A *670:B 6.46815e-05
17 *895:A *424:14 8.77012e-05
18 *896:A *574:C1 0.000207032
19 *896:A *390:8 3.16131e-05
20 *190:10 *706:DE 1.41976e-05
21 *190:10 *414:174 9.46065e-06
22 *190:14 *352:82 2.18663e-05
23 *190:14 *358:12 0.000285793
24 *550:B_N *190:10 8.18934e-05
25 *559:A *895:A 1.96842e-05
26 *74:16 *895:A 0.000384993
27 *157:12 *895:A 2.57986e-05
28 *174:10 *190:10 1.44467e-05
29 *174:10 *190:14 4.27003e-05
*RES
1 *706:Q *190:4 9.24915 
2 *190:4 *190:10 8.85435 
3 *190:10 *190:14 12.976 
4 *190:14 *896:A 15.398 
5 *190:14 *895:A 42.1637 
6 *190:10 *551:B_N 13.7491 
7 *190:4 *550:A 11.9378 
*END

*D_NET *191 0.00809723
*CONN
*I *559:B I *D sky130_fd_sc_hd__maj3_1
*I *888:A I *D sky130_fd_sc_hd__buf_4
*I *894:A I *D sky130_fd_sc_hd__buf_4
*I *546:B I *D sky130_fd_sc_hd__xnor2_1
*I *707:Q O *D sky130_fd_sc_hd__edfxtp_1
*CAP
1 *559:B 2.98822e-05
2 *888:A 0.00101646
3 *894:A 2.12792e-05
4 *546:B 0
5 *707:Q 0.000687902
6 *191:25 0.00110406
7 *191:18 0.000591225
8 *191:14 0.00124269
9 *888:A *688:DE 1.94615e-05
10 *888:A *692:DE 4.81015e-05
11 *888:A *861:A 0.000396889
12 *888:A *355:12 0.000659833
13 *888:A *388:12 4.16785e-05
14 *888:A *414:118 0.000111708
15 *191:14 *498:A1 0
16 *191:14 *501:A0 0.000110294
17 *191:14 *405:22 8.37812e-05
18 *191:14 *409:10 0.000294095
19 *191:14 *424:39 3.37485e-05
20 *191:14 *459:88 7.41203e-05
21 *191:18 *566:A2 0
22 *191:18 *409:10 0.000293995
23 *191:25 *388:12 9.92736e-05
24 *553:B *191:18 7.11518e-06
25 *553:C *191:18 0
26 *559:C *191:14 0.000274613
27 *566:A1 *191:18 0.000223549
28 *844:A *191:18 9.5713e-05
29 *862:A *191:14 2.85892e-05
30 *895:A *559:B 1.43698e-05
31 *61:8 *191:18 4.43421e-05
32 *63:8 *191:14 6.30274e-06
33 *65:10 *191:14 0
34 *157:12 *888:A 0.000442157
*RES
1 *707:Q *191:14 32.7134 
2 *191:14 *191:18 20.8658 
3 *191:18 *546:B 9.24915 
4 *191:18 *191:25 2.38721 
5 *191:25 *894:A 9.82786 
6 *191:25 *888:A 48.9951 
7 *191:14 *559:B 14.4725 
*END

*D_NET *192 0.00311407
*CONN
*I *571:A I *D sky130_fd_sc_hd__inv_1
*I *893:A I *D sky130_fd_sc_hd__buf_4
*I *708:Q O *D sky130_fd_sc_hd__edfxtp_1
*CAP
1 *571:A 0.000253571
2 *893:A 7.26428e-05
3 *708:Q 0.000312757
4 *192:10 0.00063897
5 *571:A *562:B 7.12896e-05
6 *571:A *414:118 0.000238155
7 *571:A *421:48 6.40849e-05
8 *571:A *421:52 1.48863e-05
9 *571:A *459:22 0
10 *893:A *561:B 0.000112361
11 *893:A *668:D 0.000109427
12 *192:10 *421:52 9.03762e-06
13 *572:B *571:A 1.76994e-05
14 *681:A1 *571:A 0.000123582
15 *85:6 *571:A 0.000238155
16 *155:12 *893:A 2.16355e-05
17 *155:12 *192:10 0.00024596
18 *158:10 *893:A 6.27332e-05
19 *164:12 *571:A 0.000169166
20 *164:12 *192:10 0.000287705
21 *166:41 *192:10 5.02539e-05
*RES
1 *708:Q *192:10 21.9829 
2 *192:10 *893:A 16.691 
3 *192:10 *571:A 23.1624 
*END

*D_NET *193 0.00551269
*CONN
*I *936:A I *D sky130_fd_sc_hd__buf_4
*I *473:B_N I *D sky130_fd_sc_hd__nor2b_2
*I *470:A_N I *D sky130_fd_sc_hd__nand2b_4
*I *970:A I *D sky130_fd_sc_hd__buf_4
*I *709:Q O *D sky130_fd_sc_hd__edfxtp_1
*CAP
1 *936:A 8.52414e-05
2 *473:B_N 0
3 *470:A_N 0.000363421
4 *970:A 0.000752004
5 *709:Q 0.00012958
6 *193:25 0.000363421
7 *193:23 0.000167092
8 *193:6 0.000963434
9 *470:A_N *487:A2 2.38345e-05
10 *936:A *487:A2 8.92568e-06
11 *936:A *668:B 0.000248843
12 *970:A resp_msg[2] 0
13 *970:A *488:A1 0.000114659
14 *970:A *488:A2 6.13051e-05
15 *970:A *517:A0 2.5496e-05
16 *970:A *650:A1 0.000174175
17 *970:A *668:A 0.000222301
18 *970:A *959:A 0
19 *970:A *275:14 0.000153008
20 *970:A *453:18 1.93511e-06
21 *193:6 *488:A2 6.36948e-05
22 *193:23 *668:B 0.000209487
23 *470:B *470:A_N 7.84383e-05
24 *474:B1 *936:A 0.000158338
25 *474:C1 *936:A 0.000118166
26 *488:B1 *970:A 0.000144659
27 *489:B *470:A_N 0.00031994
28 *6:10 *470:A_N 0.000271058
29 *8:10 *936:A 5.92342e-05
30 *8:10 *193:23 0.000209487
31 *166:41 *936:A 2.15184e-05
*RES
1 *709:Q *193:6 11.3591 
2 *193:6 *970:A 37.8355 
3 *193:6 *193:23 8.40826 
4 *193:23 *193:25 4.5 
5 *193:25 *470:A_N 19.8348 
6 *193:25 *473:B_N 9.24915 
7 *193:23 *936:A 18.9354 
*END

*D_NET *194 0.0011518
*CONN
*I *891:A I *D sky130_fd_sc_hd__buf_6
*I *472:B_N I *D sky130_fd_sc_hd__nor2b_2
*I *710:Q O *D sky130_fd_sc_hd__edfxtp_1
*CAP
1 *891:A 0
2 *472:B_N 0.000150744
3 *710:Q 6.23969e-05
4 *194:6 0.000213141
5 *472:B_N *668:B 6.27782e-05
6 *472:B_N *453:18 0.000160135
7 *194:6 *488:A1 4.34564e-05
8 *194:6 *517:A0 0.000109427
9 *472:A *472:B_N 8.77991e-05
10 *490:B *472:B_N 0.000261925
*RES
1 *710:Q *194:6 11.3591 
2 *194:6 *472:B_N 24.2687 
3 *194:6 *891:A 9.24915 
*END

*D_NET *195 0.00333229
*CONN
*I *476:B I *D sky130_fd_sc_hd__nand2b_1
*I *890:A I *D sky130_fd_sc_hd__buf_4
*I *475:A_N I *D sky130_fd_sc_hd__and2b_1
*I *711:Q O *D sky130_fd_sc_hd__edfxtp_1
*CAP
1 *476:B 2.35037e-05
2 *890:A 9.45753e-05
3 *475:A_N 4.61055e-05
4 *711:Q 0.000589579
5 *195:16 0.000219667
6 *195:14 0.000692069
7 *475:A_N *484:B 6.50586e-05
8 *475:A_N *384:14 0.000115934
9 *476:B *485:A 1.09739e-05
10 *890:A *484:B 7.77309e-06
11 *890:A *528:A1 9.2346e-06
12 *890:A *528:C1 2.16355e-05
13 *890:A *384:14 0.000153271
14 *195:14 *483:B 0.000124942
15 *195:14 *485:A 2.81463e-05
16 *195:14 *485:B 9.66247e-05
17 *195:14 *401:52 0.000243189
18 *195:14 *416:71 0.000260806
19 *195:16 *485:A 1.6403e-05
20 *476:A_N *475:A_N 1.61631e-05
21 *476:A_N *476:B 0
22 *476:A_N *195:16 0.000151462
23 *477:B1 *195:14 6.64392e-05
24 *486:A *475:A_N 4.89898e-06
25 *486:A *195:14 2.02114e-05
26 *11:10 *890:A 0.000116971
27 *11:10 *195:16 6.50586e-05
28 *14:8 *195:14 6.14937e-05
29 *179:23 *475:A_N 1.00981e-05
*RES
1 *711:Q *195:14 35.5697 
2 *195:14 *195:16 2.76096 
3 *195:16 *475:A_N 11.0817 
4 *195:16 *890:A 21.635 
5 *195:14 *476:B 10.0931 
*END

*D_NET *196 0.0066426
*CONN
*I *643:A0 I *D sky130_fd_sc_hd__mux2i_1
*I *479:B_N I *D sky130_fd_sc_hd__or2b_1
*I *889:A I *D sky130_fd_sc_hd__buf_4
*I *478:A I *D sky130_fd_sc_hd__or2b_1
*I *712:Q O *D sky130_fd_sc_hd__edfxtp_1
*CAP
1 *643:A0 3.83796e-05
2 *479:B_N 3.6352e-05
3 *889:A 0.000398388
4 *478:A 0.000346939
5 *712:Q 0
6 *196:25 0.000765589
7 *196:10 0.00113705
8 *196:4 0.000497644
9 *478:A *642:A1 2.16355e-05
10 *889:A *667:B 6.46815e-05
11 *889:A *713:CLK 5.99359e-05
12 *889:A *377:39 0.00138362
13 *889:A *410:6 6.72453e-05
14 *889:A *410:64 2.39189e-05
15 *196:10 *697:D 0.000144659
16 *196:10 *401:52 3.87022e-06
17 *196:25 *697:D 0.000111001
18 *196:25 *713:CLK 1.03403e-05
19 *196:25 *369:12 0.000168507
20 *196:25 *377:10 8.70662e-06
21 *196:25 *401:52 9.16055e-05
22 *478:B_N *478:A 3.66374e-05
23 *479:A *478:A 2.77383e-05
24 *479:A *196:25 0.000664049
25 *483:A *196:25 0.000156823
26 *530:D *889:A 6.08467e-05
27 *642:B1 *196:10 0.000129071
28 *642:B1 *196:25 2.24632e-05
29 *876:A *889:A 5.9036e-05
30 *45:10 *889:A 9.97105e-05
31 *180:24 *196:10 0
32 *181:10 *196:25 6.14682e-06
*RES
1 *712:Q *196:4 9.24915 
2 *196:4 *196:10 16.0614 
3 *196:10 *478:A 18.9094 
4 *196:10 *196:25 19.0977 
5 *196:25 *889:A 27.2135 
6 *196:25 *479:B_N 10.2378 
7 *196:4 *643:A0 10.2498 
*END

*D_NET *197 0.00894164
*CONN
*I *531:A I *D sky130_fd_sc_hd__and2_1
*I *887:A I *D sky130_fd_sc_hd__buf_4
*I *532:B1_N I *D sky130_fd_sc_hd__a21boi_0
*I *885:A I *D sky130_fd_sc_hd__buf_4
*I *713:Q O *D sky130_fd_sc_hd__edfxtp_1
*CAP
1 *531:A 0
2 *887:A 0.00102991
3 *532:B1_N 0
4 *885:A 0
5 *713:Q 0.000929069
6 *197:40 0.0014784
7 *197:23 0.000609219
8 *197:14 0.0010898
9 *887:A *537:A_N 0.000173471
10 *887:A *667:A 6.46815e-05
11 *887:A *670:D 0
12 *887:A *715:D 5.71849e-05
13 *887:A *886:A 5.75897e-05
14 *887:A *336:25 0.000324166
15 *887:A *410:14 7.84712e-05
16 *887:A *414:150 0
17 *887:A *414:156 0
18 *887:A *416:12 0
19 *197:14 *379:10 0.000108186
20 *197:40 *530:B 7.46662e-05
21 *197:40 *410:14 1.00766e-05
22 *197:40 *413:47 5.86157e-05
23 *197:40 *459:32 0.0012901
24 *477:B1 *197:40 9.46208e-05
25 *532:A2 *197:23 0.000211539
26 *535:A1 *887:A 0.000694312
27 *535:A1 *197:40 6.50586e-05
28 *543:A2 *887:A 2.51196e-05
29 *671:C *197:40 6.27718e-05
30 *875:A *197:23 1.50924e-05
31 *875:A *197:40 0.000157238
32 *156:12 *197:40 0.000160658
33 *172:16 *887:A 2.16355e-05
*RES
1 *713:Q *197:14 29.6127 
2 *197:14 *885:A 9.24915 
3 *197:14 *197:23 4.62973 
4 *197:23 *532:B1_N 9.24915 
5 *197:23 *197:40 28.523 
6 *197:40 *887:A 49.361 
7 *197:40 *531:A 9.24915 
*END

*D_NET *198 0.00934582
*CONN
*I *926:A I *D sky130_fd_sc_hd__buf_4
*I *637:A0 I *D sky130_fd_sc_hd__mux2i_1
*I *960:A I *D sky130_fd_sc_hd__buf_4
*I *534:B1_N I *D sky130_fd_sc_hd__a21boi_1
*I *535:C1 I *D sky130_fd_sc_hd__a211oi_2
*I *714:Q O *D sky130_fd_sc_hd__edfxtp_1
*CAP
1 *926:A 2.06324e-05
2 *637:A0 0
3 *960:A 0
4 *534:B1_N 0.000361368
5 *535:C1 0.000463578
6 *714:Q 0.0010071
7 *198:36 0.000824946
8 *198:34 0.000409661
9 *198:22 0.000541443
10 *198:14 0.00115951
11 *535:C1 *535:B1 7.25324e-06
12 *535:C1 *886:A 3.30002e-05
13 *535:C1 *416:12 1.43848e-05
14 *198:14 resp_msg[6] 0
15 *198:14 *513:A0 0
16 *198:14 *635:A 0.000324843
17 *198:14 *635:B 0.000100752
18 *198:14 *699:DE 0.000228593
19 *198:14 *714:D 2.69064e-05
20 *198:14 *800:A 3.03035e-05
21 *198:14 *814:A 6.97239e-05
22 *198:14 *832:A 3.43721e-06
23 *198:14 *834:A 1.44467e-05
24 *198:14 *458:10 4.23874e-05
25 *198:22 *698:D 9.83156e-05
26 *198:22 *699:DE 0.000370815
27 *198:34 *604:A 6.86039e-05
28 *198:34 *639:A1 3.83526e-06
29 *198:34 *886:A 6.13051e-05
30 *198:34 *355:39 0.000651171
31 *198:34 *355:52 7.28567e-06
32 *198:34 *431:10 0.000536882
33 *543:A2 *534:B1_N 0.00011818
34 *543:A3 *534:B1_N 0.000163344
35 *543:A3 *535:C1 3.87196e-05
36 *543:B1 *534:B1_N 0.000350077
37 *636:A *198:14 0.000120967
38 *639:A2 *198:34 2.64835e-05
39 *639:B1 *198:34 7.59212e-05
40 *940:A *198:34 0.000112367
41 *967:A *198:14 4.56831e-05
42 *971:A *534:B1_N 2.29838e-05
43 *50:8 *535:C1 0.000321919
44 *109:10 *198:34 7.621e-05
45 *111:14 *198:22 0.000141544
46 *132:18 *198:22 1.94615e-05
47 *156:12 *534:B1_N 8.56945e-05
48 *172:16 *534:B1_N 7.33372e-06
49 *182:16 *198:14 4.56173e-05
50 *182:16 *198:22 9.0828e-05
*RES
1 *714:Q *198:14 43.0111 
2 *198:14 *198:22 15.7135 
3 *198:22 *198:34 17.0721 
4 *198:34 *198:36 4.5 
5 *198:36 *535:C1 22.6999 
6 *198:36 *534:B1_N 25.897 
7 *198:34 *960:A 9.24915 
8 *198:22 *637:A0 9.24915 
9 *198:14 *926:A 9.82786 
*END

*D_NET *199 0.00305079
*CONN
*I *884:A I *D sky130_fd_sc_hd__buf_4
*I *537:A_N I *D sky130_fd_sc_hd__nand2b_1
*I *715:Q O *D sky130_fd_sc_hd__edfxtp_1
*CAP
1 *884:A 9.39573e-05
2 *537:A_N 0.000724178
3 *715:Q 0
4 *199:4 0.000818135
5 *537:A_N *606:B_N 0.000147543
6 *537:A_N *715:D 0.000202164
7 *537:A_N *396:26 1.59362e-06
8 *884:A *715:D 0.00011996
9 *537:B *537:A_N 1.29295e-06
10 *541:B1 *537:A_N 2.50929e-05
11 *542:A *537:A_N 1.30094e-05
12 *542:C *537:A_N 6.58216e-05
13 *543:A2 *537:A_N 0.000178842
14 *543:B1 *537:A_N 4.86511e-05
15 *606:A *537:A_N 0.000122588
16 *887:A *537:A_N 0.000173471
17 *112:12 *537:A_N 0.000265491
18 *183:41 *537:A_N 4.9e-05
*RES
1 *715:Q *199:4 9.24915 
2 *199:4 *537:A_N 40.2779 
3 *199:4 *884:A 12.4683 
*END

*D_NET *200 0.00692816
*CONN
*I *520:B I *D sky130_fd_sc_hd__xor2_1
*I *881:A I *D sky130_fd_sc_hd__buf_4
*I *538:B I *D sky130_fd_sc_hd__maj3_1
*I *716:Q O *D sky130_fd_sc_hd__edfxtp_1
*CAP
1 *520:B 0.000103118
2 *881:A 0.000265405
3 *538:B 0.000253594
4 *716:Q 0.00101747
5 *200:8 0.00129044
6 *200:6 0.00189203
7 *538:B *425:95 0.000114584
8 *881:A *609:A2 6.50727e-05
9 *881:A *618:A3 0.000471008
10 *881:A *375:6 6.92705e-05
11 *881:A *375:19 1.1246e-05
12 *200:6 *716:D 5.49029e-06
13 *200:6 *716:DE 7.62718e-06
14 *200:6 *716:CLK 1.88014e-05
15 *200:6 *425:110 7.16893e-05
16 *200:8 *425:110 6.11872e-05
17 *609:B1 *881:A 9.49579e-05
18 *618:A2 *881:A 9.99386e-06
19 *618:B1 *538:B 0.000200794
20 *618:B1 *200:8 0.00044466
21 *619:C *200:8 2.41338e-05
22 *849:A *200:8 2.7191e-05
23 *37:12 *881:A 0.000141104
24 *115:16 *538:B 0.000105589
25 *183:41 *538:B 0.000117376
26 *184:16 *520:B 4.43331e-05
*RES
1 *716:Q *200:6 24.1149 
2 *200:6 *200:8 12.3701 
3 *200:8 *538:B 24.1616 
4 *200:8 *881:A 28.2791 
5 *200:6 *520:B 20.4964 
*END

*D_NET *201 0.0055782
*CONN
*I *522:B_N I *D sky130_fd_sc_hd__nor2b_1
*I *880:A I *D sky130_fd_sc_hd__buf_4
*I *717:Q O *D sky130_fd_sc_hd__edfxtp_1
*CAP
1 *522:B_N 0
2 *880:A 0.000274006
3 *717:Q 0.00194055
4 *201:12 0.00221455
5 *880:A *621:A1 0
6 *880:A *621:S 3.52807e-05
7 *880:A *837:A 3.0247e-05
8 *880:A *355:111 6.27718e-05
9 *880:A *374:10 0.000183809
10 *880:A *409:82 1.43698e-05
11 *201:12 *610:A2 3.14978e-05
12 *201:12 *617:A 9.5684e-05
13 *201:12 *620:A 2.65667e-05
14 *201:12 *625:A 0.000473457
15 *201:12 *717:D 0.000105807
16 *522:A *201:12 7.63284e-05
17 *623:B1 *880:A 1.32772e-05
18 *859:A *201:12 0
*RES
1 *717:Q *201:12 40.3913 
2 *201:12 *880:A 25.3723 
3 *201:12 *522:B_N 9.24915 
*END

*D_NET *202 0.00283424
*CONN
*I *686:D I *D sky130_fd_sc_hd__edfxtp_1
*I *659:Y O *D sky130_fd_sc_hd__o21ai_1
*CAP
1 *686:D 0.000807483
2 *659:Y 0.000807483
3 *686:D *686:DE 0.00121927
4 *686:D *686:CLK 0
*RES
1 *659:Y *686:D 43.1163 
*END

*D_NET *203 0.000343438
*CONN
*I *687:D I *D sky130_fd_sc_hd__edfxtp_1
*I *615:Y O *D sky130_fd_sc_hd__o21ai_1
*CAP
1 *687:D 0.000104016
2 *615:Y 0.000104016
3 *687:D *425:66 2.51089e-05
4 *615:A2 *687:D 0.000110297
*RES
1 *615:Y *687:D 21.1507 
*END

*D_NET *204 0.00025436
*CONN
*I *688:D I *D sky130_fd_sc_hd__edfxtp_1
*I *602:Y O *D sky130_fd_sc_hd__o21ai_1
*CAP
1 *688:D 0.000108737
2 *602:Y 0.000108737
3 *688:D *688:CLK 3.6886e-05
*RES
1 *602:Y *688:D 21.1507 
*END

*D_NET *205 0.00184042
*CONN
*I *689:D I *D sky130_fd_sc_hd__edfxtp_1
*I *598:Y O *D sky130_fd_sc_hd__o21ai_1
*CAP
1 *689:D 0.000493145
2 *598:Y 0.000493145
3 *689:D *503:B 0.000217951
4 *689:D *597:B 2.63704e-05
5 *689:D *598:A2 6.92705e-05
6 *689:D *689:DE 8.35836e-05
7 *689:D *271:29 0.000175244
8 *577:A *689:D 0.0002646
9 *583:A *689:D 1.71154e-05
*RES
1 *598:Y *689:D 42.283 
*END

*D_NET *206 0.000537399
*CONN
*I *690:D I *D sky130_fd_sc_hd__edfxtp_1
*I *591:Y O *D sky130_fd_sc_hd__a31oi_1
*CAP
1 *690:D 0.000206202
2 *591:Y 0.000206202
3 *690:D *590:A 0.000114271
4 *690:D *690:CLK 1.07248e-05
5 *690:D *352:57 0
6 *939:A *690:D 0
*RES
1 *591:Y *690:D 31.8125 
*END

*D_NET *207 0.000514755
*CONN
*I *691:D I *D sky130_fd_sc_hd__edfxtp_1
*I *585:X O *D sky130_fd_sc_hd__a211o_1
*CAP
1 *691:D 0.000183424
2 *585:X 0.000183424
3 *691:D *818:A 0
4 *691:D *267:10 9.38699e-06
5 *691:D *352:57 2.61535e-05
6 *691:D *421:10 0
7 *573:B *691:D 0.000112367
*RES
1 *585:X *691:D 31.3973 
*END

*D_NET *208 0.000414054
*CONN
*I *692:D I *D sky130_fd_sc_hd__edfxtp_1
*I *681:Y O *D sky130_fd_sc_hd__o21ai_1
*CAP
1 *692:D 8.49759e-05
2 *681:Y 8.49759e-05
3 *176:18 *692:D 0.000244102
*RES
1 *681:Y *692:D 21.1507 
*END

*D_NET *209 0.00112998
*CONN
*I *693:D I *D sky130_fd_sc_hd__edfxtp_1
*I *655:Y O *D sky130_fd_sc_hd__o21ai_1
*CAP
1 *693:D 0.00029647
2 *655:Y 0.00029647
3 *693:D *686:DE 7.18372e-05
4 *693:D *829:A 0
5 *693:D *352:12 0.000187704
6 *693:D *423:45 0.000277502
*RES
1 *655:Y *693:D 34.6579 
*END

*D_NET *210 0.000877801
*CONN
*I *694:D I *D sky130_fd_sc_hd__edfxtp_1
*I *652:Y O *D sky130_fd_sc_hd__o21ai_1
*CAP
1 *694:D 0.000326217
2 *652:Y 0.000326217
3 *694:D resp_msg[2] 7.58595e-05
4 *694:D *650:S 7.65364e-05
5 *694:D *694:CLK 6.50727e-05
6 *178:12 *694:D 7.89943e-06
*RES
1 *652:Y *694:D 36.0015 
*END

*D_NET *211 0.000929766
*CONN
*I *695:D I *D sky130_fd_sc_hd__edfxtp_1
*I *649:Y O *D sky130_fd_sc_hd__o21ai_1
*CAP
1 *695:D 0.00025202
2 *649:Y 0.00025202
3 *695:D *694:CLK 6.50727e-05
4 *695:D *410:101 4.12861e-05
5 *695:D *416:24 2.65831e-05
6 *695:D *421:106 0.000111722
7 *490:B *695:D 3.56615e-05
8 *178:12 *695:D 0.0001454
*RES
1 *649:Y *695:D 34.031 
*END

*D_NET *212 0.000481047
*CONN
*I *696:D I *D sky130_fd_sc_hd__edfxtp_1
*I *645:Y O *D sky130_fd_sc_hd__o21ai_1
*CAP
1 *696:D 0.000133263
2 *645:Y 0.000133263
3 *696:D *696:DE 3.15919e-05
4 *645:B1 *696:D 0.000122083
5 *180:18 *696:D 6.08467e-05
*RES
1 *645:Y *696:D 30.8427 
*END

*D_NET *213 0.00124226
*CONN
*I *697:D I *D sky130_fd_sc_hd__edfxtp_1
*I *642:Y O *D sky130_fd_sc_hd__o21ai_1
*CAP
1 *697:D 0.000286871
2 *642:Y 0.000286871
3 *697:D *696:DE 6.46815e-05
4 *697:D *401:39 6.55363e-05
5 *697:D *401:46 3.59042e-05
6 *697:D *401:52 0.000116175
7 *479:A *697:D 0.000107496
8 *642:A2 *697:D 2.30636e-05
9 *196:10 *697:D 0.000144659
10 *196:25 *697:D 0.000111001
*RES
1 *642:Y *697:D 35.625 
*END

*D_NET *214 0.00101223
*CONN
*I *698:D I *D sky130_fd_sc_hd__edfxtp_1
*I *639:Y O *D sky130_fd_sc_hd__o21ai_1
*CAP
1 *698:D 0.000195244
2 *639:Y 0.000195244
3 *698:D *698:DE 3.39728e-05
4 *698:D *401:56 3.13292e-05
5 *605:B1 *698:D 0.000147016
6 *111:14 *698:D 3.9193e-05
7 *132:18 *698:D 0.000271917
8 *198:22 *698:D 9.83156e-05
*RES
1 *639:Y *698:D 35.0381 
*END

*D_NET *215 0.00257024
*CONN
*I *699:D I *D sky130_fd_sc_hd__edfxtp_1
*I *633:Y O *D sky130_fd_sc_hd__o21ai_1
*CAP
1 *699:D 0
2 *633:Y 0.000652751
3 *215:22 0.000652751
4 *215:22 *699:DE 3.9094e-05
5 *215:22 *975:A 0.000127795
6 *215:22 *231:12 0
7 *633:A2 *215:22 7.73661e-05
8 *633:B1 *215:22 0.000370827
9 *636:A *215:22 4.26384e-05
10 *129:20 *215:22 0.000607022
*RES
1 *633:Y *215:22 45.9725 
2 *215:22 *699:D 9.24915 
*END

*D_NET *216 0.000387364
*CONN
*I *700:D I *D sky130_fd_sc_hd__edfxtp_1
*I *628:Y O *D sky130_fd_sc_hd__o21ai_1
*CAP
1 *700:D 6.73074e-05
2 *628:Y 6.73074e-05
3 *700:D *700:DE 9.95238e-05
4 *628:B1 *700:D 0.000153225
*RES
1 *628:Y *700:D 30.5345 
*END

*D_NET *217 0.000733138
*CONN
*I *701:D I *D sky130_fd_sc_hd__edfxtp_1
*I *623:Y O *D sky130_fd_sc_hd__o21ai_1
*CAP
1 *701:D 0.000227974
2 *623:Y 0.000227974
3 *701:D *622:B 4.72779e-05
4 *701:D *700:DE 7.12957e-05
5 *701:D *701:DE 6.46815e-05
6 *701:D *355:111 6.64392e-05
7 *623:B1 *701:D 2.74956e-05
*RES
1 *623:Y *701:D 33.688 
*END

*D_NET *218 0.000768386
*CONN
*I *702:D I *D sky130_fd_sc_hd__edfxtp_1
*I *519:X O *D sky130_fd_sc_hd__mux2_4
*CAP
1 *702:D 0.000253901
2 *519:X 0.000253901
3 *702:D *519:A0 3.00829e-05
4 *702:D *519:S 2.58757e-05
5 *702:D *702:DE 0.000132943
6 *702:D *412:43 7.1682e-05
*RES
1 *519:X *702:D 34.9338 
*END

*D_NET *219 0.000507244
*CONN
*I *703:D I *D sky130_fd_sc_hd__edfxtp_1
*I *507:Y O *D sky130_fd_sc_hd__o21ai_1
*CAP
1 *703:D 0.00017483
2 *507:Y 0.00017483
3 *703:D *703:CLK 5.48187e-06
4 *703:D *391:10 0
5 *703:D *414:170 3.15447e-05
6 *703:D *425:36 2.3339e-05
7 *703:D *425:51 3.07796e-05
8 *703:D *456:34 6.64392e-05
*RES
1 *507:Y *703:D 31.2579 
*END

*D_NET *220 0.000908816
*CONN
*I *704:D I *D sky130_fd_sc_hd__edfxtp_1
*I *504:Y O *D sky130_fd_sc_hd__o21ai_1
*CAP
1 *704:D 0.000207808
2 *504:Y 0.000207808
3 *704:D *352:82 0.000149628
4 *704:D *414:174 3.39728e-05
5 *704:D *424:20 6.80864e-05
6 *704:D *424:31 3.20069e-06
7 *704:D *456:8 0.000169041
8 *704:D *456:21 6.92705e-05
*RES
1 *504:Y *704:D 32.9519 
*END

*D_NET *221 0.000496803
*CONN
*I *705:D I *D sky130_fd_sc_hd__edfxtp_1
*I *501:X O *D sky130_fd_sc_hd__mux2_4
*CAP
1 *705:D 8.90801e-05
2 *501:X 8.90801e-05
3 *705:D *501:A1 0.000116502
4 *705:D *689:CLK 0.000116502
5 *705:D *409:60 2.28674e-05
6 *705:D *424:80 6.27718e-05
*RES
1 *501:X *705:D 21.7053 
*END

*D_NET *222 0.000533073
*CONN
*I *706:D I *D sky130_fd_sc_hd__edfxtp_1
*I *500:X O *D sky130_fd_sc_hd__mux2_4
*CAP
1 *706:D 0.000170577
2 *500:X 0.000170577
3 *706:D *500:S 0.000122378
4 *706:D *690:CLK 6.58661e-05
5 *706:D *424:49 3.67528e-06
*RES
1 *500:X *706:D 32.6431 
*END

*D_NET *223 0.0010099
*CONN
*I *707:D I *D sky130_fd_sc_hd__edfxtp_1
*I *498:Y O *D sky130_fd_sc_hd__o21ai_1
*CAP
1 *707:D 0.000377902
2 *498:Y 0.000377902
3 *707:D *498:A1 5.31465e-05
4 *707:D *498:A2 6.46815e-05
5 *707:D *424:39 0.000136267
*RES
1 *498:Y *707:D 36.5856 
*END

*D_NET *224 0.000870417
*CONN
*I *708:D I *D sky130_fd_sc_hd__edfxtp_1
*I *682:X O *D sky130_fd_sc_hd__mux2_4
*CAP
1 *708:D 0.000314056
2 *682:X 0.000314056
3 *708:D *708:DE 0
4 *708:D *403:27 2.78496e-05
5 *708:D *412:14 5.11107e-05
6 *708:D *412:16 2.22198e-05
7 *474:A1 *708:D 0
8 *166:41 *708:D 0.000141125
*RES
1 *682:X *708:D 35.6934 
*END

*D_NET *225 0.00226736
*CONN
*I *709:D I *D sky130_fd_sc_hd__edfxtp_1
*I *518:X O *D sky130_fd_sc_hd__mux2_4
*CAP
1 *709:D 0.00097351
2 *518:X 0.00097351
3 *709:D *709:CLK 6.27782e-05
4 *709:D *352:12 7.86825e-06
5 *709:D *414:54 0.000225861
6 *709:D *415:10 1.91391e-05
7 *470:B *709:D 4.69495e-06
*RES
1 *518:X *709:D 39.3179 
*END

*D_NET *226 0.00123555
*CONN
*I *710:D I *D sky130_fd_sc_hd__edfxtp_1
*I *517:X O *D sky130_fd_sc_hd__mux2_4
*CAP
1 *710:D 0.000393414
2 *517:X 0.000393414
3 *710:D *517:A0 6.08467e-05
4 *710:D *656:B 4.08756e-05
5 *710:D *702:DE 6.93408e-05
6 *710:D *962:A 6.50586e-05
7 *710:D *414:28 3.43037e-05
8 *710:D *421:52 3.4975e-05
9 *710:D *421:54 1.77537e-06
10 *164:12 *710:D 0.000141544
*RES
1 *517:X *710:D 37.9855 
*END

*D_NET *227 0.000529102
*CONN
*I *711:D I *D sky130_fd_sc_hd__edfxtp_1
*I *516:X O *D sky130_fd_sc_hd__mux2_4
*CAP
1 *711:D 0.000195159
2 *516:X 0.000195159
3 *711:D *516:A0 0
4 *711:D *711:CLK 0.000138784
5 *711:D *712:DE 0
*RES
1 *516:X *711:D 32.0122 
*END

*D_NET *228 0.000600697
*CONN
*I *712:D I *D sky130_fd_sc_hd__edfxtp_1
*I *515:X O *D sky130_fd_sc_hd__mux2_4
*CAP
1 *712:D 0.000165596
2 *515:X 0.000165596
3 *712:D *696:CLK 0
4 *712:D *712:DE 6.92705e-05
5 *712:D *410:78 0
6 *180:24 *712:D 0.000200236
*RES
1 *515:X *712:D 32.5466 
*END

*D_NET *229 0.000414341
*CONN
*I *713:D I *D sky130_fd_sc_hd__edfxtp_1
*I *514:X O *D sky130_fd_sc_hd__mux2_4
*CAP
1 *713:D 9.18803e-05
2 *514:X 9.18803e-05
3 *713:D *514:A1 6.75461e-05
4 *713:D *713:DE 0.000126739
5 *713:D *713:CLK 3.62953e-05
*RES
1 *514:X *713:D 21.838 
*END

*D_NET *230 0.000808511
*CONN
*I *714:D I *D sky130_fd_sc_hd__edfxtp_1
*I *513:X O *D sky130_fd_sc_hd__mux2_4
*CAP
1 *714:D 0.000280255
2 *513:X 0.000280255
3 *714:D *513:A1 6.99486e-05
4 *714:D *713:DE 0
5 *714:D *714:DE 6.92705e-05
6 *714:D *832:A 8.18762e-05
7 *714:D *414:128 0
8 *198:14 *714:D 2.69064e-05
*RES
1 *513:X *714:D 35.2125 
*END

*D_NET *231 0.00586212
*CONN
*I *715:D I *D sky130_fd_sc_hd__edfxtp_1
*I *512:X O *D sky130_fd_sc_hd__mux2_4
*CAP
1 *715:D 0.00179045
2 *512:X 0.00051258
3 *231:12 0.00230303
4 *715:D *631:A1 2.99747e-05
5 *715:D *715:DE 3.39728e-05
6 *715:D *843:A 0.000307029
7 *715:D *378:10 6.83811e-05
8 *231:12 *512:A1 0.00014489
9 *231:12 *512:S 6.92705e-05
10 *231:12 *629:B 5.04829e-06
11 *231:12 *699:CLK 0
12 *537:A_N *715:D 0.000202164
13 *543:A2 *715:D 1.94615e-05
14 *633:B1 *231:12 3.86835e-05
15 *847:A *715:D 9.50664e-05
16 *884:A *715:D 0.00011996
17 *887:A *715:D 5.71849e-05
18 *111:14 *715:D 6.49694e-05
19 *215:22 *231:12 0
*RES
1 *512:X *231:12 30.5059 
2 *231:12 *715:D 48.7049 
*END

*D_NET *232 0.000304386
*CONN
*I *716:D I *D sky130_fd_sc_hd__edfxtp_1
*I *511:Y O *D sky130_fd_sc_hd__o21ai_1
*CAP
1 *716:D 0.000129476
2 *511:Y 0.000129476
3 *716:D *510:B 3.44412e-06
4 *716:D *512:S 0
5 *716:D *949:A 3.64995e-05
6 *200:6 *716:D 5.49029e-06
*RES
1 *511:Y *716:D 30.5345 
*END

*D_NET *233 0.000730735
*CONN
*I *717:D I *D sky130_fd_sc_hd__edfxtp_1
*I *508:X O *D sky130_fd_sc_hd__mux2_4
*CAP
1 *717:D 0.000295232
2 *508:X 0.000295232
3 *717:D *512:S 0
4 *717:D *717:DE 3.44641e-05
5 *201:12 *717:D 0.000105807
*RES
1 *508:X *717:D 35.0437 
*END

*D_NET *234 0.000320105
*CONN
*I *519:A1 I *D sky130_fd_sc_hd__mux2_4
*I *596:X O *D sky130_fd_sc_hd__clkdlybuf4s50_1
*CAP
1 *519:A1 0.000131735
2 *596:X 0.000131735
3 *519:A1 *519:A0 4.03096e-05
4 *519:A1 *519:S 1.63255e-05
*RES
1 *596:X *519:A1 22.0188 
*END

*D_NET *243 0.000577932
*CONN
*I *651:A I *D sky130_fd_sc_hd__nand2_1
*I *795:X O *D sky130_fd_sc_hd__clkdlybuf4s50_1
*CAP
1 *651:A 0.000159387
2 *795:X 0.000159387
3 *651:A resp_msg[2] 0
4 *651:A *650:S 0.000117376
5 *651:A *812:A 0.000141782
*RES
1 *795:X *651:A 31.4388 
*END

*D_NET *244 0.000706341
*CONN
*I *648:A I *D sky130_fd_sc_hd__nand2_1
*I *796:X O *D sky130_fd_sc_hd__clkdlybuf4s50_1
*CAP
1 *648:A 0.000220009
2 *796:X 0.000220009
3 *648:A *694:DE 0
4 *648:A *812:A 0.000224381
5 *490:B *648:A 1.07248e-05
6 *178:12 *648:A 3.1218e-05
*RES
1 *796:X *648:A 32.1327 
*END

*D_NET *245 0.00283764
*CONN
*I *518:A1 I *D sky130_fd_sc_hd__mux2_4
*I *797:X O *D sky130_fd_sc_hd__clkdlybuf4s50_1
*CAP
1 *518:A1 0.000798962
2 *797:X 0.000798962
3 *518:A1 resp_msg[0] 0
4 *518:A1 *657:A 4.51717e-05
5 *518:A1 *797:A 5.96542e-05
6 *518:A1 *822:A 0.000285532
7 *518:A1 *423:12 6.49659e-05
8 *518:A1 *423:45 2.2766e-06
9 *518:A1 *452:22 2.06836e-05
10 *471:A *518:A1 0.000203302
11 *658:A *518:A1 0
12 *170:10 *518:A1 0.000558131
*RES
1 *797:X *518:A1 49.852 
*END

*D_NET *246 0.000345733
*CONN
*I *644:A I *D sky130_fd_sc_hd__nand2_1
*I *798:X O *D sky130_fd_sc_hd__clkdlybuf4s50_1
*CAP
1 *644:A 0.000124581
2 *798:X 0.000124581
3 *644:A *644:B 6.50727e-05
4 *645:B1 *644:A 3.14978e-05
*RES
1 *798:X *644:A 22.0188 
*END

*D_NET *414 0.038851
*CONN
*I *715:DE I *D sky130_fd_sc_hd__edfxtp_1
*I *717:DE I *D sky130_fd_sc_hd__edfxtp_1
*I *716:DE I *D sky130_fd_sc_hd__edfxtp_1
*I *703:DE I *D sky130_fd_sc_hd__edfxtp_1
*I *705:DE I *D sky130_fd_sc_hd__edfxtp_1
*I *704:DE I *D sky130_fd_sc_hd__edfxtp_1
*I *707:DE I *D sky130_fd_sc_hd__edfxtp_1
*I *706:DE I *D sky130_fd_sc_hd__edfxtp_1
*I *714:DE I *D sky130_fd_sc_hd__edfxtp_1
*I *713:DE I *D sky130_fd_sc_hd__edfxtp_1
*I *708:DE I *D sky130_fd_sc_hd__edfxtp_1
*I *711:DE I *D sky130_fd_sc_hd__edfxtp_1
*I *712:DE I *D sky130_fd_sc_hd__edfxtp_1
*I *709:DE I *D sky130_fd_sc_hd__edfxtp_1
*I *710:DE I *D sky130_fd_sc_hd__edfxtp_1
*I *702:DE I *D sky130_fd_sc_hd__edfxtp_1
*I *920:X O *D sky130_fd_sc_hd__buf_12
*CAP
1 *715:DE 1.69187e-05
2 *717:DE 1.65908e-05
3 *716:DE 0.000257921
4 *703:DE 0
5 *705:DE 0.000234977
6 *704:DE 0
7 *707:DE 0.000142101
8 *706:DE 0.000433814
9 *714:DE 7.95526e-05
10 *713:DE 0.00033464
11 *708:DE 0.000212395
12 *711:DE 1.67259e-05
13 *712:DE 0.000390571
14 *709:DE 0
15 *710:DE 0
16 *702:DE 0.00162137
17 *920:X 6.31515e-05
18 *414:227 0.00265746
19 *414:174 0.00129491
20 *414:172 0.000733228
21 *414:170 0.000898767
22 *414:162 0.000756069
23 *414:156 0.00331345
24 *414:150 0.00125652
25 *414:128 0.00247594
26 *414:118 0.00311422
27 *414:73 0.00238999
28 *414:54 0.00216311
29 *414:28 0.0019989
30 *414:14 0.000700125
31 *414:10 0.000722185
32 *414:6 0.00106764
33 *702:DE *519:A0 0.000460524
34 *702:DE *656:B 3.85413e-05
35 *702:DE *452:14 6.08467e-05
36 *702:DE *452:22 0.000197448
37 *707:DE *498:A1 0
38 *707:DE *424:39 8.52404e-05
39 *713:DE *513:S 0
40 *714:DE *832:A 2.19686e-05
41 *716:DE *717:CLK 0
42 *414:10 *415:10 0.000629973
43 *414:14 *415:10 0.0004823
44 *414:28 *656:B 4.71765e-06
45 *414:28 *415:10 1.99596e-06
46 *414:73 *421:52 1.94614e-05
47 *414:118 *678:A 4.95616e-05
48 *414:128 *513:S 0
49 *414:128 *416:12 1.51735e-05
50 *414:150 *416:12 7.7321e-05
51 *414:156 *425:36 0
52 *414:156 *456:34 5.00217e-05
53 *414:162 *703:CLK 1.69178e-06
54 *414:170 *703:CLK 3.77027e-05
55 *414:174 *704:CLK 6.50586e-05
56 *414:227 *456:34 2.26985e-05
57 *474:A1 *708:DE 3.92805e-05
58 *474:A1 *414:10 0.000111968
59 *474:A1 *414:14 0.000252327
60 *481:B *713:DE 0.0001682
61 *504:B1 *705:DE 2.99412e-05
62 *512:S *716:DE 7.06619e-05
63 *514:A1 *713:DE 2.51597e-06
64 *547:B_N *414:174 6.50727e-05
65 *548:A_N *414:174 6.37667e-05
66 *548:B *414:174 1.47046e-05
67 *550:A *706:DE 0
68 *550:A *414:174 7.82586e-05
69 *571:A *414:118 0.000238155
70 *612:B *414:156 0.000439667
71 *612:B *414:227 2.0456e-06
72 *615:A1 *414:227 0
73 *626:A1 *716:DE 0.000209752
74 *630:A *414:128 0
75 *657:A *702:DE 6.31036e-06
76 *667:C *414:118 4.31703e-05
77 *670:D *414:156 2.69064e-05
78 *679:A *414:118 4.11068e-05
79 *679:B *414:118 2.65831e-05
80 *681:A1 *414:118 0.000211492
81 *688:DE *414:150 0.000165463
82 *689:DE *705:DE 0.000168467
83 *692:DE *414:118 0.000539083
84 *692:DE *414:128 4.51619e-05
85 *692:DE *414:150 0.000307
86 *702:D *702:DE 0.000132943
87 *703:D *414:170 3.15447e-05
88 *704:D *414:174 3.39728e-05
89 *708:D *708:DE 0
90 *709:D *414:54 0.000225861
91 *709:CLK *414:28 1.65872e-05
92 *709:CLK *414:54 3.54435e-05
93 *710:D *702:DE 6.93408e-05
94 *710:D *414:28 3.43037e-05
95 *710:CLK *702:DE 6.91907e-05
96 *711:D *712:DE 0
97 *711:CLK *711:DE 3.42041e-05
98 *712:D *712:DE 6.92705e-05
99 *713:D *713:DE 0.000126739
100 *714:D *713:DE 0
101 *714:D *714:DE 6.92705e-05
102 *714:D *414:128 0
103 *715:D *715:DE 3.39728e-05
104 *717:D *717:DE 3.44641e-05
105 *887:A *414:150 0
106 *887:A *414:156 0
107 *888:A *414:118 0.000111708
108 *892:A *414:28 3.10029e-05
109 *961:A *702:DE 7.56374e-05
110 *7:12 *414:14 0.000235838
111 *7:12 *414:28 8.89366e-05
112 *62:14 *414:174 1.55378e-05
113 *85:6 *414:118 6.53528e-05
114 *155:12 *414:73 1.66771e-05
115 *157:12 *414:156 7.0438e-05
116 *166:41 *708:DE 6.63048e-05
117 *172:16 *414:156 7.50722e-05
118 *177:12 *414:28 0.000183801
119 *180:24 *712:DE 0
120 *188:12 *414:170 4.94429e-05
121 *190:10 *706:DE 1.41976e-05
122 *190:10 *414:174 9.46065e-06
123 *200:6 *716:DE 7.62718e-06
124 *336:10 *414:150 7.06708e-05
125 *336:10 *414:156 0.000396884
126 *336:25 *414:156 0
127 *352:82 *705:DE 0.000212448
128 *379:10 *713:DE 0.000157778
129 *386:14 *414:28 6.08467e-05
130 *395:8 *702:DE 3.07848e-05
131 *405:14 *414:174 6.3657e-05
132 *405:22 *414:174 7.02172e-06
133 *409:60 *705:DE 2.90638e-06
134 *410:72 *712:DE 0.00014287
135 *410:72 *414:73 4.69495e-06
136 *410:78 *712:DE 0.000175396
137 *412:24 *702:DE 0.000140689
138 *413:31 *414:10 0
139 *413:47 *414:128 0.000101476
140 *413:91 *414:156 9.62381e-05
*RES
1 *920:X *414:6 10.5271 
2 *414:6 *414:10 16.298 
3 *414:10 *414:14 12.976 
4 *414:14 *414:28 18.4007 
5 *414:28 *702:DE 48.3362 
6 *414:28 *710:DE 9.24915 
7 *414:14 *414:54 4.37052 
8 *414:54 *709:DE 9.24915 
9 *414:54 *414:73 16.4261 
10 *414:73 *712:DE 24.7503 
11 *414:73 *711:DE 14.153 
12 *414:10 *708:DE 26.8176 
13 *414:6 *414:118 24.6827 
14 *414:118 *414:128 14.2432 
15 *414:128 *713:DE 22.5716 
16 *414:128 *714:DE 15.8591 
17 *414:118 *414:150 12.6286 
18 *414:150 *414:156 26.283 
19 *414:156 *414:162 6.59182 
20 *414:162 *414:170 15.125 
21 *414:170 *414:172 0.403896 
22 *414:172 *414:174 16.0172 
23 *414:174 *706:DE 19.8047 
24 *414:174 *707:DE 21.4549 
25 *414:172 *704:DE 9.24915 
26 *414:170 *705:DE 25.4681 
27 *414:162 *703:DE 9.24915 
28 *414:156 *414:227 11.9085 
29 *414:227 *716:DE 20.9681 
30 *414:227 *717:DE 14.153 
31 *414:150 *715:DE 14.153 
*END

*D_NET *335 0.000554993
*CONN
*I *587:B I *D sky130_fd_sc_hd__xor2_2
*I *841:X O *D sky130_fd_sc_hd__buf_4
*CAP
1 *587:B 0.000100161
2 *841:X 0.000100161
3 *841:A *587:B 0.00035467
*RES
1 *841:X *587:B 13.2158 
*END

*D_NET *336 0.017033
*CONN
*I *626:A2 I *D sky130_fd_sc_hd__a21oi_2
*I *625:B I *D sky130_fd_sc_hd__nor2_4
*I *631:S I *D sky130_fd_sc_hd__mux2i_1
*I *637:S I *D sky130_fd_sc_hd__mux2i_1
*I *621:S I *D sky130_fd_sc_hd__mux2i_1
*I *612:A I *D sky130_fd_sc_hd__nand2_2
*I *595:S I *D sky130_fd_sc_hd__mux2i_1
*I *600:S I *D sky130_fd_sc_hd__mux2i_1
*I *842:X O *D sky130_fd_sc_hd__buf_8
*CAP
1 *626:A2 7.3321e-05
2 *625:B 1.96723e-05
3 *631:S 0.000193659
4 *637:S 0.000120272
5 *621:S 0.00107448
6 *612:A 0
7 *595:S 0.000363836
8 *600:S 7.15258e-05
9 *842:X 0.00150622
10 *336:106 0.000390343
11 *336:79 0.00163905
12 *336:29 0.000389644
13 *336:25 0.00161079
14 *336:10 0.00106048
15 *595:S *613:A 0.000109421
16 *595:S *615:A1 1.16515e-05
17 *595:S *355:156 1.67781e-05
18 *600:S *670:D 3.55887e-05
19 *621:S *610:A2 7.66391e-06
20 *621:S *374:12 0.000110458
21 *621:S *409:60 0.000405074
22 *625:B *508:A0 4.76161e-06
23 *626:A2 *508:A0 0.000149225
24 *631:S *630:A 3.26247e-05
25 *631:S *631:A1 6.81008e-05
26 *631:S *925:A 0.000160617
27 *631:S *355:63 0.000164902
28 *631:S *355:82 0.0001425
29 *637:S *630:A 8.85859e-05
30 *637:S *638:B 7.64318e-05
31 *637:S *355:63 0.000181769
32 *336:10 *688:DE 0.000417216
33 *336:10 *414:150 7.06708e-05
34 *336:10 *414:156 0.000396884
35 *336:25 *606:B_N 2.19276e-05
36 *336:25 *611:B 0.000144531
37 *336:25 *613:A 0
38 *336:25 *670:D 0.000106493
39 *336:25 *413:91 9.60433e-06
40 *336:25 *414:156 0
41 *336:29 *506:A 0.00016195
42 *336:29 *409:60 0.000160047
43 *336:106 *508:A0 0.00016566
44 *336:106 *374:12 6.08467e-05
45 *336:106 *396:26 2.30636e-05
46 *507:B1 *336:25 0
47 *523:B *336:106 0.000172318
48 *542:A *336:25 0.000431087
49 *610:A3 *621:S 0.000460051
50 *610:A3 *336:106 0.000203756
51 *610:B1 *621:S 0.000113244
52 *610:B1 *336:106 1.91848e-05
53 *612:B *595:S 5.03545e-06
54 *612:B *336:25 0
55 *613:B *595:S 0.000265284
56 *615:A2 *595:S 5.24081e-05
57 *615:B1 *595:S 0.000352523
58 *621:A1 *621:S 2.01028e-05
59 *636:A *336:79 2.41177e-05
60 *873:A *336:25 0.000234443
61 *880:A *621:S 3.52807e-05
62 *887:A *336:25 0.000324166
63 *41:14 *631:S 1.91199e-05
64 *41:14 *336:79 0.0016651
65 *58:18 *336:79 0.00016195
66 *157:12 *336:10 5.64929e-05
67 *172:16 *600:S 0.00025991
68 *172:16 *336:25 5.51483e-06
69 *185:14 *336:106 0.000110458
70 *235:18 *621:S 2.30636e-05
*RES
1 *842:X *336:10 27.9709 
2 *336:10 *600:S 12.191 
3 *336:10 *336:25 29.2275 
4 *336:25 *336:29 6.3326 
5 *336:29 *595:S 30.3637 
6 *336:29 *612:A 9.24915 
7 *336:25 *621:S 37.9821 
8 *842:X *336:79 37.8141 
9 *336:79 *637:S 18.4879 
10 *336:79 *631:S 21.151 
11 *621:S *336:106 18.8462 
12 *336:106 *625:B 9.82786 
13 *336:106 *626:A2 11.6364 
*END

*D_NET *334 0.0027173
*CONN
*I *677:A2 I *D sky130_fd_sc_hd__o21bai_4
*I *584:C I *D sky130_fd_sc_hd__nor3_1
*I *840:X O *D sky130_fd_sc_hd__buf_6
*CAP
1 *677:A2 0
2 *584:C 0.000270848
3 *840:X 0.000321377
4 *334:12 0.000592225
5 *584:C *568:A 2.62185e-06
6 *584:C *584:B 1.19453e-05
7 *584:C *586:B 5.20308e-05
8 *584:C *677:B1_N 0
9 *584:C *388:56 1.27831e-06
10 *334:12 *586:B 6.27332e-05
11 *334:12 *677:A1 5.97738e-05
12 *334:12 *338:12 7.50991e-05
13 *334:12 *409:10 9.01513e-05
14 *334:12 *433:20 6.46662e-05
15 *581:D *334:12 1.30836e-05
16 *582:D1 *584:C 0.000247443
17 *582:D1 *334:12 0.000186597
18 *584:A *584:C 0.000111352
19 *585:B1 *584:C 5.31465e-05
20 *920:A *584:C 0.000109421
21 *920:A *334:12 0.000287997
22 *84:20 *584:C 3.3738e-05
23 *84:39 *584:C 6.97758e-05
*RES
1 *840:X *334:12 29.2545 
2 *334:12 *584:C 26.5407 
3 *334:12 *677:A2 9.24915 
*END

*D_NET *333 0.00101335
*CONN
*I *588:A2 I *D sky130_fd_sc_hd__a21bo_1
*I *589:B I *D sky130_fd_sc_hd__nand3b_1
*I *839:X O *D sky130_fd_sc_hd__buf_4
*CAP
1 *588:A2 0.000116852
2 *589:B 0.000140535
3 *839:X 0
4 *333:4 0.000257387
5 *588:A2 *579:C1 8.92568e-06
6 *588:A2 *588:B1_N 4.31539e-05
7 *588:A2 *390:14 0
8 *588:A2 *433:26 3.67528e-06
9 *579:D1 *588:A2 3.20069e-06
10 *582:C1 *588:A2 3.88002e-05
11 *588:A1 *588:A2 0.000111708
12 *591:A2 *588:A2 0.000144546
13 *591:A2 *589:B 0.00014457
*RES
1 *839:X *333:4 9.24915 
2 *333:4 *589:B 13.903 
3 *333:4 *588:A2 22.6049 
*END

*D_NET *247 0.000239379
*CONN
*I *641:A I *D sky130_fd_sc_hd__nand2_1
*I *799:X O *D sky130_fd_sc_hd__clkdlybuf4s50_1
*CAP
1 *641:A 9.944e-05
2 *799:X 9.944e-05
3 *641:A *696:CLK 4.04995e-05
*RES
1 *799:X *641:A 20.9096 
*END

*D_NET *415 0.00769888
*CONN
*I *653:S I *D sky130_fd_sc_hd__mux2i_1
*I *656:B I *D sky130_fd_sc_hd__nand2_2
*I *921:X O *D sky130_fd_sc_hd__buf_6
*CAP
1 *653:S 9.4828e-05
2 *656:B 0.00146253
3 *921:X 0.000961393
4 *415:10 0.00251875
5 *653:S *428:16 1.39714e-05
6 *656:B *519:A0 3.18656e-05
7 *656:B *519:S 6.5568e-05
8 *656:B *656:A 4.76161e-06
9 *656:B *452:22 1.0959e-05
10 *415:10 *459:22 0
11 *470:B *653:S 6.08467e-05
12 *470:B *656:B 5.46384e-06
13 *470:B *415:10 9.89469e-05
14 *572:B *415:10 0
15 *657:A *656:B 3.01592e-06
16 *657:B *656:B 7.58194e-05
17 *668:D *415:10 0
18 *702:DE *656:B 3.85413e-05
19 *709:D *415:10 1.91391e-05
20 *710:D *656:B 4.08756e-05
21 *710:CLK *656:B 7.20028e-05
22 *879:A *653:S 6.27718e-05
23 *892:A *653:S 8.13533e-05
24 *961:A *656:B 2.37827e-05
25 *7:12 *653:S 0.000259894
26 *7:12 *415:10 3.34491e-05
27 *86:14 *415:10 0.000119972
28 *177:12 *656:B 0.000130268
29 *412:24 *656:B 0.000289137
30 *414:10 *415:10 0.000629973
31 *414:14 *415:10 0.0004823
32 *414:28 *656:B 4.71765e-06
33 *414:28 *415:10 1.99596e-06
*RES
1 *921:X *415:10 42.6076 
2 *415:10 *656:B 39.2522 
3 *415:10 *653:S 17.8002 
*END

*D_NET *416 0.0120606
*CONN
*I *643:S I *D sky130_fd_sc_hd__mux2i_1
*I *640:S I *D sky130_fd_sc_hd__mux2i_1
*I *646:B I *D sky130_fd_sc_hd__nor2_4
*I *976:A I *D sky130_fd_sc_hd__buf_4
*I *650:S I *D sky130_fd_sc_hd__mux2i_1
*I *922:X O *D sky130_fd_sc_hd__buf_6
*CAP
1 *643:S 0.000374901
2 *640:S 0
3 *646:B 2.03625e-05
4 *976:A 0
5 *650:S 0.000605261
6 *922:X 0.00083606
7 *416:71 0.00181753
8 *416:50 0.0016844
9 *416:24 0.00121767
10 *416:12 0.00166988
11 *643:S *852:A 0.000144525
12 *650:S *421:221 0.000114991
13 *416:12 *449:31 0.000196638
14 *416:24 *488:A1 0.000277353
15 *416:24 *647:A2 0.000119244
16 *416:24 *449:31 3.85006e-05
17 resp_msg[2] *650:S 0
18 *488:A2 *416:24 0
19 *490:A *416:12 5.19205e-05
20 *490:B *416:24 3.01628e-05
21 *527:A *416:12 0
22 *530:C *416:12 0
23 *535:C1 *416:12 1.43848e-05
24 *640:A0 *643:S 6.33402e-05
25 *640:A0 *416:71 0.00015126
26 *643:A1 *643:S 0.000148488
27 *646:A *646:B 4.31603e-06
28 *646:A *416:50 4.66889e-05
29 *649:A1 *650:S 0.000212339
30 *651:A *650:S 0.000117376
31 *667:C *416:12 0.000336848
32 *667:D *416:12 0.00046927
33 *692:DE *416:12 3.80436e-07
34 *694:D *650:S 7.65364e-05
35 *694:CLK *650:S 8.69417e-05
36 *694:CLK *416:24 1.58551e-05
37 *695:D *416:24 2.65831e-05
38 *711:CLK *416:71 9.75929e-05
39 *795:A *650:S 3.14978e-05
40 *812:A *650:S 0.000162423
41 *887:A *416:12 0
42 *932:A *416:12 5.00379e-05
43 *5:12 *416:24 2.89815e-05
44 *5:23 *416:12 3.3652e-05
45 *5:23 *416:24 0.000109427
46 *5:23 *416:50 0.000143918
47 *178:12 *416:24 4.3755e-05
48 *178:27 *416:24 3.60437e-05
49 *195:14 *416:71 0.000260806
50 *413:47 *416:12 0
51 *414:128 *416:12 1.51735e-05
52 *414:150 *416:12 7.7321e-05
*RES
1 *922:X *416:12 43.0916 
2 *416:12 *416:24 24.0696 
3 *416:24 *650:S 36.2775 
4 *416:24 *976:A 9.24915 
5 *416:12 *416:50 5.16022 
6 *416:50 *646:B 9.82786 
7 *416:50 *416:71 26.9344 
8 *416:71 *640:S 9.24915 
9 *416:71 *643:S 28.973 
*END

*D_NET *338 0.00263469
*CONN
*I *574:A2 I *D sky130_fd_sc_hd__o2111ai_1
*I *581:C I *D sky130_fd_sc_hd__or4_1
*I *844:X O *D sky130_fd_sc_hd__buf_4
*CAP
1 *574:A2 0.000202168
2 *581:C 0
3 *844:X 0.000550243
4 *338:12 0.000752411
5 *574:A2 *576:B 0.000107496
6 *338:12 *586:B 0.000165986
7 *576:C *574:A2 4.41944e-05
8 *581:D *338:12 0.000149678
9 *582:D1 *338:12 0.000156076
10 *844:A *338:12 1.00766e-05
11 *866:A *338:12 6.27332e-05
12 *77:33 *574:A2 2.70705e-05
13 *77:33 *338:12 1.37054e-05
14 *175:23 *574:A2 0.000134776
15 *175:23 *338:12 0.000182981
16 *334:12 *338:12 7.50991e-05
*RES
1 *844:X *338:12 27.8332 
2 *338:12 *581:C 13.7491 
3 *338:12 *574:A2 18.5934 
*END

*D_NET *337 0.000712426
*CONN
*I *631:A1 I *D sky130_fd_sc_hd__mux2i_1
*I *843:X O *D sky130_fd_sc_hd__buf_4
*CAP
1 *631:A1 0.000149421
2 *843:X 0.000149421
3 *631:A1 *632:B 0.000113968
4 *631:S *631:A1 6.81008e-05
5 *715:D *631:A1 2.99747e-05
6 *843:A *631:A1 4.47179e-05
7 *41:14 *631:A1 0.000156823
*RES
1 *843:X *631:A1 33.1026 
*END

*D_NET *339 0.00207151
*CONN
*I *626:A1 I *D sky130_fd_sc_hd__a21oi_2
*I *845:X O *D sky130_fd_sc_hd__buf_6
*CAP
1 *626:A1 0.000343658
2 *845:X 0.000343658
3 *626:A1 *508:A0 0.000515911
4 *626:A1 *512:S 0.000350775
5 *626:A1 *716:DE 0.000209752
6 *626:A1 *845:A 6.50586e-05
7 *626:A1 *409:86 2.03171e-05
8 *508:A1 *626:A1 6.27718e-05
9 *626:B1 *626:A1 9.87648e-05
10 *823:A *626:A1 6.08467e-05
*RES
1 *845:X *626:A1 41.8849 
*END

*D_NET *340 0.0013466
*CONN
*I *611:B I *D sky130_fd_sc_hd__xnor2_4
*I *846:X O *D sky130_fd_sc_hd__buf_6
*CAP
1 *611:B 0.000244708
2 *846:X 0.000244708
3 *611:B *459:78 0.000366589
4 *507:B1 *611:B 1.41853e-05
5 *612:B *611:B 0
6 *846:A *611:B 0.000224381
7 *873:A *611:B 0.000107496
8 *336:25 *611:B 0.000144531
*RES
1 *846:X *611:B 36.599 
*END

*D_NET *417 0.000631451
*CONN
*I *600:A1 I *D sky130_fd_sc_hd__mux2i_1
*I *923:X O *D sky130_fd_sc_hd__buf_4
*CAP
1 *600:A1 0.000221501
2 *923:X 0.000221501
3 *560:B1 *600:A1 0
4 *600:A0 *600:A1 0.000130686
5 *172:16 *600:A1 3.78034e-05
6 *172:27 *600:A1 9.2346e-06
7 *271:29 *600:A1 0
8 *406:12 *600:A1 1.07248e-05
*RES
1 *923:X *600:A1 33.5179 
*END

*D_NET *418 0.00242093
*CONN
*I *575:A1 I *D sky130_fd_sc_hd__a21o_4
*I *945:A I *D sky130_fd_sc_hd__buf_4
*I *924:X O *D sky130_fd_sc_hd__buf_6
*CAP
1 *575:A1 0.000149016
2 *945:A 0.000100493
3 *924:X 0.000321377
4 *418:10 0.000570886
5 *552:B *418:10 6.08467e-05
6 *566:A1 *418:10 0.000111722
7 *566:B1 *418:10 2.95757e-05
8 *566:C1 *575:A1 0.000159549
9 *566:C1 *418:10 1.2693e-05
10 *579:A1 *945:A 6.08467e-05
11 *79:10 *418:10 0.000224381
12 *357:8 *575:A1 0.000349335
13 *357:10 *575:A1 2.95757e-05
14 *357:10 *418:10 0.000114955
15 *404:12 *418:10 0.00012568
*RES
1 *924:X *418:10 23.2357 
2 *418:10 *945:A 16.1364 
3 *418:10 *575:A1 20.5642 
*END

*D_NET *248 0.00193013
*CONN
*I *638:A I *D sky130_fd_sc_hd__nand2_1
*I *800:X O *D sky130_fd_sc_hd__clkdlybuf4s50_1
*CAP
1 *638:A 0.000768597
2 *800:X 0.000768597
3 *638:A *637:A1 8.21761e-06
4 *638:A *834:A 0.000250563
5 *638:A *953:A 1.02267e-05
6 *638:A *281:20 0.000123927
*RES
1 *800:X *638:A 36.8967 
*END

*D_NET *344 0.00238935
*CONN
*I *943:A I *D sky130_fd_sc_hd__buf_4
*I *560:A2 I *D sky130_fd_sc_hd__o21ai_4
*I *850:X O *D sky130_fd_sc_hd__buf_6
*CAP
1 *943:A 0.00019748
2 *560:A2 0.000266536
3 *850:X 0.000438716
4 *344:12 0.000902732
5 *560:A2 *602:A1 1.52868e-05
6 *560:A2 *355:12 6.34777e-05
7 *560:A1 *560:A2 0
8 *560:A1 *344:12 0
9 *560:B1 *560:A2 0
10 *565:A *344:12 0.000112367
11 *58:18 *943:A 9.95594e-05
12 *58:18 *344:12 0.000167372
13 *165:18 *560:A2 0.000125822
*RES
1 *850:X *344:12 25.3807 
2 *344:12 *560:A2 25.8947 
3 *344:12 *943:A 13.5172 
*END

*D_NET *345 0.00312565
*CONN
*I *975:A I *D sky130_fd_sc_hd__buf_4
*I *609:A1 I *D sky130_fd_sc_hd__a32o_2
*I *851:X O *D sky130_fd_sc_hd__buf_6
*CAP
1 *975:A 0.000732007
2 *609:A1 0
3 *851:X 0.000252588
4 *345:14 0.000984596
5 *975:A *512:S 0
6 *975:A *609:A2 6.08467e-05
7 *975:A *624:A 6.10674e-05
8 *975:A *624:B 0.000154145
9 *975:A *947:A 0.000105986
10 *345:14 *609:A2 0.000260374
11 *345:14 *631:A0 6.50727e-05
12 *618:A1 *345:14 0.000101148
13 *871:A *345:14 2.36494e-05
14 *215:22 *975:A 0.000127795
15 *283:12 *975:A 0.000196376
*RES
1 *851:X *345:14 23.7463 
2 *345:14 *609:A1 9.24915 
3 *345:14 *975:A 37.3434 
*END

*D_NET *342 0.000221405
*CONN
*I *640:A1 I *D sky130_fd_sc_hd__mux2i_1
*I *848:X O *D sky130_fd_sc_hd__buf_4
*CAP
1 *640:A1 0.000110702
2 *848:X 0.000110702
3 *640:A1 *640:A0 0
4 *181:10 *640:A1 0
*RES
1 *848:X *640:A1 30.1608 
*END

*D_NET *346 0.0010625
*CONN
*I *643:A1 I *D sky130_fd_sc_hd__mux2i_1
*I *852:X O *D sky130_fd_sc_hd__buf_4
*CAP
1 *643:A1 0.000374244
2 *852:X 0.000374244
3 *643:A1 *643:S 0.000148488
4 *643:A1 *852:A 0.000165521
*RES
1 *852:X *643:A1 37.9785 
*END

*D_NET *347 0.000913058
*CONN
*I *590:B I *D sky130_fd_sc_hd__nor2_1
*I *591:A3 I *D sky130_fd_sc_hd__a31oi_1
*I *853:X O *D sky130_fd_sc_hd__buf_4
*CAP
1 *590:B 1.36935e-05
2 *591:A3 0.000134535
3 *853:X 0.000159036
4 *347:6 0.000307264
5 *590:A *590:B 4.76161e-06
6 *590:A *591:A3 5.02592e-05
7 *590:A *347:6 1.4106e-05
8 *591:B1 *590:B 1.02267e-05
9 *591:B1 *591:A3 3.00829e-05
10 *591:B1 *347:6 3.00829e-05
11 *853:A *347:6 0.00015901
*RES
1 *853:X *347:6 13.3002 
2 *347:6 *591:A3 12.7697 
3 *347:6 *590:B 9.82786 
*END

*D_NET *348 0.00108396
*CONN
*I *592:A I *D sky130_fd_sc_hd__xnor2_2
*I *854:X O *D sky130_fd_sc_hd__buf_4
*CAP
1 *592:A 0.000259548
2 *854:X 0.000259548
3 *592:A *592:B 6.58661e-05
4 *592:A *941:A 0.000234337
5 *592:A *433:26 0
6 resp_msg[14] *592:A 1.80176e-05
7 *805:A *592:A 0.000193492
8 *854:A *592:A 5.31465e-05
*RES
1 *854:X *592:A 37.1158 
*END

*D_NET *349 0.00057354
*CONN
*I *594:A I *D sky130_fd_sc_hd__xnor2_4
*I *855:X O *D sky130_fd_sc_hd__buf_4
*CAP
1 *594:A 9.64773e-05
2 *855:X 9.64773e-05
3 *594:A *565:C 6.42604e-05
4 *553:C *594:A 0.000196138
5 *874:A *594:A 4.9e-05
6 *895:A *594:A 1.03403e-05
7 *74:16 *594:A 6.08467e-05
*RES
1 *855:X *594:A 31.7147 
*END

*D_NET *350 0.00469892
*CONN
*I *533:B1 I *D sky130_fd_sc_hd__a21oi_4
*I *535:B1 I *D sky130_fd_sc_hd__a211oi_2
*I *856:X O *D sky130_fd_sc_hd__buf_4
*CAP
1 *533:B1 0
2 *535:B1 0.000653394
3 *856:X 0.000404341
4 *350:16 0.00105773
5 *535:B1 *605:A3 0
6 *535:B1 *634:A 4.31539e-05
7 *535:B1 *634:B 0.00017254
8 *350:16 *605:A1 6.46815e-05
9 *350:16 *714:CLK 0.000535424
10 *350:16 *446:14 0.000271974
11 *531:B *350:16 0.000507376
12 *533:A1 *350:16 0.000132382
13 *533:A2 *535:B1 9.14237e-05
14 *533:A2 *350:16 0.000157407
15 *535:A1 *350:16 3.01683e-06
16 *535:C1 *535:B1 7.25324e-06
17 *536:B1 *535:B1 0.000247443
18 *13:8 *350:16 1.07248e-05
19 *45:10 *535:B1 9.12416e-06
20 *45:19 *535:B1 0.000145396
21 *48:8 *535:B1 3.92275e-05
22 *50:8 *535:B1 1.59527e-05
23 *111:14 *350:16 0.000112361
24 *132:18 *535:B1 1.65872e-05
*RES
1 *856:X *350:16 36.1083 
2 *350:16 *535:B1 31.1115 
3 *350:16 *533:B1 9.24915 
*END

*D_NET *249 0.000815876
*CONN
*I *632:A I *D sky130_fd_sc_hd__nand2_1
*I *801:X O *D sky130_fd_sc_hd__clkdlybuf4s50_1
*CAP
1 *632:A 0.000167673
2 *801:X 0.000167673
3 *632:A *632:B 1.59756e-05
4 *632:A *801:A 0.000354433
5 *632:A *843:A 4.36818e-05
6 *633:B1 *632:A 6.64392e-05
*RES
1 *801:X *632:A 24.2372 
*END

*D_NET *351 0.00117358
*CONN
*I *620:A I *D sky130_fd_sc_hd__xnor2_2
*I *857:X O *D sky130_fd_sc_hd__buf_4
*CAP
1 *620:A 0.000298677
2 *857:X 0.000298677
3 *620:A *617:A 6.92705e-05
4 *620:A *396:26 4.61946e-05
5 *620:A *409:82 8.21137e-05
6 *628:A2 *620:A 0.000233845
7 *857:A *620:A 3.86872e-05
8 *185:14 *620:A 7.95458e-05
9 *201:12 *620:A 2.65667e-05
*RES
1 *857:X *620:A 37.0087 
*END

*D_NET *352 0.0241599
*CONN
*I *689:DE I *D sky130_fd_sc_hd__edfxtp_1
*I *701:DE I *D sky130_fd_sc_hd__edfxtp_1
*I *700:DE I *D sky130_fd_sc_hd__edfxtp_1
*I *687:DE I *D sky130_fd_sc_hd__edfxtp_1
*I *690:DE I *D sky130_fd_sc_hd__edfxtp_1
*I *691:DE I *D sky130_fd_sc_hd__edfxtp_1
*I *693:DE I *D sky130_fd_sc_hd__edfxtp_1
*I *686:DE I *D sky130_fd_sc_hd__edfxtp_1
*I *858:X O *D sky130_fd_sc_hd__buf_12
*CAP
1 *689:DE 0.000283552
2 *701:DE 0.00011499
3 *700:DE 0.00120761
4 *687:DE 1.45708e-05
5 *690:DE 0.00012093
6 *691:DE 4.22638e-05
7 *693:DE 0
8 *686:DE 0.000533623
9 *858:X 0
10 *352:111 0.00161906
11 *352:94 0.00147778
12 *352:82 0.00308475
13 *352:57 0.00265108
14 *352:44 0.0021913
15 *352:12 0.00139801
16 *352:6 0.00211771
17 *686:DE *659:A1 0.000107496
18 *686:DE *686:CLK 0
19 *687:DE *425:66 3.95975e-06
20 *689:DE *705:DE 0.000168467
21 *689:DE *424:80 3.34707e-05
22 *700:DE *627:B 6.42805e-05
23 *700:DE *355:103 2.84892e-05
24 *352:12 *491:B 0
25 *352:12 *693:CLK 0
26 *352:12 *412:16 0
27 *352:12 *423:10 0
28 *352:12 *452:14 0.000163784
29 *352:44 *409:10 0
30 *352:44 *412:14 0
31 *352:44 *412:16 0
32 *352:44 *423:10 0
33 *352:44 *455:10 0
34 *352:44 *455:12 0
35 *352:57 *573:A 7.13655e-06
36 *352:57 *587:A 1.69917e-05
37 *352:57 *376:19 0.000102564
38 *352:57 *390:14 8.70662e-06
39 *352:57 *421:10 2.81469e-05
40 *352:82 *498:A1 7.61416e-05
41 *352:82 *504:A1 0.000122098
42 *352:82 *705:DE 0.000212448
43 *352:82 *358:12 0.000208606
44 *352:82 *424:20 4.97328e-05
45 *352:82 *424:31 3.70569e-05
46 *352:82 *424:80 1.6989e-05
47 *352:94 *503:A 0.000426204
48 *352:94 *409:60 0.000203454
49 *352:111 *355:137 0.000128227
50 *352:111 *425:66 0.000265977
51 *492:B *352:12 0
52 *501:A1 *689:DE 2.23406e-05
53 *504:B1 *352:82 0
54 *558:A1 *352:82 0.000364356
55 *558:A2 *352:82 7.33966e-05
56 *579:A2 *352:57 0
57 *579:B1 *352:57 5.53934e-05
58 *582:A2 *352:57 1.30094e-05
59 *582:B1 *352:57 0.00033388
60 *582:C1 *352:57 0.000102129
61 *585:A1 *352:57 0.000156664
62 *589:C *352:57 0.000195139
63 *593:A *700:DE 8.62625e-06
64 *613:B *352:94 6.61747e-05
65 *615:A2 *352:94 3.60933e-06
66 *615:B1 *352:94 0
67 *628:B1 *700:DE 5.66868e-06
68 *655:A2 *352:12 0
69 *659:B1 *352:12 0
70 *686:D *686:DE 0.00121927
71 *689:D *689:DE 8.35836e-05
72 *690:D *352:57 0
73 *691:D *352:57 2.61535e-05
74 *693:D *686:DE 7.18372e-05
75 *693:D *352:12 0.000187704
76 *700:D *700:DE 9.95238e-05
77 *701:D *700:DE 7.12957e-05
78 *701:D *701:DE 6.46815e-05
79 *704:D *352:82 0.000149628
80 *709:D *352:12 7.86825e-06
81 *829:A *352:12 0
82 *864:A *352:82 0.000186479
83 *911:A *352:94 0.000498351
84 *920:A *352:44 0.000201734
85 *62:14 *352:82 0.000113436
86 *77:33 *352:44 0
87 *86:16 *352:44 0.000111708
88 *99:8 *352:57 0.000161413
89 *174:10 *352:82 5.13872e-05
90 *175:10 *352:44 4.35719e-05
91 *190:14 *352:82 2.18663e-05
92 *235:18 *352:111 3.37311e-05
93 *272:16 *352:82 0
94 *272:16 *352:94 1.65872e-05
95 *276:12 *352:12 0
*RES
1 *858:X *352:6 13.7491 
2 *352:6 *352:12 25.8375 
3 *352:12 *686:DE 36.3629 
4 *352:12 *693:DE 9.24915 
5 *352:6 *352:44 34.5621 
6 *352:44 *691:DE 10.2076 
7 *352:44 *352:57 35.3319 
8 *352:57 *690:DE 12.0161 
9 *352:57 *352:82 49.9868 
10 *352:82 *352:94 34.1175 
11 *352:94 *687:DE 9.65304 
12 *352:94 *352:111 18.5106 
13 *352:111 *700:DE 39.1767 
14 *352:111 *701:DE 12.4683 
15 *352:82 *689:DE 21.3273 
*END

*D_NET *353 0.00115499
*CONN
*I *625:A I *D sky130_fd_sc_hd__nor2_4
*I *859:X O *D sky130_fd_sc_hd__buf_4
*CAP
1 *625:A 0.000216758
2 *859:X 0.000216758
3 *625:A *617:A 0.000195479
4 *625:A *355:99 0
5 *619:B *625:A 5.40999e-06
6 *857:A *625:A 2.98342e-05
7 *859:A *625:A 1.72971e-05
8 *201:12 *625:A 0.000473457
*RES
1 *859:X *625:A 35.321 
*END

*D_NET *354 0.00475065
*CONN
*I *677:A1 I *D sky130_fd_sc_hd__o21bai_4
*I *675:A2 I *D sky130_fd_sc_hd__o21ai_1
*I *860:X O *D sky130_fd_sc_hd__buf_4
*CAP
1 *677:A1 0.000487698
2 *675:A2 0.000492988
3 *860:X 0.000980686
4 *675:A2 *570:A 2.20471e-05
5 *675:A2 *677:B1_N 8.33721e-06
6 *675:A2 *421:44 0.000258999
7 *677:A1 *584:B 2.43857e-05
8 *677:A1 *388:29 0.000242278
9 *677:A1 *433:20 0.000408004
10 *563:A_N *677:A1 3.11575e-05
11 *570:B *675:A2 0.000167398
12 *581:D *677:A1 9.22866e-05
13 *601:A *677:A1 7.29209e-06
14 *675:A1 *675:A2 0.000205766
15 *927:A *675:A2 0.000152857
16 *77:33 *677:A1 0.000386456
17 *83:12 *675:A2 1.83628e-05
18 *84:20 *677:A1 0.000475722
19 *158:10 *675:A2 0.000228151
20 *334:12 *677:A1 5.97738e-05
*RES
1 *860:X *675:A2 40.283 
2 *860:X *677:A1 49.5748 
*END

*D_NET *355 0.0200672
*CONN
*I *597:B I *D sky130_fd_sc_hd__nand2_1
*I *628:A1 I *D sky130_fd_sc_hd__o21ai_1
*I *627:B I *D sky130_fd_sc_hd__nand2_1
*I *598:A2 I *D sky130_fd_sc_hd__o21ai_1
*I *614:B I *D sky130_fd_sc_hd__nand2_1
*I *615:A1 I *D sky130_fd_sc_hd__o21ai_1
*I *623:A1 I *D sky130_fd_sc_hd__o21ai_1
*I *622:B I *D sky130_fd_sc_hd__nand2_1
*I *633:A1 I *D sky130_fd_sc_hd__o21ai_1
*I *632:B I *D sky130_fd_sc_hd__nand2_1
*I *638:B I *D sky130_fd_sc_hd__nand2_1
*I *639:A1 I *D sky130_fd_sc_hd__o21ai_1
*I *602:A1 I *D sky130_fd_sc_hd__o21ai_1
*I *601:B I *D sky130_fd_sc_hd__nand2_1
*I *861:X O *D sky130_fd_sc_hd__buf_12
*CAP
1 *597:B 0.000133732
2 *628:A1 0
3 *627:B 0.000276949
4 *598:A2 0.00102144
5 *614:B 0
6 *615:A1 0.000680875
7 *623:A1 0
8 *622:B 0.000356432
9 *633:A1 2.63872e-05
10 *632:B 0.000163443
11 *638:B 4.71199e-05
12 *639:A1 3.4884e-05
13 *602:A1 0.000316826
14 *601:B 0
15 *861:X 0.00123572
16 *355:156 0.000988117
17 *355:137 0.0013028
18 *355:113 0.000375525
19 *355:111 0.000959736
20 *355:103 0.000734388
21 *355:99 0.00120758
22 *355:82 0.00149534
23 *355:63 0.000642686
24 *355:52 0.000672366
25 *355:39 0.00103219
26 *355:12 0.00100093
27 *602:A1 *599:A 0
28 *615:A1 *613:A 0
29 *615:A1 *414:227 0
30 *622:B *700:CLK 6.3657e-05
31 *638:B *699:DE 0
32 *355:12 *861:A 7.92757e-06
33 *355:12 *401:68 1.83795e-06
34 *355:39 *886:A 2.20471e-05
35 *355:39 *401:68 8.21761e-06
36 *355:52 *637:A1 5.95565e-05
37 *355:63 *699:CLK 8.76828e-05
38 *355:82 *629:A 3.95165e-05
39 *355:82 *629:B 5.25928e-05
40 *355:82 *699:CLK 0.000218352
41 *355:99 *699:CLK 8.3256e-05
42 *355:99 *425:110 5.70252e-05
43 *355:111 *409:82 0.00011824
44 *355:113 *409:82 1.02267e-05
45 *355:137 *409:82 0.000106154
46 *526:A *633:A1 0.000110458
47 *526:C *355:99 0
48 *560:A2 *602:A1 1.52868e-05
49 *560:A2 *355:12 6.34777e-05
50 *560:B1 *602:A1 0.000101468
51 *560:B1 *355:12 3.25846e-05
52 *577:A *597:B 0.000146645
53 *583:A *597:B 0.00011818
54 *583:A *598:A2 1.43894e-05
55 *593:A *627:B 7.38059e-05
56 *595:S *615:A1 1.16515e-05
57 *595:S *355:156 1.67781e-05
58 *598:B1 *597:B 0
59 *601:A *602:A1 7.86825e-06
60 *601:A *355:12 3.5534e-06
61 *609:A3 *355:82 6.60196e-05
62 *613:B *598:A2 0
63 *614:A *598:A2 6.77457e-05
64 *614:A *355:156 5.03545e-06
65 *615:A2 *598:A2 0
66 *619:B *355:99 5.82321e-05
67 *619:C *355:99 0
68 *620:B *355:99 0
69 *622:A *622:B 1.39717e-06
70 *623:B1 *355:111 4.87301e-05
71 *625:A *355:99 0
72 *627:A *627:B 6.50586e-05
73 *628:A2 *627:B 1.59362e-06
74 *628:B1 *627:B 0
75 *631:A1 *632:B 0.000113968
76 *631:S *355:63 0.000164902
77 *631:S *355:82 0.0001425
78 *632:A *632:B 1.59756e-05
79 *637:S *638:B 7.64318e-05
80 *637:S *355:63 0.000181769
81 *639:A2 *355:52 0.000208621
82 *639:B1 *355:52 1.83827e-06
83 *689:D *597:B 2.63704e-05
84 *689:D *598:A2 6.92705e-05
85 *700:DE *627:B 6.42805e-05
86 *700:DE *355:103 2.84892e-05
87 *701:D *622:B 4.72779e-05
88 *701:D *355:111 6.64392e-05
89 *837:A *627:B 0
90 *843:A *632:B 8.25705e-05
91 *880:A *355:111 6.27718e-05
92 *888:A *355:12 0.000659833
93 *41:14 *355:82 0
94 *109:10 *355:39 0.00016195
95 *165:18 *602:A1 4.58254e-06
96 *183:33 *633:A1 4.47179e-05
97 *184:10 *355:99 0.000175629
98 *184:16 *355:99 5.28264e-05
99 *185:14 *355:103 1.43439e-05
100 *185:14 *355:111 9.76996e-05
101 *198:34 *639:A1 3.83526e-06
102 *198:34 *355:39 0.000651171
103 *198:34 *355:52 7.28567e-06
104 *235:18 *622:B 0
105 *271:10 *602:A1 0
106 *281:20 *638:B 6.42582e-06
107 *281:20 *355:63 3.35199e-05
108 *352:111 *355:137 0.000128227
*RES
1 *861:X *355:12 26.4427 
2 *355:12 *601:B 13.7491 
3 *355:12 *602:A1 21.8422 
4 *861:X *355:39 23.8617 
5 *355:39 *639:A1 10.2378 
6 *355:39 *355:52 11.9028 
7 *355:52 *638:B 15.1659 
8 *355:52 *355:63 6.39977 
9 *355:63 *632:B 18.7767 
10 *355:63 *355:82 9.72179 
11 *355:82 *633:A1 15.0271 
12 *355:82 *355:99 32.8335 
13 *355:99 *355:103 5.778 
14 *355:103 *355:111 15.8285 
15 *355:111 *355:113 0.578717 
16 *355:113 *622:B 25.7876 
17 *355:113 *623:A1 9.24915 
18 *355:111 *355:137 13.012 
19 *355:137 *615:A1 22.7799 
20 *355:137 *355:156 2.24725 
21 *355:156 *614:B 13.7491 
22 *355:156 *598:A2 28.2271 
23 *355:103 *627:B 21.2876 
24 *355:99 *628:A1 9.24915 
25 *598:A2 *597:B 32.0175 
*END

*D_NET *421 0.0290133
*CONN
*I *648:B I *D sky130_fd_sc_hd__nand2_1
*I *651:B I *D sky130_fd_sc_hd__nand2_1
*I *652:A1 I *D sky130_fd_sc_hd__o21ai_1
*I *681:A2 I *D sky130_fd_sc_hd__o21ai_1
*I *861:A I *D sky130_fd_sc_hd__buf_12
*I *654:B I *D sky130_fd_sc_hd__nand2_1
*I *655:A1 I *D sky130_fd_sc_hd__o21ai_1
*I *642:A1 I *D sky130_fd_sc_hd__o21ai_1
*I *645:A1 I *D sky130_fd_sc_hd__o21ai_1
*I *641:B I *D sky130_fd_sc_hd__nand2_1
*I *644:B I *D sky130_fd_sc_hd__nand2_1
*I *649:A2 I *D sky130_fd_sc_hd__o21ai_1
*I *680:B I *D sky130_fd_sc_hd__nand2_1
*I *658:B I *D sky130_fd_sc_hd__nand2_1
*I *659:A1 I *D sky130_fd_sc_hd__o21ai_1
*I *584:B I *D sky130_fd_sc_hd__nor3_1
*I *585:A2 I *D sky130_fd_sc_hd__a211o_1
*I *927:X O *D sky130_fd_sc_hd__buf_4
*CAP
1 *648:B 2.96612e-05
2 *651:B 0
3 *652:A1 9.01454e-05
4 *681:A2 0
5 *861:A 0.00106217
6 *654:B 1.03162e-05
7 *655:A1 0.000111132
8 *642:A1 0.000464063
9 *645:A1 0
10 *641:B 0
11 *644:B 0.000188943
12 *649:A2 0
13 *680:B 1.90605e-05
14 *658:B 2.06324e-05
15 *659:A1 0.000225277
16 *584:B 0.00035066
17 *585:A2 4.75924e-05
18 *927:X 0
19 *421:221 0.000289755
20 *421:211 0.000229271
21 *421:168 0.000388871
22 *421:130 0.000504067
23 *421:110 0.000298201
24 *421:106 0.00101897
25 *421:97 0.00125968
26 *421:86 0.000467733
27 *421:60 0.000992118
28 *421:54 0.000928232
29 *421:52 0.00110988
30 *421:48 0.00183668
31 *421:44 0.00166556
32 *421:10 0.000787238
33 *421:4 0.00199917
34 *584:B *433:20 0.0005753
35 *585:A2 *433:20 0.000110458
36 *655:A1 *423:45 2.1801e-05
37 *861:A *459:32 0.000256629
38 *421:10 *677:B1_N 0.000272059
39 *421:44 *570:A 3.9426e-05
40 *421:44 *459:22 0.000894781
41 *421:48 *459:22 1.02363e-05
42 *421:52 *428:16 0.000120472
43 *421:54 *650:A0 5.3697e-05
44 *421:54 *428:16 9.11135e-05
45 *421:60 *650:A0 5.044e-05
46 *421:60 *937:A 5.99691e-05
47 *421:60 *428:16 5.22654e-06
48 *421:106 *515:S 0.000366424
49 *421:168 *517:A0 0.00016069
50 *421:168 *962:A 6.50586e-05
51 *421:168 *423:45 0.000327279
52 resp_msg[0] *659:A1 1.00937e-05
53 resp_msg[1] *421:60 2.9373e-05
54 *478:A *642:A1 2.16355e-05
55 *479:A *642:A1 1.65872e-05
56 *515:A0 *421:106 8.04746e-05
57 *516:A1 *421:106 0.000171273
58 *517:A1 *421:60 5.00217e-05
59 *568:A *584:B 0.000351714
60 *570:B *421:44 4.65954e-06
61 *571:A *421:48 6.40849e-05
62 *571:A *421:52 1.48863e-05
63 *573:A *584:B 1.78584e-05
64 *573:B *585:A2 2.84758e-05
65 *582:A2 *584:B 1.85244e-05
66 *584:C *584:B 1.19453e-05
67 *585:A1 *584:B 1.15781e-05
68 *585:A1 *421:10 1.12493e-05
69 *585:B1 *585:A2 7.62898e-06
70 *585:C1 *584:B 1.54694e-05
71 *585:C1 *421:10 1.12493e-05
72 *601:A *584:B 3.01309e-05
73 *642:A2 *642:A1 8.871e-05
74 *642:B1 *642:A1 0.000205195
75 *642:B1 *644:B 3.67708e-05
76 *642:B1 *421:110 0.000169093
77 *644:A *644:B 6.50727e-05
78 *645:A2 *642:A1 2.41274e-06
79 *645:B1 *644:B 0
80 *646:A *421:106 0.000118166
81 *649:A1 *421:221 1.07248e-05
82 *649:B1 *648:B 6.50727e-05
83 *649:B1 *421:106 0.00011818
84 *650:A1 *421:97 0.000324151
85 *650:S *421:221 0.000114991
86 *652:A2 *652:A1 1.43983e-05
87 *652:B1 *652:A1 6.64392e-05
88 *652:B1 *421:221 2.29454e-05
89 *654:A *421:168 0.000216458
90 *655:A2 *655:A1 6.50586e-05
91 *655:B1 *655:A1 9.9028e-05
92 *655:B1 *421:168 2.41483e-05
93 *659:A2 *659:A1 1.03403e-05
94 *659:B1 *659:A1 0.000262611
95 *659:B1 *421:60 2.41483e-05
96 *667:A *861:A 0.000109569
97 *667:C *861:A 5.42029e-05
98 *668:D *421:52 0.000877596
99 *671:C *861:A 1.5962e-05
100 *674:B *421:10 0
101 *675:A2 *421:44 0.000258999
102 *677:A1 *584:B 2.43857e-05
103 *680:A *680:B 4.80635e-06
104 *680:A *421:97 5.46928e-05
105 *686:DE *659:A1 0.000107496
106 *688:DE *861:A 4.68256e-05
107 *691:D *421:10 0
108 *691:CLK *421:10 0
109 *692:DE *861:A 0.000392025
110 *694:CLK *421:221 0.000144546
111 *695:D *421:106 0.000111722
112 *696:DE *642:A1 0.000386759
113 *710:D *421:52 3.4975e-05
114 *710:D *421:54 1.77537e-06
115 *811:A *421:106 7.48633e-05
116 *812:A *421:221 0.000111722
117 *869:A *421:106 2.65667e-05
118 *888:A *861:A 0.000396889
119 *909:A *421:44 2.08274e-05
120 *927:A *421:10 6.27782e-05
121 *927:A *421:44 7.06993e-05
122 *155:12 *421:52 0.000384761
123 *157:12 *861:A 7.40367e-05
124 *158:10 *861:A 0.000851321
125 *164:12 *421:54 0
126 *164:12 *421:97 2.65831e-05
127 *170:10 *659:A1 0.000143017
128 *176:18 *421:44 4.19058e-05
129 *180:18 *642:A1 5.31074e-05
130 *180:18 *421:106 0.000125635
131 *180:18 *421:130 0.000111722
132 *181:10 *642:A1 6.93171e-05
133 *192:10 *421:52 9.03762e-06
134 *267:10 *421:10 0
135 *275:14 *421:60 6.92705e-05
136 *277:8 *648:B 0.000158371
137 *277:8 *421:97 0.000217947
138 *277:8 *421:106 3.61993e-05
139 *352:57 *421:10 2.81469e-05
140 *355:12 *861:A 7.92757e-06
141 *395:14 *655:A1 0.00021569
142 *414:73 *421:52 1.94614e-05
*RES
1 *927:X *421:4 9.24915 
2 *421:4 *421:10 15.7757 
3 *421:10 *585:A2 15.6059 
4 *421:10 *584:B 23.7962 
5 *421:4 *421:44 26.2834 
6 *421:44 *421:48 5.91674 
7 *421:48 *421:52 25.135 
8 *421:52 *421:54 3.90826 
9 *421:54 *421:60 22.1662 
10 *421:60 *659:A1 25.6861 
11 *421:60 *658:B 9.82786 
12 *421:54 *421:86 5.778 
13 *421:86 *680:B 9.82786 
14 *421:86 *421:97 12.3942 
15 *421:97 *649:A2 9.24915 
16 *421:97 *421:106 24.4508 
17 *421:106 *421:110 7.57775 
18 *421:110 *644:B 18.3808 
19 *421:110 *641:B 13.7491 
20 *421:106 *421:130 1.278 
21 *421:130 *645:A1 9.24915 
22 *421:130 *642:A1 32.957 
23 *421:52 *421:168 14.7481 
24 *421:168 *655:A1 13.8789 
25 *421:168 *654:B 9.82786 
26 *421:48 *861:A 48.6105 
27 *421:44 *681:A2 9.24915 
28 *649:A2 *421:211 9.24915 
29 *421:211 *421:221 15.183 
30 *421:221 *652:A1 11.6364 
31 *421:221 *651:B 9.24915 
32 *421:211 *648:B 11.0817 
*END

*D_NET *357 0.00519164
*CONN
*I *579:A1 I *D sky130_fd_sc_hd__o2111ai_2
*I *552:B I *D sky130_fd_sc_hd__nor2_1
*I *566:B1 I *D sky130_fd_sc_hd__a211oi_2
*I *863:X O *D sky130_fd_sc_hd__buf_4
*CAP
1 *579:A1 0.000396493
2 *552:B 0.000391758
3 *566:B1 0.000163927
4 *863:X 0.000462146
5 *357:10 0.000644288
6 *357:8 0.00094724
7 *552:B *552:A 0.000309775
8 *552:B *574:A1 6.08467e-05
9 *552:B *576:B 2.61147e-05
10 *552:B *418:10 6.08467e-05
11 *566:B1 *404:12 9.60334e-05
12 *566:B1 *409:10 0
13 *566:B1 *418:10 2.95757e-05
14 *579:A1 *579:C1 0
15 *579:A1 *945:A 6.08467e-05
16 *357:8 *498:A1 0
17 *357:8 *575:A1 0.000349335
18 *357:8 *409:10 0
19 *357:10 *575:A1 2.95757e-05
20 *357:10 *409:10 0
21 *357:10 *418:10 0.000114955
22 *494:A *579:A1 0.000232859
23 *553:D *566:B1 6.50727e-05
24 *558:B1_N *357:8 0.000143032
25 *567:A *566:B1 7.01935e-06
26 *576:A *552:B 1.43983e-05
27 *579:B1 *552:B 0.000515631
28 *582:B1 *552:B 2.74378e-05
29 *591:A2 *552:B 0
30 *24:12 *579:A1 4.24378e-05
*RES
1 *863:X *357:8 26.3777 
2 *357:8 *357:10 2.6625 
3 *357:10 *566:B1 18.7961 
4 *357:10 *552:B 24.6724 
5 *357:8 *579:A1 23.3703 
*END

*D_NET *358 0.00375817
*CONN
*I *574:A1 I *D sky130_fd_sc_hd__o2111ai_1
*I *552:A I *D sky130_fd_sc_hd__nor2_1
*I *581:A I *D sky130_fd_sc_hd__or4_1
*I *567:B I *D sky130_fd_sc_hd__nor2_2
*I *864:X O *D sky130_fd_sc_hd__buf_4
*CAP
1 *574:A1 1.69747e-05
2 *552:A 7.0381e-05
3 *581:A 9.54462e-05
4 *567:B 3.2937e-05
5 *864:X 0.000544087
6 *358:36 8.73557e-05
7 *358:16 0.000225487
8 *358:12 0.000641191
9 *552:A *574:D1 6.65203e-05
10 *552:A *576:B 2.16355e-05
11 *574:A1 *576:B 1.65872e-05
12 *358:12 *566:C1 0
13 *358:16 *388:56 0.000165066
14 *552:B *552:A 0.000309775
15 *552:B *574:A1 6.08467e-05
16 *553:D *567:B 1.15389e-05
17 *553:D *581:A 0.000207266
18 *567:A *567:B 4.24629e-05
19 *567:A *581:A 2.66571e-05
20 *576:C *358:12 8.62625e-06
21 *576:C *358:16 0.000132307
22 *581:D *581:A 2.16355e-05
23 *582:B1 *552:A 2.99287e-05
24 *853:A *358:12 0.000227288
25 *853:A *358:16 1.44467e-05
26 *864:A *358:12 1.00766e-05
27 *24:12 *358:12 3.2648e-05
28 *77:33 *358:16 7.24909e-05
29 *81:8 *567:B 6.08467e-05
30 *84:39 *358:16 1.12605e-05
31 *175:36 *358:12 0
32 *190:14 *358:12 0.000285793
33 *352:82 *358:12 0.000208606
*RES
1 *864:X *358:12 29.8982 
2 *358:12 *358:16 8.40826 
3 *358:16 *567:B 10.5271 
4 *358:16 *581:A 12.7938 
5 *358:12 *358:36 4.5 
6 *358:36 *552:A 12.7456 
7 *358:36 *574:A1 9.97254 
*END

*D_NET *356 0.00268487
*CONN
*I *566:A2 I *D sky130_fd_sc_hd__a211oi_2
*I *575:A2 I *D sky130_fd_sc_hd__a21o_4
*I *862:X O *D sky130_fd_sc_hd__buf_4
*CAP
1 *566:A2 0.00059097
2 *575:A2 0.000442677
3 *862:X 0
4 *356:4 0.00103365
5 *566:A2 *502:A 5.85957e-05
6 *575:A2 *359:12 0.000258822
7 *553:B *566:A2 4.89392e-05
8 *553:C *566:A2 0
9 *553:D *566:A2 0.000171273
10 *862:A *575:A2 3.00829e-05
11 *865:A *575:A2 4.98642e-05
12 *191:18 *566:A2 0
*RES
1 *862:X *356:4 9.24915 
2 *356:4 *575:A2 17.0859 
3 *356:4 *566:A2 32.7103 
*END

*D_NET *359 0.00256886
*CONN
*I *566:C1 I *D sky130_fd_sc_hd__a211oi_2
*I *575:B1 I *D sky130_fd_sc_hd__a21o_4
*I *865:X O *D sky130_fd_sc_hd__buf_4
*CAP
1 *566:C1 0.000370674
2 *575:B1 6.4042e-05
3 *865:X 0.000180065
4 *359:12 0.000614782
5 *566:C1 *498:A1 0.000139817
6 *566:C1 *575:A1 0.000159549
7 *566:C1 *404:12 0.000341237
8 *566:C1 *418:10 1.2693e-05
9 *553:D *566:C1 0.000111722
10 *567:A *566:C1 5.31465e-05
11 *575:A2 *359:12 0.000258822
12 *865:A *359:12 0.000104815
13 *24:12 *566:C1 0
14 *175:23 *566:C1 7.2401e-05
15 *175:36 *566:C1 8.50941e-05
16 *358:12 *566:C1 0
*RES
1 *865:X *359:12 15.5909 
2 *359:12 *575:B1 10.5271 
3 *359:12 *566:C1 32.5709 
*END

*D_NET *250 0.00127404
*CONN
*I *627:A I *D sky130_fd_sc_hd__nand2_1
*I *802:X O *D sky130_fd_sc_hd__clkdlybuf4s50_1
*CAP
1 *627:A 0.00037233
2 *802:X 0.00037233
3 *627:A resp_msg[9] 0.000152239
4 *627:A *622:A 1.41307e-05
5 *627:A *627:B 6.50586e-05
6 *627:A *803:A 6.92705e-05
7 *627:A *837:A 0.000224381
8 *628:B1 *627:A 4.30017e-06
*RES
1 *802:X *627:A 30.3379 
*END

*D_NET *360 0.00330466
*CONN
*I *586:B I *D sky130_fd_sc_hd__xnor2_1
*I *866:X O *D sky130_fd_sc_hd__buf_4
*CAP
1 *586:B 0.000947918
2 *866:X 0.000947918
3 *582:A1 *586:B 0.000113309
4 *582:B1 *586:B 0.00014244
5 *582:D1 *586:B 7.5301e-06
6 *584:C *586:B 5.20308e-05
7 *854:A *586:B 0.000410772
8 *866:A *586:B 0.000111352
9 *920:A *586:B 0.000342667
10 *334:12 *586:B 6.27332e-05
11 *338:12 *586:B 0.000165986
*RES
1 *866:X *586:B 46.3166 
*END

*D_NET *361 0.000304103
*CONN
*I *599:A I *D sky130_fd_sc_hd__xnor2_4
*I *867:X O *D sky130_fd_sc_hd__buf_4
*CAP
1 *599:A 0.000102662
2 *867:X 0.000102662
3 *553:A *599:A 3.90891e-05
4 *565:A *599:A 0
5 *602:A1 *599:A 0
6 *165:18 *599:A 8.24657e-07
7 *271:10 *599:A 5.88662e-05
*RES
1 *867:X *599:A 30.9913 
*END

*D_NET *362 0.00295894
*CONN
*I *609:A2 I *D sky130_fd_sc_hd__a32o_2
*I *618:A3 I *D sky130_fd_sc_hd__a31oi_4
*I *868:X O *D sky130_fd_sc_hd__buf_4
*CAP
1 *609:A2 0.000239988
2 *618:A3 0.000218358
3 *868:X 2.33909e-05
4 *362:6 0.000481736
5 *609:A2 *375:6 8.16991e-05
6 *609:A2 *378:27 1.00846e-05
7 *618:A3 *375:19 0.000171096
8 *618:A3 *375:32 0.000380051
9 *362:6 *669:C 5.04829e-06
10 *362:6 *375:6 2.65831e-05
11 *609:B1 *609:A2 0.000386481
12 *881:A *609:A2 6.50727e-05
13 *881:A *618:A3 0.000471008
14 *975:A *609:A2 6.08467e-05
15 *37:12 *618:A3 1.96636e-05
16 *115:16 *609:A2 3.58208e-05
17 *115:16 *362:6 2.16355e-05
18 *345:14 *609:A2 0.000260374
*RES
1 *868:X *362:6 9.97254 
2 *362:6 *618:A3 28.3862 
3 *362:6 *609:A2 18.8944 
*END

*D_NET *363 0.0016703
*CONN
*I *646:A I *D sky130_fd_sc_hd__nor2_4
*I *869:X O *D sky130_fd_sc_hd__buf_4
*CAP
1 *646:A 0.000534737
2 *869:X 0.000534737
3 *646:A *515:S 0
4 *646:A *646:B 4.31603e-06
5 *646:A *416:50 4.66889e-05
6 *646:A *421:106 0.000118166
7 *516:A1 *646:A 0
8 *831:A *646:A 9.86603e-05
9 *907:A *646:A 0.000332995
10 *179:10 *646:A 0
*RES
1 *869:X *646:A 43.425 
*END

*D_NET *364 0.000635551
*CONN
*I *616:B I *D sky130_fd_sc_hd__xor2_2
*I *870:X O *D sky130_fd_sc_hd__buf_4
*CAP
1 *616:B 0.000171175
2 *870:X 0.000171175
3 *616:B *375:32 2.47739e-05
4 *616:B *396:26 7.16754e-05
5 *618:B1 *616:B 0.000168313
6 *115:16 *616:B 2.844e-05
*RES
1 *870:X *616:B 23.5748 
*END

*D_NET *365 0.00221469
*CONN
*I *630:A I *D sky130_fd_sc_hd__xnor2_2
*I *871:X O *D sky130_fd_sc_hd__buf_4
*CAP
1 *630:A 0.000939613
2 *871:X 0.000939613
3 *630:A *414:128 0
4 *630:A *459:66 8.2644e-05
5 *631:S *630:A 3.26247e-05
6 *637:S *630:A 8.85859e-05
7 *41:14 *630:A 0.000113309
8 *129:20 *630:A 1.8298e-05
9 *282:12 *630:A 0
*RES
1 *871:X *630:A 42.0803 
*END

*D_NET *366 0.000816057
*CONN
*I *624:B I *D sky130_fd_sc_hd__xnor2_2
*I *872:X O *D sky130_fd_sc_hd__buf_4
*CAP
1 *624:B 0.000177139
2 *872:X 0.000177139
3 *624:B *624:A 0.000156946
4 *624:B *629:A 3.27606e-06
5 *624:B *699:CLK 0
6 *633:A2 *624:B 0
7 *633:B1 *624:B 0.000147412
8 *975:A *624:B 0.000154145
*RES
1 *872:X *624:B 32.8239 
*END

*D_NET *367 0.00171169
*CONN
*I *507:A1 I *D sky130_fd_sc_hd__o21ai_1
*I *611:A I *D sky130_fd_sc_hd__xnor2_4
*I *873:X O *D sky130_fd_sc_hd__buf_4
*CAP
1 *507:A1 1.96375e-05
2 *611:A 0.000166296
3 *873:X 0.000101462
4 *367:6 0.000287396
5 *507:A1 *459:78 4.80635e-06
6 *611:A *391:10 4.47578e-05
7 *611:A *456:21 8.97566e-06
8 *611:A *459:78 6.32945e-05
9 *367:6 *456:21 9.75148e-06
10 *367:6 *456:34 2.74378e-05
11 *367:6 *459:78 0.000657269
12 *507:B1 *367:6 0.000149318
13 *873:A *367:6 0.000171288
*RES
1 *873:X *367:6 16.6278 
2 *367:6 *611:A 22.3584 
3 *367:6 *507:A1 9.82786 
*END

*D_NET *368 0.00029776
*CONN
*I *504:A1 I *D sky130_fd_sc_hd__o21ai_1
*I *874:X O *D sky130_fd_sc_hd__buf_4
*CAP
1 *504:A1 8.7831e-05
2 *874:X 8.7831e-05
3 *504:A1 *424:20 0
4 *272:16 *504:A1 0
5 *352:82 *504:A1 0.000122098
*RES
1 *874:X *504:A1 30.1608 
*END

*D_NET *422 0.00392195
*CONN
*I *498:A1 I *D sky130_fd_sc_hd__o21ai_1
*I *574:C1 I *D sky130_fd_sc_hd__o2111ai_1
*I *928:X O *D sky130_fd_sc_hd__buf_4
*CAP
1 *498:A1 0.000858649
2 *574:C1 0.000362357
3 *928:X 0
4 *422:4 0.00122101
5 *498:A1 *498:A2 9.81288e-06
6 *497:B *498:A1 1.59362e-06
7 *498:B1 *498:A1 6.27718e-05
8 *550:B_N *498:A1 9.63545e-05
9 *558:B1_N *498:A1 7.56859e-06
10 *559:A *574:C1 3.03926e-05
11 *566:C1 *498:A1 0.000139817
12 *579:A2 *574:C1 0
13 *579:B1 *574:C1 0
14 *707:D *498:A1 5.31465e-05
15 *707:DE *498:A1 0
16 *853:A *574:C1 0.000419741
17 *895:A *574:C1 0.000196447
18 *896:A *574:C1 0.000207032
19 *65:10 *498:A1 0.000119674
20 *84:39 *574:C1 1.07248e-05
21 *174:10 *498:A1 4.87198e-05
22 *191:14 *498:A1 0
23 *352:82 *498:A1 7.61416e-05
24 *357:8 *498:A1 0
*RES
1 *928:X *422:4 9.24915 
2 *422:4 *574:C1 30.5003 
3 *422:4 *498:A1 40.3242 
*END

*D_NET *251 0.000319594
*CONN
*I *622:A I *D sky130_fd_sc_hd__nand2_1
*I *803:X O *D sky130_fd_sc_hd__clkdlybuf4s50_1
*CAP
1 *622:A 0.000152033
2 *803:X 0.000152033
3 *622:A *622:B 1.39717e-06
4 *627:A *622:A 1.41307e-05
*RES
1 *803:X *622:A 30.4689 
*END

*D_NET *369 0.00455267
*CONN
*I *528:C1 I *D sky130_fd_sc_hd__o221ai_2
*I *482:A I *D sky130_fd_sc_hd__nand2_1
*I *480:B1_N I *D sky130_fd_sc_hd__a21boi_2
*I *529:B I *D sky130_fd_sc_hd__nand2_1
*I *875:X O *D sky130_fd_sc_hd__buf_4
*CAP
1 *528:C1 0.000384241
2 *482:A 2.87989e-05
3 *480:B1_N 0.000384241
4 *529:B 9.02174e-05
5 *875:X 0.000200514
6 *369:16 0.000342581
7 *369:12 0.000481676
8 *528:C1 *528:A1 2.90773e-05
9 *528:C1 *370:14 3.01683e-06
10 *528:C1 *384:14 1.5613e-05
11 *369:12 *377:10 1.53954e-05
12 *369:12 *377:39 0.000273044
13 *369:12 *401:52 6.6664e-05
14 *369:16 *480:A1 6.50727e-05
15 *369:16 *482:B 5.17071e-05
16 *369:16 *370:14 6.22539e-05
17 *481:B *482:A 2.16355e-05
18 *481:B *369:16 9.82896e-06
19 *528:B2 *528:C1 3.81056e-05
20 *529:A *528:C1 0.000381577
21 *529:A *529:B 5.19791e-05
22 *530:C *528:C1 6.92705e-05
23 *530:D *528:C1 0.000897484
24 *875:A *369:12 6.27782e-05
25 *890:A *528:C1 2.16355e-05
26 *935:A *528:C1 0.000277502
27 *166:41 *528:C1 5.8256e-05
28 *196:25 *369:12 0.000168507
*RES
1 *875:X *369:12 25.3723 
2 *369:12 *369:16 6.29355 
3 *369:16 *529:B 11.6605 
4 *369:16 *480:B1_N 9.24915 
5 *369:12 *482:A 9.97254 
6 *480:B1_N *528:C1 35.2087 
*END

*D_NET *370 0.00472166
*CONN
*I *530:B I *D sky130_fd_sc_hd__nand4b_1
*I *482:B I *D sky130_fd_sc_hd__nand2_1
*I *480:A2 I *D sky130_fd_sc_hd__a21boi_2
*I *876:X O *D sky130_fd_sc_hd__buf_4
*CAP
1 *530:B 0.00127787
2 *482:B 2.77198e-05
3 *480:A2 0
4 *876:X 0
5 *370:14 0.000161306
6 *370:6 0.00141146
7 *530:B *667:B 0.000492493
8 *530:B *410:68 4.19841e-05
9 *370:14 *480:A1 6.50727e-05
10 *370:14 *410:68 0.000196138
11 *477:A2 *530:B 2.08274e-05
12 *477:B1 *530:B 9.46208e-05
13 *481:B *482:B 0.000115934
14 *481:B *370:14 0.000211478
15 *528:C1 *370:14 3.01683e-06
16 *529:A *370:14 0
17 *530:C *530:B 1.03594e-05
18 *531:B *530:B 0.000106293
19 *671:C *530:B 7.84712e-05
20 *14:8 *530:B 3.20264e-05
21 *14:8 *370:14 0.00018596
22 *197:40 *530:B 7.46662e-05
23 *369:16 *482:B 5.17071e-05
24 *369:16 *370:14 6.22539e-05
*RES
1 *876:X *370:6 13.7491 
2 *370:6 *370:14 10.9589 
3 *370:14 *480:A2 9.24915 
4 *370:14 *482:B 11.1059 
5 *370:6 *530:B 45.0204 
*END

*D_NET *371 0.0015211
*CONN
*I *489:C I *D sky130_fd_sc_hd__or3_1
*I *488:A2 I *D sky130_fd_sc_hd__o21ai_0
*I *877:X O *D sky130_fd_sc_hd__buf_4
*CAP
1 *489:C 5.82027e-05
2 *488:A2 0.000430047
3 *877:X 0.00048825
4 *488:A2 *668:B 0.000109787
5 *488:A2 *416:24 0
6 *488:A2 *453:18 8.95297e-05
7 *488:B1 *488:A2 9.40976e-05
8 *489:B *489:C 4.56004e-05
9 *970:A *488:A2 6.13051e-05
10 *8:10 *488:A2 8.05809e-05
11 *193:6 *488:A2 6.36948e-05
*RES
1 *877:X *488:A2 48.3981 
2 *877:X *489:C 20.3309 
*END

*D_NET *372 0.00290226
*CONN
*I *487:A2 I *D sky130_fd_sc_hd__a21oi_1
*I *492:A I *D sky130_fd_sc_hd__xnor2_1
*I *878:X O *D sky130_fd_sc_hd__buf_4
*CAP
1 *487:A2 0.000611534
2 *492:A 0.000418275
3 *878:X 0.00102981
4 *487:A2 *668:B 5.04879e-05
5 *470:A_N *487:A2 2.38345e-05
6 *470:B *487:A2 0.000421989
7 *473:A *487:A2 0.000115934
8 *474:A2 *487:A2 1.07248e-05
9 *936:A *487:A2 8.92568e-06
10 *6:10 *487:A2 0.000210743
*RES
1 *878:X *492:A 27.7336 
2 *878:X *487:A2 41.6628 
*END

*D_NET *374 0.00448028
*CONN
*I *523:A_N I *D sky130_fd_sc_hd__nand2b_1
*I *540:A I *D sky130_fd_sc_hd__nor2_1
*I *539:A I *D sky130_fd_sc_hd__nand2_1
*I *669:B I *D sky130_fd_sc_hd__nor4_2
*I *621:A0 I *D sky130_fd_sc_hd__mux2i_1
*I *880:X O *D sky130_fd_sc_hd__buf_4
*CAP
1 *523:A_N 0
2 *540:A 0.000196788
3 *539:A 0
4 *669:B 0.00017571
5 *621:A0 3.34922e-05
6 *880:X 9.3354e-05
7 *374:41 0.000249162
8 *374:35 0.000900188
9 *374:12 0.0007329
10 *374:10 0.000162814
11 *669:B *394:37 0
12 *374:35 *616:A 6.03986e-06
13 *525:B *374:35 8.21849e-06
14 *526:D *540:A 2.57986e-05
15 *526:D *374:35 0.000312159
16 *538:C *540:A 4.7903e-06
17 *540:B *374:41 0.000109427
18 *610:A3 *621:A0 3.60459e-05
19 *610:A3 *374:12 7.4173e-05
20 *610:B1 *621:A0 5.97521e-05
21 *610:B1 *374:12 7.41269e-05
22 *610:B1 *374:35 4.16232e-06
23 *610:C1 *374:35 0.000323022
24 *621:A1 *621:A0 1.55025e-05
25 *621:A1 *374:12 6.36477e-05
26 *621:A1 *374:35 0.000175168
27 *621:S *374:12 0.000110458
28 *623:A2 *374:35 9.89388e-06
29 *837:A *374:10 7.46068e-05
30 *868:A *669:B 0
31 *880:A *374:10 0.000183809
32 *52:8 *374:41 1.88563e-05
33 *53:12 *669:B 5.03545e-06
34 *112:20 *540:A 7.39487e-05
35 *112:20 *669:B 3.20264e-05
36 *112:20 *374:35 1.15781e-05
37 *112:20 *374:41 6.27782e-05
38 *336:106 *374:12 6.08467e-05
*RES
1 *880:X *374:10 21.7421 
2 *374:10 *374:12 3.49641 
3 *374:12 *621:A0 11.0576 
4 *374:12 *374:35 22.4949 
5 *374:35 *374:41 6.5108 
6 *374:41 *669:B 22.1574 
7 *374:41 *539:A 9.24915 
8 *374:35 *540:A 17.6724 
9 *374:10 *523:A_N 9.24915 
*END

*D_NET *375 0.00658186
*CONN
*I *617:A I *D sky130_fd_sc_hd__inv_1
*I *610:A2 I *D sky130_fd_sc_hd__o311a_1
*I *607:A I *D sky130_fd_sc_hd__or3_1
*I *669:C I *D sky130_fd_sc_hd__nor4_2
*I *881:X O *D sky130_fd_sc_hd__buf_4
*CAP
1 *617:A 0.000182571
2 *610:A2 0.000432771
3 *607:A 0
4 *669:C 8.28816e-05
5 *881:X 3.9875e-05
6 *375:32 0.00101315
7 *375:19 0.000486334
8 *375:6 0.000211287
9 *610:A2 *616:A 0.000158451
10 *669:C *669:D 4.04393e-05
11 *669:C *378:27 0.000413211
12 *375:6 *378:27 0.0003122
13 *375:32 *616:A 6.97203e-05
14 *522:A *617:A 0.000209232
15 *609:A2 *375:6 8.16991e-05
16 *610:A3 *610:A2 7.82454e-06
17 *610:B1 *610:A2 4.92606e-05
18 *610:C1 *610:A2 4.51777e-05
19 *616:B *375:32 2.47739e-05
20 *618:A2 *375:19 0
21 *618:A3 *375:19 0.000171096
22 *618:A3 *375:32 0.000380051
23 *619:B *617:A 1.95713e-05
24 *620:A *617:A 6.92705e-05
25 *621:A1 *610:A2 3.57037e-05
26 *621:A1 *617:A 0.000102003
27 *621:A1 *375:32 6.50727e-05
28 *621:S *610:A2 7.66391e-06
29 *625:A *617:A 0.000195479
30 *837:A *375:32 6.08697e-06
31 *859:A *617:A 0
32 *868:A *669:C 6.64392e-05
33 *868:A *375:19 3.23315e-05
34 *881:A *375:6 6.92705e-05
35 *881:A *375:19 1.1246e-05
36 *37:8 *375:32 0
37 *37:12 *375:32 0
38 *115:16 *669:C 7.97098e-06
39 *115:16 *375:19 0.000120594
40 *115:16 *375:32 0.00041174
41 *116:10 *610:A2 5.04829e-06
42 *171:14 *610:A2 0.000115954
43 *187:10 *610:A2 2.41274e-06
44 *201:12 *610:A2 3.14978e-05
45 *201:12 *617:A 9.5684e-05
46 *235:18 *610:A2 1.50924e-05
47 *284:8 *617:A 0.000652094
48 *362:6 *669:C 5.04829e-06
49 *362:6 *375:6 2.65831e-05
*RES
1 *881:X *375:6 12.7456 
2 *375:6 *669:C 13.8789 
3 *375:6 *375:19 8.40826 
4 *375:19 *607:A 13.7491 
5 *375:19 *375:32 18.6825 
6 *375:32 *610:A2 29.78 
7 *375:32 *617:A 19.8047 
*END

*D_NET *378 0.00619729
*CONN
*I *521:B I *D sky130_fd_sc_hd__xor2_1
*I *669:D I *D sky130_fd_sc_hd__nor4_2
*I *606:B_N I *D sky130_fd_sc_hd__nor2b_1
*I *631:A0 I *D sky130_fd_sc_hd__mux2i_1
*I *884:X O *D sky130_fd_sc_hd__buf_4
*CAP
1 *521:B 0.000247754
2 *669:D 4.51123e-05
3 *606:B_N 0.000488022
4 *631:A0 0.000155886
5 *884:X 0.000219517
6 *378:27 0.00104781
7 *378:21 0.000824864
8 *378:10 0.000437836
9 *521:B *425:95 6.08467e-05
10 *606:B_N *542:B 9.16785e-05
11 *606:B_N *669:A 6.50727e-05
12 *378:27 *542:B 0
13 *537:A_N *606:B_N 0.000147543
14 *542:A *606:B_N 9.90332e-05
15 *606:A *606:B_N 0.000270814
16 *608:A *521:B 0.000118136
17 *609:A2 *378:27 1.00846e-05
18 *618:A1 *521:B 0.000184139
19 *618:A1 *378:10 9.0014e-05
20 *618:A1 *378:21 5.19205e-05
21 *618:A2 *521:B 9.49981e-05
22 *618:A2 *378:10 3.20069e-06
23 *618:A2 *378:21 4.87198e-05
24 *669:C *669:D 4.04393e-05
25 *669:C *378:27 0.000413211
26 *715:D *378:10 6.83811e-05
27 *847:A *378:10 0.000112367
28 *33:25 *521:B 7.40248e-05
29 *109:10 *378:10 9.0014e-05
30 *156:12 *606:B_N 1.43983e-05
31 *183:33 *521:B 2.16355e-05
32 *336:25 *606:B_N 2.19276e-05
33 *341:14 *631:A0 0.000160617
34 *345:14 *631:A0 6.50727e-05
35 *375:6 *378:27 0.0003122
*RES
1 *884:X *378:10 21.2932 
2 *378:10 *631:A0 17.8002 
3 *378:10 *378:21 2.24725 
4 *378:21 *378:27 14.3864 
5 *378:27 *606:B_N 32.2207 
6 *378:27 *669:D 11.1059 
7 *378:21 *521:B 22.5333 
*END

*D_NET *380 0.00147363
*CONN
*I *667:A I *D sky130_fd_sc_hd__nor4_2
*I *886:X O *D sky130_fd_sc_hd__buf_6
*CAP
1 *667:A 0.000261531
2 *886:X 0.000261531
3 *667:A *692:CLK 0.000140626
4 *667:A *861:A 0.000109569
5 *667:A *886:A 0.000130315
6 *667:A *410:14 7.20028e-05
7 *671:A *667:A 1.50924e-05
8 *671:C *667:A 6.08467e-05
9 *887:A *667:A 6.46815e-05
10 *157:12 *667:A 0.000174061
11 *176:18 *667:A 0.000183371
*RES
1 *886:X *667:A 37.4295 
*END

*D_NET *381 0.0015234
*CONN
*I *670:D I *D sky130_fd_sc_hd__nor4_2
*I *887:X O *D sky130_fd_sc_hd__buf_4
*CAP
1 *670:D 0.000656512
2 *887:X 0.000656512
3 *670:D *600:A0 3.20365e-05
4 *670:D *393:36 3.44412e-06
5 *670:D *414:156 2.69064e-05
6 *670:D *425:14 0
7 *600:S *670:D 3.55887e-05
8 *887:A *670:D 0
9 *172:16 *670:D 5.90849e-06
10 *336:25 *670:D 0.000106493
*RES
1 *887:X *670:D 47.995 
*END

*D_NET *252 0.00077339
*CONN
*I *614:A I *D sky130_fd_sc_hd__nand2_1
*I *804:X O *D sky130_fd_sc_hd__clkdlybuf4s50_1
*CAP
1 *614:A 0.000316646
2 *804:X 0.000316646
3 *614:A *598:A2 6.77457e-05
4 *614:A *700:CLK 2.65831e-05
5 *614:A *804:A 2.85274e-05
6 *614:A *355:156 5.03545e-06
7 *614:A *425:66 1.22063e-05
*RES
1 *804:X *614:A 33.6572 
*END

*D_NET *379 0.0031236
*CONN
*I *468:B I *D sky130_fd_sc_hd__xor2_1
*I *640:A0 I *D sky130_fd_sc_hd__mux2i_1
*I *885:X O *D sky130_fd_sc_hd__buf_4
*CAP
1 *468:B 5.40178e-05
2 *640:A0 0.000619798
3 *885:X 0.000332824
4 *379:10 0.00100664
5 *468:B *848:A 6.41838e-05
6 *640:A0 *643:S 6.33402e-05
7 *640:A0 *848:A 0
8 *640:A0 *852:A 0.000233249
9 *640:A0 *416:71 0.00015126
10 *379:10 *713:DE 0.000157778
11 *481:B *468:B 0.000267394
12 *481:B *379:10 6.49279e-05
13 *640:A1 *640:A0 0
14 *957:A *640:A0 0
15 *957:A *379:10 0
16 *197:14 *379:10 0.000108186
*RES
1 *885:X *379:10 22.3968 
2 *379:10 *640:A0 27.4042 
3 *379:10 *468:B 16.691 
*END

*D_NET *383 0.0014248
*CONN
*I *667:B I *D sky130_fd_sc_hd__nor4_2
*I *889:X O *D sky130_fd_sc_hd__buf_4
*CAP
1 *667:B 0.000242326
2 *889:X 0.000242326
3 *667:B *413:47 3.8114e-06
4 *477:A2 *667:B 0.000146907
5 *530:B *667:B 0.000492493
6 *530:D *667:B 8.36586e-06
7 *671:A *667:B 4.76161e-06
8 *671:C *667:B 0.000156353
9 *889:A *667:B 6.46815e-05
10 *45:10 *667:B 6.27782e-05
*RES
1 *889:X *667:B 36.7625 
*END

*D_NET *384 0.00480414
*CONN
*I *485:B I *D sky130_fd_sc_hd__xnor2_1
*I *667:D I *D sky130_fd_sc_hd__nor4_2
*I *527:A I *D sky130_fd_sc_hd__inv_1
*I *890:X O *D sky130_fd_sc_hd__buf_4
*CAP
1 *485:B 0.000214778
2 *667:D 0.000224083
3 *527:A 0.000378732
4 *890:X 0
5 *384:14 0.00116901
6 *384:4 0.000780976
7 *485:B *485:A 0.00022284
8 *485:B *528:A1 0
9 *527:A *484:A 2.16355e-05
10 *527:A *489:A 9.90116e-05
11 *527:A *416:12 0
12 *667:D *932:A 0.000157287
13 *667:D *416:12 0.00046927
14 *384:14 *484:B 0.000228467
15 *384:14 *528:A1 0.000154145
16 *475:A_N *384:14 0.000115934
17 *477:A1 *667:D 6.96181e-05
18 *477:B1 *485:B 3.88852e-05
19 *486:A *384:14 1.4091e-06
20 *490:A *527:A 2.86013e-06
21 *490:A *384:14 2.18041e-06
22 *528:C1 *384:14 1.5613e-05
23 *529:A *485:B 4.87301e-05
24 *529:A *384:14 5.36586e-05
25 *890:A *384:14 0.000153271
26 *5:23 *667:D 5.82465e-05
27 *166:41 *527:A 2.6874e-05
28 *195:14 *485:B 9.66247e-05
*RES
1 *890:X *384:4 9.24915 
2 *384:4 *384:14 20.5978 
3 *384:14 *527:A 24.8669 
4 *384:14 *667:D 27.1404 
5 *384:4 *485:B 24.9921 
*END

*D_NET *385 0.000942396
*CONN
*I *469:A_N I *D sky130_fd_sc_hd__and2b_2
*I *959:A I *D sky130_fd_sc_hd__buf_4
*I *891:X O *D sky130_fd_sc_hd__buf_6
*CAP
1 *469:A_N 0.000207102
2 *959:A 0.000230169
3 *891:X 0
4 *385:6 0.000437271
5 *959:A *450:6 6.78549e-05
6 *959:A *453:18 0
7 *970:A *959:A 0
8 *178:12 *959:A 0
*RES
1 *891:X *385:6 13.7491 
2 *385:6 *959:A 19.0159 
3 *385:6 *469:A_N 17.9749 
*END

*D_NET *387 0.00295732
*CONN
*I *561:B I *D sky130_fd_sc_hd__xor2_1
*I *668:D I *D sky130_fd_sc_hd__nor4_1
*I *893:X O *D sky130_fd_sc_hd__buf_4
*CAP
1 *561:B 7.37635e-05
2 *668:D 0.000571707
3 *893:X 0.00064547
4 *668:D *668:C 4.04463e-05
5 *668:D *415:10 0
6 *668:D *421:52 0.000877596
7 *470:B *668:D 0.000180792
8 *893:A *561:B 0.000112361
9 *893:A *668:D 0.000109427
10 *155:12 *561:B 4.19316e-05
11 *158:10 *561:B 0.000303829
*RES
1 *893:X *668:D 46.5595 
2 *893:X *561:B 21.9947 
*END

*D_NET *388 0.00579686
*CONN
*I *576:B I *D sky130_fd_sc_hd__nor3_1
*I *574:D1 I *D sky130_fd_sc_hd__o2111ai_1
*I *568:A I *D sky130_fd_sc_hd__inv_1
*I *580:B I *D sky130_fd_sc_hd__nand2_1
*I *894:X O *D sky130_fd_sc_hd__buf_4
*CAP
1 *576:B 7.6926e-05
2 *574:D1 9.60092e-05
3 *568:A 0.000264483
4 *580:B 0
5 *894:X 0.000565352
6 *388:56 0.000407878
7 *388:29 0.000758083
8 *388:12 0.000824009
9 *568:A *584:B 0.000351714
10 *568:A *677:B1_N 4.18549e-05
11 *388:29 *404:12 6.83813e-05
12 *388:29 *433:20 2.91566e-05
13 *546:A *388:12 0.000154737
14 *546:A *388:29 0.000109427
15 *552:A *574:D1 6.65203e-05
16 *552:A *576:B 2.16355e-05
17 *552:B *576:B 2.61147e-05
18 *573:B *568:A 8.02081e-05
19 *574:A1 *576:B 1.65872e-05
20 *574:A2 *576:B 0.000107496
21 *581:D *388:29 0.000351914
22 *584:C *568:A 2.62185e-06
23 *584:C *388:56 1.27831e-06
24 *585:B1 *568:A 2.85e-05
25 *601:A *568:A 0.000110106
26 *601:A *388:29 3.41942e-05
27 *677:A1 *388:29 0.000242278
28 *888:A *388:12 4.16785e-05
29 *920:A *388:29 6.83813e-05
30 *77:33 *388:56 0.000117991
31 *84:20 *568:A 0.000111504
32 *84:39 *388:56 0.000355497
33 *191:25 *388:12 9.92736e-05
34 *358:16 *388:56 0.000165066
*RES
1 *894:X *388:12 21.6916 
2 *388:12 *580:B 9.24915 
3 *388:12 *388:29 12.8232 
4 *388:29 *568:A 21.1908 
5 *388:29 *388:56 16.2105 
6 *388:56 *574:D1 11.6605 
7 *388:56 *576:B 11.6364 
*END

*D_NET *382 0.00105494
*CONN
*I *667:C I *D sky130_fd_sc_hd__nor4_2
*I *888:X O *D sky130_fd_sc_hd__buf_4
*CAP
1 *667:C 0.000274448
2 *888:X 0.000274448
3 *667:C *692:DE 7.18205e-05
4 *667:C *861:A 5.42029e-05
5 *667:C *414:118 4.31703e-05
6 *667:C *416:12 0.000336848
*RES
1 *888:X *667:C 35.7307 
*END

*D_NET *390 0.00265689
*CONN
*I *578:A_N I *D sky130_fd_sc_hd__nand2b_1
*I *588:B1_N I *D sky130_fd_sc_hd__a21bo_1
*I *589:A_N I *D sky130_fd_sc_hd__nand3b_1
*I *896:X O *D sky130_fd_sc_hd__buf_4
*CAP
1 *578:A_N 0
2 *588:B1_N 0.000423444
3 *589:A_N 4.49716e-05
4 *896:X 0.00015338
5 *390:14 0.000643134
6 *390:8 0.000328098
7 *588:B1_N *579:C1 5.04829e-06
8 *578:B *390:8 2.94093e-05
9 *579:D1 *588:B1_N 8.66189e-06
10 *579:D1 *390:8 2.30636e-05
11 *579:D1 *390:14 5.39639e-05
12 *582:C1 *589:A_N 0.000122083
13 *582:C1 *390:14 2.4562e-05
14 *587:A *390:8 6.27718e-05
15 *587:A *390:14 5.20308e-05
16 *588:A1 *588:B1_N 4.67442e-05
17 *588:A2 *588:B1_N 4.31539e-05
18 *588:A2 *390:14 0
19 *589:C *589:A_N 0.000122083
20 *589:C *390:14 7.65861e-05
21 *896:A *390:8 3.16131e-05
22 *89:23 *390:8 4.15595e-05
23 *89:23 *390:14 0.000159038
24 *99:8 *390:14 0.000152787
25 *352:57 *390:14 8.70662e-06
*RES
1 *896:X *390:8 13.8789 
2 *390:8 *390:14 11.0714 
3 *390:14 *589:A_N 15.9964 
4 *390:14 *588:B1_N 20.0186 
5 *390:8 *578:A_N 9.24915 
*END

*D_NET *389 0.00115094
*CONN
*I *670:A I *D sky130_fd_sc_hd__nor4_2
*I *895:X O *D sky130_fd_sc_hd__buf_4
*CAP
1 *670:A 0.000218128
2 *895:X 0.000218128
3 *895:A *670:A 0.000473004
4 *74:16 *670:A 0.000214239
5 *157:12 *670:A 2.74378e-05
*RES
1 *895:X *670:A 26.3351 
*END

*D_NET *235 0.00356738
*CONN
*I *506:B I *D sky130_fd_sc_hd__nand2_2
*I *593:X O *D sky130_fd_sc_hd__clkdlybuf4s50_1
*CAP
1 *506:B 0
2 *593:X 0.00082695
3 *235:18 0.00082695
4 *235:18 *506:A 4.03096e-05
5 *235:18 *610:A2 1.50924e-05
6 *235:18 *621:S 2.30636e-05
7 *235:18 *622:B 0
8 *235:18 *700:CLK 0.00110788
9 *235:18 *352:111 3.37311e-05
10 *235:18 *409:60 0.000314471
11 *235:18 *409:82 8.96342e-05
12 *235:18 *425:66 0
13 *623:B1 *235:18 0.000162323
14 *116:10 *235:18 3.39906e-05
15 *171:14 *235:18 9.29777e-05
*RES
1 *593:X *235:18 43.6097 
2 *235:18 *506:B 9.24915 
*END

*D_NET *253 0.00562264
*CONN
*I *601:A I *D sky130_fd_sc_hd__nand2_1
*I *805:X O *D sky130_fd_sc_hd__clkdlybuf4s50_1
*CAP
1 *601:A 0.00206698
2 *805:X 0.00206698
3 *601:A *568:A 0.000110106
4 *601:A *584:B 3.01309e-05
5 *601:A *602:A1 7.86825e-06
6 *601:A *677:A1 7.29209e-06
7 *601:A *827:A 0.000346643
8 *601:A *355:12 3.5534e-06
9 *601:A *388:29 3.41942e-05
10 *601:A *413:17 2.33658e-06
11 *560:B1 *601:A 1.91246e-05
12 *581:D *601:A 0.00035118
13 *582:A1 *601:A 0.00012011
14 *854:A *601:A 0
15 *81:8 *601:A 2.16355e-05
16 *165:18 *601:A 0.000434508
*RES
1 *805:X *601:A 45.4537 
*END

*D_NET *392 0.00413547
*CONN
*I *595:A0 I *D sky130_fd_sc_hd__mux2i_1
*I *547:B_N I *D sky130_fd_sc_hd__nor2b_1
*I *548:A_N I *D sky130_fd_sc_hd__nand2b_1
*I *898:X O *D sky130_fd_sc_hd__buf_4
*CAP
1 *595:A0 0.000267868
2 *547:B_N 1.22147e-05
3 *548:A_N 0.000110106
4 *898:X 0.00128912
5 *392:18 0.00114357
6 *547:B_N *405:22 1.19856e-05
7 *547:B_N *414:174 6.50727e-05
8 *548:A_N *548:B 1.47046e-05
9 *548:A_N *405:22 6.38491e-05
10 *548:A_N *414:174 6.37667e-05
11 *392:18 *503:A 7.28567e-06
12 *392:18 *405:14 0.000473623
13 *392:18 *409:33 6.18021e-05
14 *392:18 *424:39 7.92757e-06
15 *504:B1 *392:18 0.000401126
16 *898:A *392:18 4.89251e-05
17 *911:A *392:18 4.44437e-05
18 *189:12 *595:A0 2.72533e-05
19 *189:14 *392:18 2.08274e-05
*RES
1 *898:X *392:18 36.5674 
2 *392:18 *548:A_N 12.7938 
3 *392:18 *547:B_N 9.97254 
4 *898:X *595:A0 33.8981 
*END

*D_NET *391 0.00282808
*CONN
*I *557:A1 I *D sky130_fd_sc_hd__a21oi_1
*I *670:B I *D sky130_fd_sc_hd__nor4_2
*I *897:X O *D sky130_fd_sc_hd__buf_4
*CAP
1 *557:A1 0.000257375
2 *670:B 0.000289166
3 *897:X 0.000484701
4 *391:10 0.00103124
5 *670:B *600:A0 3.00174e-06
6 *670:B *393:36 5.84419e-05
7 *391:10 *503:A 0.000127054
8 *391:10 *425:36 0
9 *391:10 *425:51 0
10 *554:B *557:A1 1.47046e-05
11 *555:A *391:10 0.00015499
12 *556:A1 *391:10 0
13 *557:A2 *557:A1 0.000173637
14 *557:B1 *557:A1 1.1957e-05
15 *611:A *391:10 4.47578e-05
16 *703:D *391:10 0
17 *895:A *670:B 6.46815e-05
18 *172:27 *391:10 0
19 *188:16 *391:10 0
20 *189:14 *391:10 0.000112367
*RES
1 *897:X *391:10 26.4127 
2 *391:10 *670:B 20.8723 
3 *391:10 *557:A1 20.5973 
*END

*D_NET *393 0.00541912
*CONN
*I *670:C I *D sky130_fd_sc_hd__nor4_2
*I *600:A0 I *D sky130_fd_sc_hd__mux2i_1
*I *565:C I *D sky130_fd_sc_hd__maj3_2
*I *544:B I *D sky130_fd_sc_hd__xnor2_1
*I *899:X O *D sky130_fd_sc_hd__buf_4
*CAP
1 *670:C 0
2 *600:A0 0.000203373
3 *565:C 0.000331992
4 *544:B 0.000127273
5 *899:X 0.000209487
6 *393:36 0.000293427
7 *393:8 0.000810606
8 *393:6 0.000650881
9 *544:B *502:A 1.17054e-05
10 *544:B *544:A 3.60363e-05
11 *544:B *406:12 1.88563e-05
12 *544:B *424:20 0.000109421
13 *565:C *413:71 1.21886e-05
14 *600:A0 *600:A1 0.000130686
15 *600:A0 *406:12 0
16 *393:6 *425:12 4.01825e-05
17 *393:8 *406:12 9.31284e-05
18 *393:8 *424:14 0.000246036
19 *393:8 *424:20 0.000112367
20 *553:C *565:C 0.00011552
21 *560:B1 *600:A0 6.87503e-05
22 *565:A *565:C 1.44467e-05
23 *565:B *565:C 0.000285031
24 *594:A *565:C 6.42604e-05
25 *602:A2 *600:A0 6.08467e-05
26 *670:B *600:A0 3.00174e-06
27 *670:B *393:36 5.84419e-05
28 *670:D *600:A0 3.20365e-05
29 *670:D *393:36 3.44412e-06
30 *874:A *565:C 0.000205476
31 *899:A *393:6 0.000366486
32 *899:A *393:8 0.000401119
33 *59:10 *393:8 0.000261128
34 *172:16 *600:A0 4.14867e-05
*RES
1 *899:X *393:6 14.964 
2 *393:6 *393:8 11.2609 
3 *393:8 *544:B 12.625 
4 *393:8 *565:C 29.4365 
5 *393:6 *393:36 7.1625 
6 *393:36 *600:A0 20.535 
7 *393:36 *670:C 13.7491 
*END

*D_NET *394 0.0050142
*CONN
*I *669:A I *D sky130_fd_sc_hd__nor4_2
*I *542:B I *D sky130_fd_sc_hd__maj3_1
*I *613:A I *D sky130_fd_sc_hd__xor2_1
*I *900:X O *D sky130_fd_sc_hd__buf_4
*CAP
1 *669:A 1.67539e-05
2 *542:B 9.84179e-05
3 *613:A 0.000679325
4 *900:X 0.000177746
5 *394:37 0.000605429
6 *394:8 0.00134733
7 *613:A *425:66 0.000210184
8 *394:8 *459:78 1.28832e-05
9 *394:37 *396:26 0.000347632
10 *507:B1 *613:A 0.000380473
11 *507:B1 *394:37 2.95757e-05
12 *541:B1 *394:37 7.40248e-05
13 *542:C *394:37 6.07862e-05
14 *543:B1 *542:B 6.50727e-05
15 *595:S *613:A 0.000109421
16 *606:B_N *542:B 9.16785e-05
17 *606:B_N *669:A 6.50727e-05
18 *610:A1 *394:37 0.000256794
19 *615:A1 *613:A 0
20 *615:A2 *613:A 9.28161e-05
21 *615:B1 *613:A 0.000148224
22 *669:B *394:37 0
23 *846:A *613:A 1.92172e-05
24 *846:A *394:8 5.73392e-05
25 *873:A *394:37 0
26 *900:A *394:8 2.16355e-05
27 *53:12 *394:37 4.63668e-05
28 *336:25 *613:A 0
29 *378:27 *542:B 0
*RES
1 *900:X *394:8 13.3243 
2 *394:8 *613:A 37.6482 
3 *394:8 *394:37 24.1933 
4 *394:37 *542:B 12.7938 
5 *394:37 *669:A 9.97254 
*END

*D_NET *395 0.00520224
*CONN
*I *668:C I *D sky130_fd_sc_hd__nor4_1
*I *657:A I *D sky130_fd_sc_hd__xor2_1
*I *493:A I *D sky130_fd_sc_hd__xor2_1
*I *901:X O *D sky130_fd_sc_hd__buf_4
*CAP
1 *668:C 0.000793171
2 *657:A 8.68196e-05
3 *493:A 3.5247e-05
4 *901:X 1.86968e-05
5 *395:14 0.000916969
6 *395:8 0.00160677
7 *657:A *656:B 3.01592e-06
8 *657:A *702:DE 6.31036e-06
9 *657:A *452:22 8.91956e-05
10 *668:C *412:20 0.000114659
11 *668:C *428:16 0.000740868
12 *395:8 *702:DE 3.07848e-05
13 *395:8 *412:24 6.08467e-05
14 *395:14 *655:A1 0.00021569
15 *395:14 *423:45 4.1307e-05
16 *395:14 *452:14 0.000110553
17 *518:A1 *657:A 4.51717e-05
18 *668:D *668:C 4.04463e-05
19 *829:A *668:C 0.000129968
20 *829:A *395:14 0.000115753
21 *177:12 *395:14 0
*RES
1 *901:X *395:8 14.4725 
2 *395:8 *395:14 17.4535 
3 *395:14 *493:A 10.2378 
4 *395:14 *657:A 20.7074 
5 *395:8 *668:C 28.2271 
*END

*D_NET *396 0.00601013
*CONN
*I *508:A0 I *D sky130_fd_sc_hd__mux2_4
*I *541:A1 I *D sky130_fd_sc_hd__a21oi_1
*I *902:X O *D sky130_fd_sc_hd__buf_4
*CAP
1 *508:A0 0.000435677
2 *541:A1 0
3 *902:X 1.86223e-05
4 *396:26 0.0010953
5 *396:6 0.0015496
6 *508:A0 *409:86 3.87022e-06
7 *396:26 *459:78 3.92275e-05
8 *505:A *396:26 6.08467e-05
9 *522:A *396:26 4.37227e-05
10 *524:B *396:26 4.78596e-05
11 *526:C *396:26 0
12 *537:A_N *396:26 1.59362e-06
13 *616:B *396:26 7.16754e-05
14 *618:B1 *396:26 0.00013925
15 *620:A *396:26 4.61946e-05
16 *625:B *508:A0 4.76161e-06
17 *626:A1 *508:A0 0.000515911
18 *626:A2 *508:A0 0.000149225
19 *626:B1 *508:A0 0.000119904
20 *628:A2 *508:A0 0.000415942
21 *857:A *396:26 0
22 *873:A *396:26 0
23 *37:8 *396:26 0
24 *37:12 *396:26 0
25 *40:8 *396:26 0.000113968
26 *112:12 *396:26 6.27718e-05
27 *115:16 *396:26 0.000362141
28 *171:14 *396:26 0.000160617
29 *185:14 *396:26 1.50924e-05
30 *336:106 *508:A0 0.00016566
31 *336:106 *396:26 2.30636e-05
32 *394:37 *396:26 0.000347632
*RES
1 *902:X *396:6 9.82786 
2 *396:6 *396:26 47.826 
3 *396:26 *541:A1 9.24915 
4 *396:6 *508:A0 34.0803 
*END

*D_NET *397 0.000608054
*CONN
*I *619:A I *D sky130_fd_sc_hd__maj3_2
*I *903:X O *D sky130_fd_sc_hd__buf_4
*CAP
1 *619:A 0.000226248
2 *903:X 0.000226248
3 *823:A *619:A 0.000155559
*RES
1 *903:X *619:A 24.2372 
*END

*D_NET *377 0.00716852
*CONN
*I *468:A I *D sky130_fd_sc_hd__xor2_1
*I *530:A_N I *D sky130_fd_sc_hd__nand4b_1
*I *514:A0 I *D sky130_fd_sc_hd__mux2_4
*I *883:X O *D sky130_fd_sc_hd__buf_4
*CAP
1 *468:A 7.33871e-05
2 *530:A_N 0
3 *514:A0 0.000105205
4 *883:X 0.00019428
5 *377:39 0.00138569
6 *377:10 0.00161179
7 *468:A *848:A 5.07314e-05
8 *514:A0 *713:CLK 0.000305874
9 *377:39 *932:A 6.27718e-05
10 *377:39 *401:52 0.000188517
11 *479:A *377:10 0.000124377
12 *481:B *468:A 0.000120546
13 *481:B *377:10 0.000164829
14 *530:D *377:39 0.000186883
15 *532:A1 *377:10 0.000192763
16 *532:A1 *377:39 0.000114659
17 *875:A *377:39 5.8493e-05
18 *889:A *377:39 0.00138362
19 *10:8 *377:39 0.000546947
20 *196:25 *377:10 8.70662e-06
21 *369:12 *377:10 1.53954e-05
22 *369:12 *377:39 0.000273044
*RES
1 *883:X *377:10 19.0748 
2 *377:10 *514:A0 17.2456 
3 *377:10 *377:39 45.7165 
4 *377:39 *530:A_N 9.24915 
5 *883:X *468:A 21.4401 
*END

*D_NET *399 0.000851277
*CONN
*I *515:A0 I *D sky130_fd_sc_hd__mux2_4
*I *905:X O *D sky130_fd_sc_hd__buf_4
*CAP
1 *515:A0 0.00026425
2 *905:X 0.00026425
3 *515:A0 *515:S 6.68169e-05
4 *515:A0 *421:106 8.04746e-05
5 *180:18 *515:A0 0.000175485
*RES
1 *905:X *515:A0 25.901 
*END

*D_NET *254 0.000240312
*CONN
*I *597:A I *D sky130_fd_sc_hd__nand2_1
*I *806:X O *D sky130_fd_sc_hd__clkdlybuf4s50_1
*CAP
1 *597:A 8.10193e-05
2 *806:X 8.10193e-05
3 *597:A *824:A 7.82737e-05
*RES
1 *806:X *597:A 20.9096 
*END

*D_NET *400 0.00319199
*CONN
*I *528:A1 I *D sky130_fd_sc_hd__o221ai_2
*I *485:A I *D sky130_fd_sc_hd__xnor2_1
*I *516:A0 I *D sky130_fd_sc_hd__mux2_4
*I *906:X O *D sky130_fd_sc_hd__buf_4
*CAP
1 *528:A1 0.000502076
2 *485:A 0.000100293
3 *516:A0 0.0002326
4 *906:X 0
5 *400:21 0.00072515
6 *400:6 0.000355381
7 *516:A0 *515:S 3.20264e-05
8 *516:A0 *453:18 4.24629e-05
9 *528:A1 *410:68 0
10 *400:21 *410:68 0
11 *476:A_N *485:A 2.57986e-05
12 *476:B *485:A 1.09739e-05
13 *485:B *485:A 0.00022284
14 *485:B *528:A1 0
15 *486:A *485:A 0.000471416
16 *516:A1 *516:A0 1.37566e-05
17 *528:C1 *528:A1 2.90773e-05
18 *711:D *516:A0 0
19 *890:A *528:A1 9.2346e-06
20 *907:A *528:A1 0
21 *935:A *528:A1 3.41935e-05
22 *11:10 *528:A1 7.14746e-05
23 *166:41 *528:A1 3.30786e-05
24 *179:10 *516:A0 3.96296e-05
25 *179:23 *516:A0 2.14842e-06
26 *179:23 *400:21 3.96867e-05
27 *195:14 *485:A 2.81463e-05
28 *195:16 *485:A 1.6403e-05
29 *384:14 *528:A1 0.000154145
*RES
1 *906:X *400:6 13.7491 
2 *400:6 *516:A0 19.2529 
3 *400:6 *400:21 3.07775 
4 *400:21 *485:A 19.898 
5 *400:21 *528:A1 22.9758 
*END

*D_NET *403 0.00542608
*CONN
*I *678:B I *D sky130_fd_sc_hd__nand2_4
*I *561:A I *D sky130_fd_sc_hd__xor2_1
*I *682:A0 I *D sky130_fd_sc_hd__mux2_4
*I *909:X O *D sky130_fd_sc_hd__buf_4
*CAP
1 *678:B 0.000367186
2 *561:A 0
3 *682:A0 4.00115e-05
4 *909:X 0.000396906
5 *403:27 0.00139786
6 *403:10 0.00146759
7 *678:B *562:B 0
8 *678:B *459:22 0
9 *682:A0 *412:12 7.28994e-06
10 *682:A0 *412:14 1.37421e-05
11 *403:10 *409:10 7.07672e-05
12 *403:10 *412:12 2.83365e-05
13 *403:10 *459:22 0.000605962
14 *403:27 *562:B 2.85997e-05
15 *403:27 *682:S 3.01368e-06
16 *403:27 *412:113 0.000110458
17 *474:A1 *403:27 4.00512e-05
18 *562:A *678:B 1.72644e-05
19 *562:A *403:27 0.000592566
20 *692:DE *678:B 0.000101148
21 *708:D *403:27 2.78496e-05
22 *909:A *403:10 0.00010949
*RES
1 *909:X *403:10 26.1424 
2 *403:10 *682:A0 14.7506 
3 *403:10 *403:27 25.8357 
4 *403:27 *561:A 13.7491 
5 *403:27 *678:B 21.8588 
*END

*D_NET *404 0.00437752
*CONN
*I *580:A I *D sky130_fd_sc_hd__nand2_1
*I *573:A I *D sky130_fd_sc_hd__nand4_1
*I *910:X O *D sky130_fd_sc_hd__buf_4
*CAP
1 *580:A 0
2 *573:A 0.000736756
3 *910:X 0.000454966
4 *404:12 0.00119172
5 *573:A *584:B 1.78584e-05
6 *573:A *433:20 0.000835992
7 *404:12 *409:10 0
8 *404:12 *418:10 0.00012568
9 *566:B1 *404:12 9.60334e-05
10 *566:C1 *404:12 0.000341237
11 *573:C *573:A 3.44412e-06
12 *582:D1 *404:12 0.000121954
13 *920:A *404:12 2.2668e-05
14 *942:A *573:A 2.02035e-05
15 *942:A *404:12 9.12416e-06
16 *175:10 *573:A 2.02035e-05
17 *175:10 *404:12 1.86178e-05
18 *175:23 *404:12 0.000285541
19 *352:57 *573:A 7.13655e-06
20 *388:29 *404:12 6.83813e-05
*RES
1 *910:X *404:12 28.2585 
2 *404:12 *573:A 22.9001 
3 *404:12 *580:A 13.7491 
*END

*D_NET *376 0.00335401
*CONN
*I *578:B I *D sky130_fd_sc_hd__nand2b_1
*I *587:A I *D sky130_fd_sc_hd__xor2_2
*I *500:A0 I *D sky130_fd_sc_hd__mux2_4
*I *882:X O *D sky130_fd_sc_hd__buf_4
*CAP
1 *578:B 7.13439e-06
2 *587:A 0.000288708
3 *500:A0 0.000265584
4 *882:X 3.9562e-05
5 *376:19 0.00060865
6 *376:6 0.000617953
7 *500:A0 *500:S 0.000395705
8 *578:B *390:8 2.94093e-05
9 *587:A *390:8 6.27718e-05
10 *587:A *390:14 5.20308e-05
11 *376:19 *690:CLK 0
12 *500:A1 *500:A0 4.24529e-05
13 *579:A2 *587:A 4.34092e-05
14 *579:A2 *376:19 2.86829e-05
15 *579:D1 *587:A 0.000301926
16 *882:A *500:A0 6.50586e-05
17 *882:A *376:6 0.000116764
18 *89:10 *376:19 0.000154993
19 *89:23 *578:B 2.94093e-05
20 *89:23 *587:A 8.42498e-05
21 *352:57 *587:A 1.69917e-05
22 *352:57 *376:19 0.000102564
*RES
1 *882:X *376:6 10.5271 
2 *376:6 *500:A0 17.2065 
3 *376:6 *376:19 13.8065 
4 *376:19 *587:A 22.5026 
5 *376:19 *578:B 14.0988 
*END

*D_NET *405 0.0028052
*CONN
*I *547:A I *D sky130_fd_sc_hd__nor2b_1
*I *501:A0 I *D sky130_fd_sc_hd__mux2_4
*I *548:B I *D sky130_fd_sc_hd__nand2b_1
*I *911:X O *D sky130_fd_sc_hd__buf_4
*CAP
1 *547:A 0
2 *501:A0 0.000170784
3 *548:B 3.5672e-06
4 *911:X 0.000161386
5 *405:22 0.000476491
6 *405:14 0.000463526
7 *501:A0 *459:88 0.000352731
8 *548:B *414:174 1.47046e-05
9 *405:14 *409:33 7.03112e-06
10 *405:14 *414:174 6.3657e-05
11 *405:14 *424:31 0
12 *405:14 *424:39 8.76513e-05
13 *405:22 *414:174 7.02172e-06
14 *405:22 *459:88 7.65861e-05
15 *547:B_N *405:22 1.19856e-05
16 *548:A_N *548:B 1.47046e-05
17 *548:A_N *405:22 6.38491e-05
18 *911:A *405:14 0.000161825
19 *191:14 *501:A0 0.000110294
20 *191:14 *405:22 8.37812e-05
21 *392:18 *405:14 0.000473623
*RES
1 *911:X *405:14 25.6861 
2 *405:14 *405:22 10.8117 
3 *405:22 *548:B 13.924 
4 *405:22 *501:A0 20.1489 
5 *405:14 *547:A 9.24915 
*END

*D_NET *406 0.00291063
*CONN
*I *502:A I *D sky130_fd_sc_hd__inv_1
*I *544:A I *D sky130_fd_sc_hd__xnor2_1
*I *912:X O *D sky130_fd_sc_hd__buf_4
*CAP
1 *502:A 0.000238573
2 *544:A 1.34759e-05
3 *912:X 0.000562353
4 *406:12 0.000814402
5 *406:12 *600:A1 1.07248e-05
6 *406:12 *424:14 0.000261128
7 *406:12 *424:20 0.000208606
8 *544:B *502:A 1.17054e-05
9 *544:B *544:A 3.60363e-05
10 *544:B *406:12 1.88563e-05
11 *553:C *502:A 1.39717e-06
12 *560:B1 *406:12 0
13 *566:A2 *502:A 5.85957e-05
14 *600:A0 *406:12 0
15 *865:A *502:A 3.0676e-05
16 *895:A *502:A 9.55569e-06
17 *899:A *406:12 0.000107496
18 *64:10 *502:A 5.33868e-05
19 *74:16 *502:A 1.32185e-05
20 *172:27 *406:12 0.000367315
21 *393:8 *406:12 9.31284e-05
*RES
1 *912:X *406:12 34.6612 
2 *406:12 *544:A 9.82786 
3 *406:12 *502:A 24.8882 
*END

*D_NET *408 0.000326785
*CONN
*I *672:B1 I *D sky130_fd_sc_hd__o21ai_1
*I *914:X O *D sky130_fd_sc_hd__buf_4
*CAP
1 *672:B1 0.00010103
2 *914:X 0.00010103
3 *673:A1 *672:B1 7.34948e-06
4 *914:A *672:B1 0.000117376
*RES
1 *914:X *672:B1 21.4401 
*END

*D_NET *255 0.000779952
*CONN
*I *590:A I *D sky130_fd_sc_hd__nor2_1
*I *807:X O *D sky130_fd_sc_hd__clkdlybuf4s50_1
*CAP
1 *590:A 0.000237331
2 *807:X 0.000237331
3 *590:A *590:B 4.76161e-06
4 *590:A *591:A3 5.02592e-05
5 *590:A *347:6 1.4106e-05
6 *591:B1 *590:A 0.000121892
7 *690:D *590:A 0.000114271
*RES
1 *807:X *590:A 25.2018 
*END

*D_NET *409 0.0202798
*CONN
*I *965:A I *D sky130_fd_sc_hd__buf_8
*I *508:S I *D sky130_fd_sc_hd__mux2_4
*I *512:S I *D sky130_fd_sc_hd__mux2_4
*I *501:S I *D sky130_fd_sc_hd__mux2_4
*I *500:S I *D sky130_fd_sc_hd__mux2_4
*I *915:X O *D sky130_fd_sc_hd__buf_12
*CAP
1 *965:A 0
2 *508:S 0
3 *512:S 0.00089912
4 *501:S 4.98178e-05
5 *500:S 0.000604687
6 *915:X 0
7 *409:86 0.00101748
8 *409:82 0.00198258
9 *409:60 0.0034198
10 *409:33 0.00188881
11 *409:25 0.000390045
12 *409:10 0.0021999
13 *409:6 0.00148859
14 *512:S *716:DE 7.06619e-05
15 *512:S *947:A 0.000103746
16 *409:10 *413:31 0
17 *409:25 *459:88 6.50727e-05
18 *409:33 *424:20 0
19 *409:33 *459:88 0.000516487
20 *409:60 *503:A 0.000315975
21 *409:60 *506:A 0.000144452
22 *409:60 *689:CLK 5.49214e-05
23 *409:60 *705:DE 2.90638e-06
24 *409:60 *424:80 1.00766e-05
25 *409:82 *425:66 1.59362e-06
26 *500:A0 *500:S 0.000395705
27 *501:A1 *501:S 4.76161e-06
28 *501:A1 *409:33 3.44254e-06
29 *501:A1 *409:60 1.12699e-05
30 *508:A0 *409:86 3.87022e-06
31 *510:B *512:S 7.26606e-05
32 *512:A1 *512:S 6.50586e-05
33 *558:B1_N *500:S 0.000111708
34 *558:B1_N *409:10 0
35 *566:A1 *409:10 0.000227147
36 *566:B1 *409:10 0
37 *582:D1 *409:10 0
38 *613:B *409:60 3.00829e-05
39 *620:A *409:82 8.21137e-05
40 *621:S *409:60 0.000405074
41 *623:A2 *409:82 2.77959e-05
42 *623:B1 *409:82 5.18728e-05
43 *626:A1 *512:S 0.000350775
44 *626:A1 *409:86 2.03171e-05
45 *705:D *409:60 2.28674e-05
46 *706:D *500:S 0.000122378
47 *716:D *512:S 0
48 *717:D *512:S 0
49 *880:A *409:82 1.43698e-05
50 *882:A *500:S 0.000784762
51 *920:A *409:10 0
52 *948:A *512:S 0
53 *975:A *512:S 0
54 *63:8 *409:33 0.00017419
55 *66:8 *500:S 6.50727e-05
56 *171:14 *409:82 3.55422e-05
57 *183:10 *512:S 0
58 *183:33 *512:S 0
59 *189:12 *409:60 8.0879e-05
60 *191:14 *409:10 0.000294095
61 *191:18 *409:10 0.000293995
62 *231:12 *512:S 6.92705e-05
63 *235:18 *409:60 0.000314471
64 *235:18 *409:82 8.96342e-05
65 *334:12 *409:10 9.01513e-05
66 *336:29 *409:60 0.000160047
67 *352:44 *409:10 0
68 *352:94 *409:60 0.000203454
69 *355:111 *409:82 0.00011824
70 *355:113 *409:82 1.02267e-05
71 *355:137 *409:82 0.000106154
72 *357:8 *409:10 0
73 *357:10 *409:10 0
74 *392:18 *409:33 6.18021e-05
75 *403:10 *409:10 7.07672e-05
76 *404:12 *409:10 0
77 *405:14 *409:33 7.03112e-06
*RES
1 *915:X *409:6 13.7491 
2 *409:6 *409:10 44.1199 
3 *409:10 *500:S 29.6007 
4 *409:10 *409:25 2.38721 
5 *409:25 *409:33 19.0299 
6 *409:33 *501:S 10.6477 
7 *409:33 *409:60 48.4983 
8 *409:60 *409:82 45.6069 
9 *409:82 *409:86 7.1625 
10 *409:86 *512:S 37.4824 
11 *409:86 *508:S 13.7491 
12 *409:25 *965:A 9.24915 
*END

*D_NET *423 0.0150644
*CONN
*I *682:S I *D sky130_fd_sc_hd__mux2_4
*I *677:B1_N I *D sky130_fd_sc_hd__o21bai_4
*I *963:A I *D sky130_fd_sc_hd__buf_6
*I *821:A I *D sky130_fd_sc_hd__dlygate4sd2_1
*I *518:S I *D sky130_fd_sc_hd__mux2_4
*I *962:A I *D sky130_fd_sc_hd__buf_6
*I *517:S I *D sky130_fd_sc_hd__mux2_4
*I *519:S I *D sky130_fd_sc_hd__mux2_4
*I *929:X O *D sky130_fd_sc_hd__buf_8
*CAP
1 *682:S 0.000455784
2 *677:B1_N 0.000777434
3 *963:A 0
4 *821:A 0.000829835
5 *518:S 0
6 *962:A 9.22031e-05
7 *517:S 0
8 *519:S 0.000699375
9 *929:X 0.000455784
10 *423:74 0.000880549
11 *423:72 0.00135573
12 *423:45 0.000892871
13 *423:12 0.00159166
14 *423:10 0.000559434
15 *423:6 0.0009954
16 *519:S *519:A0 6.36547e-05
17 *821:A *666:A1 5.27944e-05
18 *821:A *454:20 3.52873e-06
19 *962:A *517:A0 0.000103234
20 *962:A *650:A0 0.000160617
21 *423:45 *452:14 0.000271044
22 *423:72 *455:18 0.000114659
23 *423:74 *454:20 0.000208606
24 *471:A *519:S 6.27782e-05
25 *471:A *423:45 7.44384e-05
26 *518:A1 *423:12 6.49659e-05
27 *518:A1 *423:45 2.2766e-06
28 *519:A1 *519:S 1.63255e-05
29 *563:A_N *677:B1_N 0
30 *563:B *423:72 0.000112618
31 *568:A *677:B1_N 4.18549e-05
32 *569:A *423:72 2.69716e-05
33 *582:A1 *677:B1_N 1.59362e-06
34 *582:D1 *677:B1_N 0.00016553
35 *584:C *677:B1_N 0
36 *585:C1 *677:B1_N 0.000142144
37 *654:A *423:45 9.46208e-05
38 *655:A1 *423:45 2.1801e-05
39 *655:A2 *423:45 3.14978e-05
40 *655:B1 *423:45 0.000277502
41 *656:B *519:S 6.5568e-05
42 *659:A2 *423:45 0.000237031
43 *672:A2 *821:A 0.000114659
44 *675:A1 *423:74 6.08467e-05
45 *675:A2 *677:B1_N 8.33721e-06
46 *676:A *821:A 2.16355e-05
47 *682:A1 *682:S 0.000236589
48 *682:A1 *821:A 1.94412e-05
49 *685:D *821:A 0.000241485
50 *693:D *423:45 0.000277502
51 *693:CLK *423:45 0.000233433
52 *702:D *519:S 2.58757e-05
53 *710:D *962:A 6.50586e-05
54 *854:A *677:B1_N 0.00016553
55 *914:A *423:10 0
56 *927:A *677:B1_N 0.000132607
57 *84:20 *677:B1_N 4.45962e-06
58 *158:10 *423:72 8.29576e-05
59 *158:10 *423:74 0.000195438
60 *169:10 *423:10 0
61 *186:10 *519:S 8.7133e-05
62 *352:12 *423:10 0
63 *352:44 *423:10 0
64 *395:14 *423:45 4.1307e-05
65 *403:27 *682:S 3.01368e-06
66 *412:43 *519:S 0.000151487
67 *412:43 *423:45 0.000132802
68 *412:113 *682:S 6.24474e-06
69 *412:113 *821:A 8.84971e-05
70 *421:10 *677:B1_N 0.000272059
71 *421:168 *962:A 6.50586e-05
72 *421:168 *423:45 0.000327279
*RES
1 *929:X *423:6 13.7491 
2 *423:6 *423:10 10.8698 
3 *423:10 *423:12 2.6625 
4 *423:12 *519:S 38.4328 
5 *423:12 *423:45 31.0891 
6 *423:45 *517:S 9.24915 
7 *423:45 *962:A 13.3002 
8 *423:10 *518:S 13.7491 
9 *423:6 *423:72 14.4206 
10 *423:72 *423:74 2.94181 
11 *423:74 *821:A 41.8953 
12 *423:74 *963:A 9.24915 
13 *423:72 *677:B1_N 40.3314 
14 *929:X *682:S 27.1549 
*END

*D_NET *411 0.00138798
*CONN
*I *676:A I *D sky130_fd_sc_hd__nor2b_1
*I *673:B1 I *D sky130_fd_sc_hd__a21oi_1
*I *917:X O *D sky130_fd_sc_hd__buf_4
*CAP
1 *676:A 0.000182449
2 *673:B1 0.000135667
3 *917:X 9.38715e-05
4 *411:10 0.000411987
5 *676:A *666:A1 0
6 *676:A *821:A 2.16355e-05
7 *663:A *673:B1 0
8 *663:A *676:A 0
9 *665:A *676:A 0
10 *666:A2 *673:B1 0
11 *666:B1 *673:B1 0.000122378
12 *673:A2 *673:B1 0.000118166
13 *682:A1 *676:A 1.03403e-05
14 *917:A *676:A 0.000219064
15 *917:A *411:10 6.50727e-05
16 *286:10 *411:10 7.34948e-06
*RES
1 *917:X *411:10 16.1605 
2 *411:10 *673:B1 17.2744 
3 *411:10 *676:A 19.2113 
*END

*D_NET *426 0.000773335
*CONN
*I *484:B I *D sky130_fd_sc_hd__nor2_4
*I *935:X O *D sky130_fd_sc_hd__buf_4
*CAP
1 *484:B 0.000192626
2 *935:X 0.000192626
3 *475:A_N *484:B 6.50586e-05
4 *486:A *484:B 8.67835e-05
5 *890:A *484:B 7.77309e-06
6 *907:A *484:B 0
7 *384:14 *484:B 0.000228467
*RES
1 *935:X *484:B 34.2118 
*END

*D_NET *427 0.00227302
*CONN
*I *668:B I *D sky130_fd_sc_hd__nor4_1
*I *936:X O *D sky130_fd_sc_hd__buf_4
*CAP
1 *668:B 0.000538732
2 *936:X 0.000538732
3 *668:B *488:A1 6.08467e-05
4 *668:B *668:A 2.16355e-05
5 *668:B *453:18 1.76782e-05
6 *472:A *668:B 6.27718e-05
7 *472:B_N *668:B 6.27782e-05
8 *474:C1 *668:B 1.65872e-05
9 *487:A2 *668:B 5.04879e-05
10 *488:A2 *668:B 0.000109787
11 *488:B1 *668:B 6.46815e-05
12 *490:B *668:B 0.0001239
13 *936:A *668:B 0.000248843
14 *6:10 *668:B 1.32509e-05
15 *8:10 *668:B 2.53202e-05
16 *166:41 *668:B 0.000107496
17 *193:23 *668:B 0.000209487
*RES
1 *936:X *668:B 44.4058 
*END

*D_NET *428 0.00317966
*CONN
*I *491:B I *D sky130_fd_sc_hd__xnor2_2
*I *653:A0 I *D sky130_fd_sc_hd__mux2i_1
*I *937:X O *D sky130_fd_sc_hd__buf_4
*CAP
1 *491:B 0.000106284
2 *653:A0 4.48958e-05
3 *937:X 0.000534346
4 *428:16 0.000685525
5 *470:B *428:16 6.69545e-05
6 *517:A1 *428:16 0.000198737
7 *653:S *428:16 1.39714e-05
8 *668:C *428:16 0.000740868
9 *892:A *428:16 0.00030843
10 *901:A *491:B 1.59362e-06
11 *7:12 *653:A0 4.89251e-05
12 *7:12 *428:16 5.38708e-05
13 *177:12 *428:16 0
14 *276:12 *491:B 0.000158452
15 *352:12 *491:B 0
16 *421:52 *428:16 0.000120472
17 *421:54 *428:16 9.11135e-05
18 *421:60 *428:16 5.22654e-06
*RES
1 *937:X *428:16 37.7556 
2 *428:16 *653:A0 10.5271 
3 *428:16 *491:B 21.3269 
*END

*D_NET *432 0.000283622
*CONN
*I *592:B I *D sky130_fd_sc_hd__xnor2_2
*I *941:X O *D sky130_fd_sc_hd__buf_6
*CAP
1 *592:B 0.000108878
2 *941:X 0.000108878
3 *592:B *433:26 0
4 *592:A *592:B 6.58661e-05
*RES
1 *941:X *592:B 30.9913 
*END

*D_NET *256 0.00120283
*CONN
*I *517:A1 I *D sky130_fd_sc_hd__mux2_4
*I *808:X O *D sky130_fd_sc_hd__clkdlybuf4s50_1
*CAP
1 *517:A1 0.000376908
2 *808:X 0.000376908
3 *517:A1 *650:A0 0
4 *517:A1 *937:A 0.000200251
5 *517:A1 *421:60 5.00217e-05
6 *517:A1 *428:16 0.000198737
7 *654:A *517:A1 0
8 *177:12 *517:A1 0
*RES
1 *808:X *517:A1 38.0828 
*END

*D_NET *433 0.00600411
*CONN
*I *573:D I *D sky130_fd_sc_hd__nand4_1
*I *579:C1 I *D sky130_fd_sc_hd__o2111ai_2
*I *839:A I *D sky130_fd_sc_hd__buf_4
*I *942:X O *D sky130_fd_sc_hd__buf_4
*CAP
1 *573:D 3.6352e-05
2 *579:C1 0.000409539
3 *839:A 0
4 *942:X 0.000560179
5 *433:26 0.000869621
6 *433:20 0.00105661
7 *573:A *433:20 0.000835992
8 *573:B *433:20 6.45083e-05
9 *579:A1 *579:C1 0
10 *582:A2 *433:20 0.00025718
11 *582:C1 *433:26 0
12 *584:B *433:20 0.0005753
13 *585:A1 *433:26 2.46803e-05
14 *585:A2 *433:20 0.000110458
15 *585:B1 *433:20 1.50924e-05
16 *585:C1 *433:20 1.5714e-05
17 *588:A1 *579:C1 0.000425203
18 *588:A2 *579:C1 8.92568e-06
19 *588:A2 *433:26 3.67528e-06
20 *588:B1_N *579:C1 5.04829e-06
21 *591:A2 *579:C1 8.71199e-05
22 *592:A *433:26 0
23 *592:B *433:26 0
24 *677:A1 *433:20 0.000408004
25 *805:A *433:26 0
26 *827:A *433:26 0.000113309
27 *920:A *433:20 2.77734e-05
28 *941:A *579:C1 0
29 *334:12 *433:20 6.46662e-05
30 *388:29 *433:20 2.91566e-05
*RES
1 *942:X *433:20 33.7925 
2 *433:20 *433:26 16.0544 
3 *433:26 *839:A 13.7491 
4 *433:26 *579:C1 25.2625 
5 *433:20 *573:D 10.2378 
*END

*D_NET *257 0.00183191
*CONN
*I *585:A1 I *D sky130_fd_sc_hd__a211o_1
*I *809:X O *D sky130_fd_sc_hd__clkdlybuf4s50_1
*CAP
1 *585:A1 0.000412198
2 *809:X 0.000412198
3 *585:A1 *584:B 1.15781e-05
4 *585:A1 *827:A 2.58757e-05
5 *585:A1 *352:57 0.000156664
6 *585:A1 *421:10 1.12493e-05
7 *585:A1 *433:26 2.46803e-05
8 *573:C *585:A1 0.000305874
9 *582:A2 *585:A1 8.96342e-05
10 *582:D1 *585:A1 0.000307778
11 *854:A *585:A1 7.41781e-05
*RES
1 *809:X *585:A1 49.5195 
*END

*D_NET *258 0.000716615
*CONN
*I *680:A I *D sky130_fd_sc_hd__nand2_1
*I *810:X O *D sky130_fd_sc_hd__clkdlybuf4s50_1
*CAP
1 *680:A 0.000193036
2 *810:X 0.000193036
3 *680:A *650:A1 0.000271044
4 *680:A *680:B 4.80635e-06
5 *680:A *421:97 5.46928e-05
*RES
1 *810:X *680:A 23.6826 
*END

*D_NET *259 0.00137771
*CONN
*I *516:A1 I *D sky130_fd_sc_hd__mux2_4
*I *811:X O *D sky130_fd_sc_hd__clkdlybuf4s50_1
*CAP
1 *516:A1 0.000363186
2 *811:X 0.000363186
3 *516:A1 *515:S 0.000135429
4 *516:A1 *516:A0 1.37566e-05
5 *516:A1 *646:A 0
6 *516:A1 *421:106 0.000171273
7 *179:10 *516:A1 0.000330879
*RES
1 *811:X *516:A1 38.6374 
*END

*D_NET *436 0.000209034
*CONN
*I *594:B I *D sky130_fd_sc_hd__xnor2_4
*I *945:X O *D sky130_fd_sc_hd__buf_4
*CAP
1 *594:B 0.000104517
2 *945:X 0.000104517
*RES
1 *945:X *594:B 20.8855 
*END

*D_NET *434 0.00116182
*CONN
*I *599:B I *D sky130_fd_sc_hd__xnor2_4
*I *943:X O *D sky130_fd_sc_hd__buf_4
*CAP
1 *599:B 0.000286925
2 *943:X 0.000286925
3 *560:B1 *599:B 0.000286002
4 *602:B1 *599:B 0.000291629
5 *271:10 *599:B 1.03403e-05
*RES
1 *943:X *599:B 36.9176 
*END

*D_NET *260 0.000548639
*CONN
*I *515:A1 I *D sky130_fd_sc_hd__mux2_4
*I *812:X O *D sky130_fd_sc_hd__clkdlybuf4s50_1
*CAP
1 *515:A1 0.000159077
2 *812:X 0.000159077
3 *515:A1 *696:CLK 0.000113109
4 *515:A1 *799:A 0.000117376
5 *515:A1 *811:A 0
*RES
1 *812:X *515:A1 31.0235 
*END

*D_NET *261 0.00221856
*CONN
*I *514:A1 I *D sky130_fd_sc_hd__mux2_4
*I *813:X O *D sky130_fd_sc_hd__clkdlybuf4s50_1
*CAP
1 *514:A1 0.000954326
2 *813:X 0.000954326
3 *514:A1 *713:DE 2.51597e-06
4 *514:A1 *713:CLK 7.01735e-05
5 *514:A1 *833:A 5.07314e-05
6 *514:A1 *280:10 4.07614e-05
7 *481:A *514:A1 7.04109e-05
8 *481:B *514:A1 7.77309e-06
9 *713:D *514:A1 6.75461e-05
*RES
1 *813:X *514:A1 44.5107 
*END

*D_NET *262 0.000798994
*CONN
*I *513:A1 I *D sky130_fd_sc_hd__mux2_4
*I *814:X O *D sky130_fd_sc_hd__clkdlybuf4s50_1
*CAP
1 *513:A1 0.00034584
2 *814:X 0.00034584
3 *513:A1 *513:S 3.73648e-05
4 *714:D *513:A1 6.99486e-05
*RES
1 *814:X *513:A1 27.5649 
*END

*D_NET *236 0.00177211
*CONN
*I *503:B I *D sky130_fd_sc_hd__nand2_2
*I *583:X O *D sky130_fd_sc_hd__clkdlybuf4s50_1
*CAP
1 *503:B 0.000311837
2 *583:X 0.000311837
3 *503:B *825:A 5.01524e-05
4 *503:B *271:29 0.000519736
5 *503:B *272:18 3.70158e-05
6 *556:B1 *503:B 5.23435e-05
7 *689:D *503:B 0.000217951
8 *173:10 *503:B 0.000271236
*RES
1 *583:X *503:B 39.192 
*END

*D_NET *263 0.000920994
*CONN
*I *512:A1 I *D sky130_fd_sc_hd__mux2_4
*I *815:X O *D sky130_fd_sc_hd__clkdlybuf4s50_1
*CAP
1 *512:A1 0.000355523
2 *815:X 0.000355523
3 *512:A1 *512:S 6.50586e-05
4 *231:12 *512:A1 0.00014489
*RES
1 *815:X *512:A1 27.5649 
*END

*D_NET *264 0.00137221
*CONN
*I *510:B I *D sky130_fd_sc_hd__nand2_1
*I *816:X O *D sky130_fd_sc_hd__clkdlybuf4s50_1
*CAP
1 *510:B 0.00052312
2 *816:X 0.00052312
3 *510:B *512:S 7.26606e-05
4 *510:B *836:A 2.84892e-05
5 *510:B *283:12 5.26719e-05
6 *509:A *510:B 0.000164383
7 *716:D *510:B 3.44412e-06
8 *33:6 *510:B 4.32384e-06
*RES
1 *816:X *510:B 36.2937 
*END

*D_NET *265 0.000895183
*CONN
*I *508:A1 I *D sky130_fd_sc_hd__mux2_4
*I *817:X O *D sky130_fd_sc_hd__clkdlybuf4s50_1
*CAP
1 *508:A1 0.000416206
2 *817:X 0.000416206
3 *508:A1 *626:A1 6.27718e-05
*RES
1 *817:X *508:A1 28.8911 
*END

*D_NET *341 0.00173564
*CONN
*I *925:A I *D sky130_fd_sc_hd__buf_4
*I *609:A3 I *D sky130_fd_sc_hd__a32o_2
*I *847:X O *D sky130_fd_sc_hd__buf_6
*CAP
1 *925:A 5.53147e-05
2 *609:A3 8.9121e-05
3 *847:X 0.000222499
4 *341:14 0.000366934
5 *609:A3 *629:B 0.000137936
6 *609:A3 *355:82 6.60196e-05
7 *925:A *629:B 0.000264614
8 *341:14 *629:B 2.41483e-05
9 *341:14 *631:A0 0.000160617
10 *618:A1 *341:14 8.42523e-05
11 *631:S *925:A 0.000160617
12 *633:A2 *341:14 1.00981e-05
13 *871:A *341:14 8.07794e-05
14 *41:14 *609:A3 1.2693e-05
*RES
1 *847:X *341:14 25.402 
2 *341:14 *609:A3 21.3269 
3 *341:14 *925:A 12.191 
*END

*D_NET *438 0.000691272
*CONN
*I *624:A I *D sky130_fd_sc_hd__xnor2_2
*I *947:X O *D sky130_fd_sc_hd__buf_6
*CAP
1 *624:A 8.46827e-05
2 *947:X 8.46827e-05
3 *624:A *947:A 0.000303893
4 *624:B *624:A 0.000156946
5 *975:A *624:A 6.10674e-05
*RES
1 *947:X *624:A 22.5734 
*END

*D_NET *439 0.000888697
*CONN
*I *845:A I *D sky130_fd_sc_hd__buf_6
*I *948:X O *D sky130_fd_sc_hd__buf_4
*CAP
1 *845:A 0.000155758
2 *948:X 0.000155758
3 *626:A1 *845:A 6.50586e-05
4 *823:A *845:A 0.000389745
5 *948:A *845:A 0.000122378
*RES
1 *948:X *845:A 24.9606 
*END

*D_NET *267 0.00219043
*CONN
*I *660:A I *D sky130_fd_sc_hd__inv_1
*I *674:B I *D sky130_fd_sc_hd__nand2_1
*I *818:X O *D sky130_fd_sc_hd__dlygate4sd2_1
*CAP
1 *660:A 1.47898e-05
2 *674:B 0.000330101
3 *818:X 0.000447717
4 *267:10 0.000792608
5 *674:B *917:A 0.000146519
6 *674:B *286:10 0.000143161
7 *674:B *412:119 0
8 *674:B *421:10 0
9 *267:10 *691:CLK 0
10 *267:10 *412:119 0
11 *267:10 *421:10 0
12 *664:A2 *660:A 3.20544e-05
13 *664:A2 *674:B 1.88422e-05
14 *683:D *674:B 0.000255255
15 *691:D *267:10 9.38699e-06
*RES
1 *818:X *267:10 22.2602 
2 *267:10 *674:B 30.3248 
3 *267:10 *660:A 14.1289 
*END

*D_NET *440 0.00206491
*CONN
*I *947:A I *D sky130_fd_sc_hd__buf_6
*I *949:X O *D sky130_fd_sc_hd__buf_6
*CAP
1 *947:A 0.000669269
2 *949:X 0.000669269
3 *947:A *629:A 0.000110458
4 *512:S *947:A 0.000103746
5 *624:A *947:A 0.000303893
6 *975:A *947:A 0.000105986
7 *183:33 *947:A 0.000102291
*RES
1 *949:X *947:A 41.4671 
*END

*D_NET *442 0.00279275
*CONN
*I *517:A0 I *D sky130_fd_sc_hd__mux2_4
*I *951:X O *D sky130_fd_sc_hd__buf_4
*CAP
1 *517:A0 0.000908776
2 *951:X 0.000908776
3 *517:A0 *488:A1 8.72389e-05
4 *517:A0 *650:A0 7.92757e-06
5 *517:A0 *450:6 5.05841e-05
6 *517:A0 *453:18 9.54356e-05
7 *649:A1 *517:A0 0.000160047
8 *710:D *517:A0 6.08467e-05
9 *951:A *517:A0 0.000114271
10 *962:A *517:A0 0.000103234
11 *970:A *517:A0 2.5496e-05
12 *194:6 *517:A0 0.000109427
13 *421:168 *517:A0 0.00016069
*RES
1 *951:X *517:A0 46.74 
*END

*D_NET *343 0.00134244
*CONN
*I *949:A I *D sky130_fd_sc_hd__buf_6
*I *849:X O *D sky130_fd_sc_hd__buf_6
*CAP
1 *949:A 0.000494597
2 *849:X 0.000494597
3 *949:A *629:A 4.66889e-05
4 *949:A *716:CLK 2.16355e-05
5 *949:A *717:CLK 5.14448e-05
6 *949:A *425:110 4.87301e-05
7 *716:D *949:A 3.64995e-05
8 *35:14 *949:A 7.29011e-05
9 *183:33 *949:A 7.53432e-05
*RES
1 *849:X *949:A 39.3048 
*END

*D_NET *268 0.00236372
*CONN
*I *917:A I *D sky130_fd_sc_hd__buf_4
*I *664:C1 I *D sky130_fd_sc_hd__a221o_1
*I *819:X O *D sky130_fd_sc_hd__clkdlybuf4s50_1
*CAP
1 *917:A 0.00037176
2 *664:C1 7.89519e-06
3 *819:X 0.000427844
4 *268:10 0.000807499
5 *664:C1 *664:A1 1.07248e-05
6 *917:A *664:A1 7.46268e-05
7 *917:A *676:A 0.000219064
8 *917:A *838:A 3.88655e-06
9 *917:A *286:10 0.000169183
10 *917:A *411:10 6.50727e-05
11 *268:10 *691:CLK 0
12 *268:10 *809:A 0
13 *268:10 *838:A 2.40299e-05
14 *268:10 *412:119 0
15 *672:A2 *917:A 0
16 *674:B *917:A 0.000146519
17 *676:B_N *917:A 3.56119e-05
18 *683:D *664:C1 0
19 *683:D *268:10 0
*RES
1 *819:X *268:10 22.0526 
2 *268:10 *664:C1 14.1278 
3 *268:10 *917:A 25.9653 
*END

*D_NET *285 0.00162638
*CONN
*I *664:B2 I *D sky130_fd_sc_hd__a221o_1
*I *665:A I *D sky130_fd_sc_hd__inv_1
*I *820:X O *D sky130_fd_sc_hd__clkdlybuf4s50_1
*CAP
1 *664:B2 0.000123744
2 *665:A 0.000314358
3 *820:X 0.000438102
4 *664:B2 *664:A1 6.1154e-05
5 *665:A req_rdy 1.3388e-05
6 *665:A *666:A1 0.000414098
7 *665:A *676:A 0
8 *664:A2 *664:B2 0
9 *666:A2 *665:A 5.04829e-06
10 *683:D *664:B2 0.000256487
*RES
1 *820:X *665:A 37.1243 
2 *820:X *664:B2 22.7482 
*END

*D_NET *266 0.00142665
*CONN
*I *964:A I *D sky130_fd_sc_hd__buf_8
*I *563:A_N I *D sky130_fd_sc_hd__nand2b_1
*I *683:Q O *D sky130_fd_sc_hd__dfxtp_4
*CAP
1 *964:A 0
2 *563:A_N 0.000321367
3 *683:Q 0.000268647
4 *266:6 0.000590014
5 *563:A_N *677:A1 3.11575e-05
6 *563:A_N *677:B1_N 0
7 *77:33 *563:A_N 2.91926e-05
8 *83:12 *563:A_N 5.43217e-05
9 *84:20 *563:A_N 0.000123582
10 *169:32 *563:A_N 8.36586e-06
*RES
1 *683:Q *266:6 14.964 
2 *266:6 *563:A_N 25.968 
3 *266:6 *964:A 9.24915 
*END

*D_NET *269 0.00105266
*CONN
*I *822:A I *D sky130_fd_sc_hd__buf_2
*I *493:X O *D sky130_fd_sc_hd__xor2_1
*CAP
1 *822:A 0.000342874
2 *493:X 0.000342874
3 *822:A *452:14 5.481e-05
4 *518:A1 *822:A 0.000285532
5 *170:10 *822:A 2.65667e-05
*RES
1 *493:X *822:A 35.787 
*END

*D_NET *270 0.00296036
*CONN
*I *823:A I *D sky130_fd_sc_hd__buf_2
*I *616:X O *D sky130_fd_sc_hd__xor2_2
*CAP
1 *823:A 0.000871485
2 *616:X 0.000871485
3 *823:A *619:A 0.000155559
4 *823:A *626:A1 6.08467e-05
5 *823:A *845:A 0.000389745
6 *823:A *948:A 6.75138e-05
7 *823:A *459:78 0.000164829
8 *524:A_N *823:A 6.50586e-05
9 *524:B *823:A 3.09257e-05
10 *620:B *823:A 0.00028291
*RES
1 *616:X *823:A 42.8526 
*END

*D_NET *271 0.00625571
*CONN
*I *824:A I *D sky130_fd_sc_hd__buf_2
*I *923:A I *D sky130_fd_sc_hd__buf_4
*I *599:Y O *D sky130_fd_sc_hd__xnor2_4
*CAP
1 *824:A 0.000193605
2 *923:A 3.57807e-05
3 *599:Y 0.000513429
4 *271:29 0.00131827
5 *271:10 0.00167387
6 *824:A *825:A 6.99486e-05
7 *271:10 *599:A 5.88662e-05
8 *271:10 *599:B 1.03403e-05
9 *271:10 *602:A1 0
10 *271:29 *600:A1 0
11 *271:29 *825:A 5.40309e-05
12 *271:29 *272:16 0.000585324
13 *271:29 *459:88 0.000107496
14 *503:B *271:29 0.000519736
15 *553:A *271:10 0
16 *556:B1 *271:29 0.000131552
17 *557:B1 *271:29 0.000177704
18 *560:B1 *271:29 0
19 *597:A *824:A 7.82737e-05
20 *598:B1 *824:A 6.92705e-05
21 *689:D *271:29 0.000175244
22 *899:A *271:29 0.000217722
23 *59:10 *271:10 0
24 *59:10 *271:29 0
25 *172:27 *271:29 0.00015388
26 *188:16 *271:29 0.000111358
*RES
1 *599:Y *271:10 22.1265 
2 *271:10 *923:A 14.4725 
3 *271:10 *271:29 46.3317 
4 *271:29 *824:A 18.9335 
*END

*D_NET *444 0.00107708
*CONN
*I *637:A1 I *D sky130_fd_sc_hd__mux2i_1
*I *953:X O *D sky130_fd_sc_hd__buf_4
*CAP
1 *637:A1 0.000208374
2 *953:X 0.000208374
3 *638:A *637:A1 8.21761e-06
4 *639:B1 *637:A1 0.000419197
5 *834:A *637:A1 5.09367e-05
6 *953:A *637:A1 0.000122424
7 *355:52 *637:A1 5.95565e-05
*RES
1 *953:X *637:A1 26.311 
*END

*D_NET *431 0.00440508
*CONN
*I *603:A I *D sky130_fd_sc_hd__nand2_4
*I *605:A1 I *D sky130_fd_sc_hd__a31oi_4
*I *634:A I *D sky130_fd_sc_hd__nand2_2
*I *940:X O *D sky130_fd_sc_hd__buf_4
*CAP
1 *603:A 4.52628e-05
2 *605:A1 8.31968e-05
3 *634:A 0.000807967
4 *940:X 0.000375951
5 *431:12 0.00114919
6 *431:10 0.000679235
7 *605:A1 *605:A2 2.36116e-05
8 *605:A1 *446:14 8.62625e-06
9 *634:A *605:A2 7.08723e-06
10 *431:12 *605:A2 5.15121e-05
11 *533:A1 *634:A 7.16893e-05
12 *533:A2 *634:A 2.67638e-05
13 *535:B1 *634:A 4.31539e-05
14 *536:A1 *634:A 2.65667e-05
15 *536:B1 *634:A 6.92705e-05
16 *698:CLK *634:A 0.000108087
17 *132:18 *603:A 1.2495e-05
18 *132:18 *634:A 1.81052e-05
19 *132:18 *431:12 1.21954e-05
20 *198:34 *431:10 0.000536882
21 *350:16 *605:A1 6.46815e-05
22 *401:52 *605:A1 4.90613e-05
23 *401:52 *431:12 2.47142e-05
24 *401:56 *431:12 0.000109777
*RES
1 *940:X *431:10 20.5973 
2 *431:10 *431:12 7.02265 
3 *431:12 *634:A 27.1101 
4 *431:12 *605:A1 16.5122 
5 *431:10 *603:A 14.7506 
*END

*D_NET *445 0.00199872
*CONN
*I *848:A I *D sky130_fd_sc_hd__buf_4
*I *954:X O *D sky130_fd_sc_hd__buf_4
*CAP
1 *848:A 0.000713868
2 *954:X 0.000713868
3 *468:A *848:A 5.07314e-05
4 *468:B *848:A 6.41838e-05
5 *481:B *848:A 1.18149e-05
6 *640:A0 *848:A 0
7 *833:A *848:A 0.00027329
8 *946:A *848:A 6.9815e-05
9 *957:A *848:A 0.000101148
10 *181:10 *848:A 0
*RES
1 *954:X *848:A 40.4759 
*END

*D_NET *237 0.00206082
*CONN
*I *501:A1 I *D sky130_fd_sc_hd__mux2_4
*I *577:X O *D sky130_fd_sc_hd__clkdlybuf4s50_1
*CAP
1 *501:A1 0.000842178
2 *577:X 0.000842178
3 *501:A1 *501:S 4.76161e-06
4 *501:A1 *689:DE 2.23406e-05
5 *501:A1 *689:CLK 4.17605e-05
6 *501:A1 *409:33 3.44254e-06
7 *501:A1 *409:60 1.12699e-05
8 *577:A *501:A1 0.000176388
9 *705:D *501:A1 0.000116502
*RES
1 *577:X *501:A1 42.9915 
*END

*D_NET *272 0.00551471
*CONN
*I *825:A I *D sky130_fd_sc_hd__buf_2
*I *595:A1 I *D sky130_fd_sc_hd__mux2i_1
*I *594:Y O *D sky130_fd_sc_hd__xnor2_4
*CAP
1 *825:A 0.000479412
2 *595:A1 0.000123464
3 *594:Y 0.00073676
4 *272:18 0.000834371
5 *272:16 0.000968254
6 *825:A resp_msg[12] 0.000128091
7 *825:A *806:A 6.50586e-05
8 *272:16 *503:A 6.27782e-05
9 *272:16 *504:A1 0
10 *272:16 *352:82 0
11 *272:16 *352:94 1.65872e-05
12 *272:16 *424:14 0.000137594
13 *272:16 *424:20 0
14 *503:B *825:A 5.01524e-05
15 *503:B *272:18 3.70158e-05
16 *504:B1 *272:16 0.000143568
17 *556:B1 *272:18 2.86829e-05
18 *557:B1 *272:16 2.47808e-05
19 *577:A *825:A 0.000217602
20 *598:A1 *595:A1 0.000175485
21 *598:A1 *825:A 3.37407e-05
22 *824:A *825:A 6.99486e-05
23 *874:A *272:16 0
24 *911:A *272:16 0.000154145
25 *59:10 *272:16 6.19724e-05
26 *173:10 *595:A1 4.96483e-05
27 *173:10 *272:18 0.000276244
28 *271:29 *825:A 5.40309e-05
29 *271:29 *272:16 0.000585324
*RES
1 *594:Y *272:16 45.1323 
2 *272:16 *272:18 6.81502 
3 *272:18 *595:A1 17.8002 
4 *272:18 *825:A 29.0761 
*END

*D_NET *446 0.00282943
*CONN
*I *480:A1 I *D sky130_fd_sc_hd__a21boi_2
*I *483:B I *D sky130_fd_sc_hd__xor2_2
*I *955:X O *D sky130_fd_sc_hd__buf_4
*CAP
1 *480:A1 9.34923e-06
2 *483:B 0.000171955
3 *955:X 0.000532499
4 *446:14 0.000713803
5 *446:14 *605:A2 5.22654e-06
6 *531:B *446:14 0.000316745
7 *605:A1 *446:14 8.62625e-06
8 *698:CLK *446:14 0
9 *14:8 *483:B 0.000172706
10 *14:8 *446:14 0.000196902
11 *195:14 *483:B 0.000124942
12 *350:16 *446:14 0.000271974
13 *369:16 *480:A1 6.50727e-05
14 *370:14 *480:A1 6.50727e-05
15 *401:52 *483:B 3.51249e-05
16 *401:52 *446:14 0.000139427
*RES
1 *955:X *446:14 30.7638 
2 *446:14 *483:B 9.88056 
3 *446:14 *480:A1 14.4725 
*END

*D_NET *447 0.00121707
*CONN
*I *852:A I *D sky130_fd_sc_hd__buf_4
*I *956:X O *D sky130_fd_sc_hd__buf_4
*CAP
1 *852:A 0.000336886
2 *956:X 0.000336886
3 *640:A0 *852:A 0.000233249
4 *643:A1 *852:A 0.000165521
5 *643:S *852:A 0.000144525
*RES
1 *956:X *852:A 37.9491 
*END

*D_NET *448 0.00219111
*CONN
*I *832:A I *D sky130_fd_sc_hd__buf_2
*I *957:X O *D sky130_fd_sc_hd__buf_4
*CAP
1 *832:A 0.000920031
2 *957:X 0.000920031
3 resp_msg[4] *832:A 7.54493e-05
4 *714:D *832:A 8.18762e-05
5 *714:DE *832:A 2.19686e-05
6 *714:CLK *832:A 0.000168313
7 *198:14 *832:A 3.43721e-06
8 *280:10 *832:A 0
*RES
1 *957:X *832:A 47.0047 
*END

*D_NET *449 0.003831
*CONN
*I *484:A I *D sky130_fd_sc_hd__nor2_4
*I *489:A I *D sky130_fd_sc_hd__or3_1
*I *488:A1 I *D sky130_fd_sc_hd__o21ai_0
*I *958:X O *D sky130_fd_sc_hd__buf_6
*CAP
1 *484:A 2.48351e-05
2 *489:A 5.38452e-05
3 *488:A1 0.000997842
4 *958:X 2.71144e-05
5 *449:31 0.000219828
6 *449:8 0.0011661
7 *488:A1 *668:A 1.50924e-05
8 *490:A *484:A 7.92757e-06
9 *490:A *488:A1 5.62934e-05
10 *490:A *489:A 2.85139e-05
11 *490:A *449:31 5.64813e-06
12 *490:B *488:A1 6.93171e-05
13 *517:A0 *488:A1 8.72389e-05
14 *527:A *484:A 2.16355e-05
15 *527:A *489:A 9.90116e-05
16 *649:A1 *488:A1 6.68457e-06
17 *668:B *488:A1 6.08467e-05
18 *951:A *488:A1 2.84758e-05
19 *970:A *488:A1 0.000114659
20 *5:23 *449:8 6.27782e-05
21 *194:6 *488:A1 4.34564e-05
22 *275:14 *488:A1 0.00012136
23 *416:12 *449:31 0.000196638
24 *416:24 *488:A1 0.000277353
25 *416:24 *449:31 3.85006e-05
*RES
1 *958:X *449:8 14.4725 
2 *449:8 *488:A1 42.6893 
3 *449:8 *449:31 8.82351 
4 *449:31 *489:A 11.6364 
5 *449:31 *484:A 9.97254 
*END

*D_NET *386 0.00202461
*CONN
*I *518:A0 I *D sky130_fd_sc_hd__mux2_4
*I *491:A I *D sky130_fd_sc_hd__xnor2_2
*I *892:X O *D sky130_fd_sc_hd__buf_6
*CAP
1 *518:A0 0.000368731
2 *491:A 0
3 *892:X 0.000487727
4 *386:14 0.000856458
5 *386:14 *709:CLK 0.000183752
6 *386:14 *414:28 6.08467e-05
7 *492:B *386:14 6.71006e-05
*RES
1 *892:X *386:14 18.9427 
2 *386:14 *491:A 9.24915 
3 *386:14 *518:A0 17.7611 
*END

*D_NET *451 0.00329534
*CONN
*I *604:A I *D sky130_fd_sc_hd__nor2b_1
*I *886:A I *D sky130_fd_sc_hd__buf_6
*I *960:X O *D sky130_fd_sc_hd__buf_4
*CAP
1 *604:A 0.000225766
2 *886:A 0.00048787
3 *960:X 0
4 *451:4 0.000713637
5 *886:A *634:B 0.000171427
6 *534:A2 *604:A 0.000132607
7 *535:A1 *886:A 0.000188475
8 *535:A2 *886:A 0.000307413
9 *535:C1 *886:A 3.30002e-05
10 *543:A3 *886:A 0
11 *667:A *886:A 0.000130315
12 *887:A *886:A 5.75897e-05
13 *940:A *604:A 0.000112367
14 *973:A *604:A 6.3657e-05
15 *48:8 *604:A 9.89388e-06
16 *182:18 *604:A 6.64392e-05
17 *198:34 *604:A 6.86039e-05
18 *198:34 *886:A 6.13051e-05
19 *355:39 *886:A 2.20471e-05
20 *401:68 *604:A 0.000189558
21 *401:68 *886:A 0.000253367
*RES
1 *960:X *451:4 9.24915 
2 *451:4 *886:A 34.6584 
3 *451:4 *604:A 25.1315 
*END

*D_NET *273 0.00124107
*CONN
*I *826:A I *D sky130_fd_sc_hd__clkbuf_2
*I *592:Y O *D sky130_fd_sc_hd__xnor2_2
*CAP
1 *826:A 0.000620533
2 *592:Y 0.000620533
*RES
1 *592:Y *826:A 28.9634 
*END

*D_NET *452 0.0030896
*CONN
*I *493:B I *D sky130_fd_sc_hd__xor2_1
*I *656:A I *D sky130_fd_sc_hd__nand2_2
*I *519:A0 I *D sky130_fd_sc_hd__mux2_4
*I *961:X O *D sky130_fd_sc_hd__buf_6
*CAP
1 *493:B 0
2 *656:A 1.96968e-05
3 *519:A0 0.000194257
4 *961:X 0.000312485
5 *452:22 0.000380397
6 *452:14 0.000478928
7 *518:A1 *452:22 2.06836e-05
8 *519:A1 *519:A0 4.03096e-05
9 *519:S *519:A0 6.36547e-05
10 *656:B *519:A0 3.18656e-05
11 *656:B *656:A 4.76161e-06
12 *656:B *452:22 1.0959e-05
13 *657:A *452:22 8.91956e-05
14 *657:B *452:22 7.16754e-05
15 *693:CLK *452:14 0
16 *702:D *519:A0 3.00829e-05
17 *702:DE *519:A0 0.000460524
18 *702:DE *452:14 6.08467e-05
19 *702:DE *452:22 0.000197448
20 *822:A *452:14 5.481e-05
21 *352:12 *452:14 0.000163784
22 *395:14 *452:14 0.000110553
23 *412:24 *452:14 2.16355e-05
24 *423:45 *452:14 0.000271044
*RES
1 *961:X *452:14 28.3197 
2 *452:14 *452:22 14.465 
3 *452:22 *519:A0 17.2065 
4 *452:22 *656:A 9.82786 
5 *452:14 *493:B 9.24915 
*END

*D_NET *453 0.00513228
*CONN
*I *515:S I *D sky130_fd_sc_hd__mux2_4
*I *516:S I *D sky130_fd_sc_hd__mux2_4
*I *962:X O *D sky130_fd_sc_hd__buf_6
*CAP
1 *515:S 0.000543391
2 *516:S 0
3 *962:X 0.00110062
4 *453:18 0.00164401
5 *472:A *453:18 0.000516163
6 *472:B_N *453:18 0.000160135
7 *486:A *453:18 0.000110458
8 *486:B *453:18 6.08467e-05
9 *488:A2 *453:18 8.95297e-05
10 *488:B1 *453:18 2.44969e-05
11 *490:B *453:18 3.29313e-05
12 *515:A0 *515:S 6.68169e-05
13 *516:A0 *515:S 3.20264e-05
14 *516:A0 *453:18 4.24629e-05
15 *516:A1 *515:S 0.000135429
16 *517:A0 *453:18 9.54356e-05
17 *646:A *515:S 0
18 *668:B *453:18 1.76782e-05
19 *959:A *453:18 0
20 *970:A *453:18 1.93511e-06
21 *8:10 *453:18 6.5568e-05
22 *178:27 *453:18 1.00766e-05
23 *278:12 *453:18 1.58551e-05
24 *421:106 *515:S 0.000366424
*RES
1 *962:X *453:18 45.572 
2 *453:18 *516:S 9.24915 
3 *453:18 *515:S 33.7393 
*END

*D_NET *454 0.00393966
*CONN
*I *674:A I *D sky130_fd_sc_hd__nand2_1
*I *664:A1 I *D sky130_fd_sc_hd__a221o_1
*I *666:A1 I *D sky130_fd_sc_hd__o21ai_0
*I *963:X O *D sky130_fd_sc_hd__buf_6
*CAP
1 *674:A 3.0267e-05
2 *664:A1 0.000278408
3 *666:A1 0.000414941
4 *963:X 0.000432206
5 *454:22 0.000787832
6 *454:20 0.000556956
7 req_rdy *664:A1 5.9765e-05
8 *499:A *666:A1 0
9 *664:A2 *664:A1 3.01683e-06
10 *664:B2 *664:A1 6.1154e-05
11 *664:C1 *664:A1 1.07248e-05
12 *665:A *666:A1 0.000414098
13 *666:A2 *666:A1 0.000130777
14 *675:A1 *674:A 1.4625e-05
15 *675:A1 *454:20 6.17626e-05
16 *675:B1 *674:A 6.19675e-05
17 *675:B1 *454:20 3.90664e-05
18 *676:A *666:A1 0
19 *676:B_N *666:A1 2.41274e-06
20 *676:B_N *454:20 6.46815e-05
21 *676:B_N *454:22 4.16815e-05
22 *683:D *664:A1 4.2806e-05
23 *821:A *666:A1 5.27944e-05
24 *821:A *454:20 3.52873e-06
25 *917:A *664:A1 7.46268e-05
26 *412:119 *454:20 9.09599e-05
27 *423:74 *454:20 0.000208606
*RES
1 *963:X *454:20 27.8644 
2 *454:20 *454:22 2.38721 
3 *454:22 *666:A1 31.328 
4 *454:22 *664:A1 25.8414 
5 *454:20 *674:A 10.5513 
*END

*D_NET *455 0.00285498
*CONN
*I *570:A I *D sky130_fd_sc_hd__nor2_1
*I *968:A I *D sky130_fd_sc_hd__buf_12
*I *915:A I *D sky130_fd_sc_hd__buf_12
*I *929:A I *D sky130_fd_sc_hd__buf_8
*I *662:B I *D sky130_fd_sc_hd__or2_4
*I *964:X O *D sky130_fd_sc_hd__buf_8
*CAP
1 *570:A 0.000201886
2 *968:A 0
3 *915:A 0
4 *929:A 0
5 *662:B 0.00017726
6 *964:X 0.000141381
7 *455:45 0.000201886
8 *455:18 0.000339322
9 *455:12 0.000314116
10 *455:10 0.000293435
11 *570:B *570:A 4.09549e-05
12 *672:A2 *662:B 0
13 *675:A2 *570:A 2.20471e-05
14 *682:A1 *662:B 6.54273e-05
15 *682:A1 *455:18 0.00010886
16 *914:A *662:B 4.94e-06
17 *77:33 *455:10 6.14273e-05
18 *77:33 *455:12 6.04133e-05
19 *84:20 *570:A 0.000165459
20 *169:10 *662:B 5.64028e-05
21 *169:32 *662:B 2.71045e-05
22 *352:44 *455:10 0
23 *352:44 *455:12 0
24 *412:113 *662:B 0.000160383
25 *412:113 *455:18 0.000258188
26 *421:44 *570:A 3.9426e-05
27 *423:72 *455:18 0.000114659
*RES
1 *964:X *455:10 17.135 
2 *455:10 *455:12 3.90826 
3 *455:12 *455:18 10.5196 
4 *455:18 *662:B 23.99 
5 *455:18 *929:A 9.24915 
6 *455:12 *915:A 13.7491 
7 *455:10 *455:45 4.5 
8 *455:45 *968:A 9.24915 
9 *455:45 *570:A 15.0122 
*END

*D_NET *456 0.00603503
*CONN
*I *506:A I *D sky130_fd_sc_hd__nand2_2
*I *503:A I *D sky130_fd_sc_hd__nand2_2
*I *507:A2 I *D sky130_fd_sc_hd__o21ai_1
*I *504:A2 I *D sky130_fd_sc_hd__o21ai_1
*I *965:X O *D sky130_fd_sc_hd__buf_8
*CAP
1 *506:A 0.000264394
2 *503:A 0.000291996
3 *507:A2 0
4 *504:A2 0
5 *965:X 0.000137422
6 *456:34 0.000790725
7 *456:21 0.000976275
8 *456:8 0.000879361
9 *456:8 *459:88 6.64528e-05
10 *456:21 *459:78 1.75155e-06
11 *456:21 *459:88 0.000116731
12 *504:B1 *503:A 0.000112367
13 *507:B1 *456:34 0.000165459
14 *556:A2 *456:21 5.0715e-05
15 *556:B1 *456:21 1.03403e-05
16 *611:A *456:21 8.97566e-06
17 *612:B *456:34 0
18 *703:D *456:34 6.64392e-05
19 *704:D *456:8 0.000169041
20 *704:D *456:21 6.92705e-05
21 *898:A *503:A 4.89251e-05
22 *189:14 *503:A 9.0845e-05
23 *235:18 *506:A 4.03096e-05
24 *272:16 *503:A 6.27782e-05
25 *336:29 *506:A 0.00016195
26 *352:94 *503:A 0.000426204
27 *367:6 *456:21 9.75148e-06
28 *367:6 *456:34 2.74378e-05
29 *391:10 *503:A 0.000127054
30 *392:18 *503:A 7.28567e-06
31 *409:60 *503:A 0.000315975
32 *409:60 *506:A 0.000144452
33 *414:156 *456:34 5.00217e-05
34 *414:227 *456:34 2.26985e-05
35 *425:36 *456:34 9.75356e-05
36 *425:51 *456:34 0.00022409
*RES
1 *965:X *456:8 13.3243 
2 *456:8 *504:A2 9.24915 
3 *456:8 *456:21 12.5871 
4 *456:21 *507:A2 9.24915 
5 *456:21 *456:34 17.5111 
6 *456:34 *503:A 21.7398 
7 *456:34 *506:A 16.6519 
*END

*D_NET *457 0.0016004
*CONN
*I *497:A I *D sky130_fd_sc_hd__nand2_2
*I *498:A2 I *D sky130_fd_sc_hd__o21ai_1
*I *966:X O *D sky130_fd_sc_hd__buf_6
*CAP
1 *497:A 0
2 *498:A2 0.00032792
3 *966:X 0.000265249
4 *457:12 0.000593169
5 *457:12 *459:88 0.00016195
6 *497:B *457:12 6.84737e-05
7 *498:A1 *498:A2 9.81288e-06
8 *498:B1 *498:A2 0.000109142
9 *707:D *498:A2 6.46815e-05
*RES
1 *966:X *457:12 24.9627 
2 *457:12 *498:A2 15.2533 
3 *457:12 *497:A 9.24915 
*END

*D_NET *274 0.00189054
*CONN
*I *827:A I *D sky130_fd_sc_hd__buf_2
*I *586:Y O *D sky130_fd_sc_hd__xnor2_1
*CAP
1 *827:A 0.000653585
2 *586:Y 0.000653585
3 *827:A *433:26 0.000113309
4 *585:A1 *827:A 2.58757e-05
5 *601:A *827:A 0.000346643
6 *854:A *827:A 6.08467e-05
7 *81:8 *827:A 3.6696e-05
*RES
1 *586:Y *827:A 38.9568 
*END

*D_NET *459 0.0260529
*CONN
*I *969:A I *D sky130_fd_sc_hd__buf_6
*I *966:A I *D sky130_fd_sc_hd__buf_6
*I *513:S I *D sky130_fd_sc_hd__mux2_4
*I *514:S I *D sky130_fd_sc_hd__mux2_4
*I *968:X O *D sky130_fd_sc_hd__buf_12
*CAP
1 *969:A 0
2 *966:A 0
3 *513:S 0.000677073
4 *514:S 0.00023379
5 *968:X 0.00111421
6 *459:88 0.00116949
7 *459:78 0.00309312
8 *459:66 0.00280508
9 *459:38 0.00118097
10 *459:32 0.00244767
11 *459:22 0.00241033
12 *501:A0 *459:88 0.000352731
13 *507:A1 *459:78 4.80635e-06
14 *513:A1 *513:S 3.73648e-05
15 *524:A_N *459:78 6.75302e-05
16 *526:C *459:78 0.000127475
17 *556:A1 *459:88 6.08467e-05
18 *556:A2 *459:88 5.56461e-05
19 *556:B1 *459:88 6.50727e-05
20 *571:A *459:22 0
21 *611:A *459:78 6.32945e-05
22 *611:B *459:78 0.000366589
23 *618:A1 *459:78 0.000208233
24 *629:B *459:66 3.16904e-05
25 *630:A *459:66 8.2644e-05
26 *671:C *459:32 0.0010076
27 *678:B *459:22 0
28 *699:DE *459:66 0
29 *713:DE *513:S 0
30 *714:CLK *459:38 0.000402156
31 *823:A *459:78 0.000164829
32 *846:A *459:78 6.22868e-05
33 *856:A *459:32 2.48716e-05
34 *856:A *459:66 2.52285e-05
35 *861:A *459:32 0.000256629
36 *871:A *459:66 0.000525807
37 *873:A *459:78 1.41689e-05
38 *900:A *459:78 2.16355e-05
39 *909:A *459:22 0.000225347
40 *957:A *513:S 1.64066e-05
41 *957:A *514:S 7.42689e-05
42 *33:10 *459:66 1.65872e-05
43 *33:10 *459:78 3.31745e-05
44 *36:10 *459:66 0.000233978
45 *37:12 *459:78 0
46 *41:14 *459:66 0.000653915
47 *63:8 *459:88 7.77309e-06
48 *111:14 *459:66 0.000374306
49 *157:12 *459:22 5.4944e-06
50 *182:12 *513:S 2.37624e-06
51 *183:33 *459:78 6.27718e-05
52 *191:14 *459:88 7.41203e-05
53 *197:40 *459:32 0.0012901
54 *271:29 *459:88 0.000107496
55 *367:6 *459:78 0.000657269
56 *394:8 *459:78 1.28832e-05
57 *396:26 *459:78 3.92275e-05
58 *401:52 *459:66 0
59 *403:10 *459:22 0.000605962
60 *405:22 *459:88 7.65861e-05
61 *409:25 *459:88 6.50727e-05
62 *409:33 *459:88 0.000516487
63 *413:31 *459:22 0.000250116
64 *413:47 *459:22 0.00015547
65 *414:128 *513:S 0
66 *415:10 *459:22 0
67 *421:44 *459:22 0.000894781
68 *421:48 *459:22 1.02363e-05
69 *425:95 *459:66 2.16355e-05
70 *425:95 *459:78 6.13051e-05
71 *456:8 *459:88 6.64528e-05
72 *456:21 *459:78 1.75155e-06
73 *456:21 *459:88 0.000116731
74 *457:12 *459:88 0.00016195
*RES
1 *968:X *459:22 39.7915 
2 *459:22 *459:32 32.8994 
3 *459:32 *459:38 13.6056 
4 *459:38 *514:S 19.3184 
5 *459:38 *513:S 25.6094 
6 *459:32 *459:66 36.123 
7 *459:66 *459:78 44.1856 
8 *459:78 *459:88 42.623 
9 *459:88 *966:A 9.24915 
10 *459:66 *969:A 9.24915 
*END

*D_NET *460 0.0018914
*CONN
*I *510:A I *D sky130_fd_sc_hd__nand2_1
*I *511:A2 I *D sky130_fd_sc_hd__o21ai_1
*I *969:X O *D sky130_fd_sc_hd__buf_6
*CAP
1 *510:A 8.48011e-05
2 *511:A2 0.000447677
3 *969:X 0.000362876
4 *509:A *510:A 4.63933e-05
5 *509:A *511:A2 0.000410286
6 *511:A1 *510:A 3.5063e-05
7 *511:B1 *510:A 6.84955e-05
8 *33:6 *510:A 0.000307806
9 *33:10 *511:A2 5.23952e-05
10 *184:16 *511:A2 2.17403e-05
11 *425:95 *511:A2 5.38672e-05
*RES
1 *969:X *511:A2 26.6727 
2 *511:A2 *510:A 23.1521 
*END

*D_NET *401 0.0201259
*CONN
*I *696:DE I *D sky130_fd_sc_hd__edfxtp_1
*I *698:DE I *D sky130_fd_sc_hd__edfxtp_1
*I *699:DE I *D sky130_fd_sc_hd__edfxtp_1
*I *688:DE I *D sky130_fd_sc_hd__edfxtp_1
*I *692:DE I *D sky130_fd_sc_hd__edfxtp_1
*I *697:DE I *D sky130_fd_sc_hd__edfxtp_1
*I *695:DE I *D sky130_fd_sc_hd__edfxtp_1
*I *694:DE I *D sky130_fd_sc_hd__edfxtp_1
*I *907:X O *D sky130_fd_sc_hd__buf_16
*CAP
1 *696:DE 0.00056221
2 *698:DE 5.50156e-05
3 *699:DE 0.000983603
4 *688:DE 0.000345791
5 *692:DE 0.00070748
6 *697:DE 0
7 *695:DE 2.30055e-05
8 *694:DE 0.000450133
9 *907:X 0.000703746
10 *401:68 0.00232886
11 *401:56 0.00238186
12 *401:52 0.00104306
13 *401:46 0.0014363
14 *401:39 0.000147935
15 *401:10 0.00103767
16 *688:DE *688:CLK 9.79372e-06
17 *688:DE *861:A 4.68256e-05
18 *688:DE *414:150 0.000165463
19 *692:DE *678:B 0.000101148
20 *692:DE *861:A 0.000392025
21 *692:DE *414:118 0.000539083
22 *692:DE *414:128 4.51619e-05
23 *692:DE *414:150 0.000307
24 *692:DE *416:12 3.80436e-07
25 *695:DE *410:101 2.90638e-06
26 *696:DE *642:A1 0.000386759
27 *699:DE *459:66 0
28 *401:39 *697:CLK 3.00829e-05
29 *401:52 *483:B 3.51249e-05
30 *401:52 *605:A1 4.90613e-05
31 *401:52 *431:12 2.47142e-05
32 *401:52 *446:14 0.000139427
33 *401:52 *459:66 0
34 *401:56 *431:12 0.000109777
35 *401:68 *604:A 0.000189558
36 *401:68 *605:A2 2.20702e-05
37 *401:68 *886:A 0.000253367
38 resp_msg[3] *694:DE 0
39 *483:A *401:52 6.66538e-05
40 *490:A *694:DE 0.000250829
41 *490:A *401:10 9.26873e-05
42 *534:A2 *401:68 7.04109e-05
43 *605:B1 *698:DE 4.69495e-06
44 *605:B1 *401:52 4.32489e-05
45 *605:B1 *401:56 2.25583e-07
46 *636:A *699:DE 5.25142e-05
47 *638:B *699:DE 0
48 *642:B1 *696:DE 3.51249e-05
49 *645:A2 *696:DE 0
50 *645:B1 *696:DE 0.000174205
51 *647:A1 *401:10 6.13051e-05
52 *647:B1 *401:10 1.19705e-05
53 *648:A *694:DE 0
54 *667:C *692:DE 7.18205e-05
55 *696:D *696:DE 3.15919e-05
56 *697:D *696:DE 6.46815e-05
57 *697:D *401:39 6.55363e-05
58 *697:D *401:46 3.59042e-05
59 *697:D *401:52 0.000116175
60 *698:D *698:DE 3.39728e-05
61 *698:D *401:56 3.13292e-05
62 *796:A *694:DE 9.77871e-05
63 *799:A *694:DE 0
64 *831:A *694:DE 4.4037e-05
65 *869:A *694:DE 0.000109033
66 *869:A *401:10 3.84177e-05
67 *888:A *688:DE 1.94615e-05
68 *888:A *692:DE 4.81015e-05
69 *973:A *401:68 0.000684979
70 *45:19 *401:68 2.91831e-05
71 *132:18 *401:56 0.000191526
72 *157:12 *688:DE 0.000523901
73 *176:18 *692:DE 8.53392e-05
74 *178:12 *694:DE 6.4304e-05
75 *180:24 *401:52 0.000117649
76 *181:10 *696:DE 2.22974e-05
77 *182:16 *699:DE 1.2894e-05
78 *182:16 *401:68 6.11359e-06
79 *195:14 *401:52 0.000243189
80 *196:10 *401:52 3.87022e-06
81 *196:25 *401:52 9.16055e-05
82 *198:14 *699:DE 0.000228593
83 *198:22 *699:DE 0.000370815
84 *215:22 *699:DE 3.9094e-05
85 *281:20 *699:DE 0
86 *336:10 *688:DE 0.000417216
87 *355:12 *401:68 1.83795e-06
88 *355:39 *401:68 8.21761e-06
89 *369:12 *401:52 6.6664e-05
90 *377:39 *401:52 0.000188517
*RES
1 *907:X *401:10 22.9598 
2 *401:10 *694:DE 28.2165 
3 *401:10 *695:DE 14.153 
4 *907:X *401:39 12.5105 
5 *401:39 *697:DE 9.24915 
6 *401:39 *401:46 0.403896 
7 *401:46 *401:52 32.1875 
8 *401:52 *401:56 9.44639 
9 *401:56 *401:68 34.6655 
10 *401:68 *692:DE 40.8425 
11 *401:68 *688:DE 28.2553 
12 *401:56 *699:DE 35.5753 
13 *401:52 *698:DE 15.2645 
14 *401:46 *696:DE 34.3616 
*END

*D_NET *461 0.00156509
*CONN
*I *937:A I *D sky130_fd_sc_hd__buf_4
*I *970:X O *D sky130_fd_sc_hd__buf_4
*CAP
1 *937:A 0.000289418
2 *970:X 0.000289418
3 resp_msg[15] *937:A 0.000264586
4 *517:A1 *937:A 0.000200251
5 *652:A2 *937:A 8.64186e-05
6 *654:A *937:A 0
7 *275:14 *937:A 0.000375027
8 *421:60 *937:A 5.99691e-05
*RES
1 *970:X *937:A 38.9245 
*END

*D_NET *462 0.000784167
*CONN
*I *603:B I *D sky130_fd_sc_hd__nand2_4
*I *971:X O *D sky130_fd_sc_hd__buf_4
*CAP
1 *603:B 0.000313427
2 *971:X 0.000313427
3 *41:14 *603:B 0.000157313
*RES
1 *971:X *603:B 35.0423 
*END

*D_NET *463 0.00100732
*CONN
*I *634:B I *D sky130_fd_sc_hd__nand2_2
*I *972:X O *D sky130_fd_sc_hd__buf_4
*CAP
1 *634:B 0.000141673
2 *972:X 0.000141673
3 *535:A1 *634:B 0.00017504
4 *535:B1 *634:B 0.00017254
5 *536:B1 *634:B 6.08467e-05
6 *886:A *634:B 0.000171427
7 *972:A *634:B 0.000118166
8 *50:8 *634:B 2.59533e-05
*RES
1 *972:X *634:B 34.2654 
*END

*D_NET *464 0.00105588
*CONN
*I *605:A2 I *D sky130_fd_sc_hd__a31oi_4
*I *973:X O *D sky130_fd_sc_hd__buf_4
*CAP
1 *605:A2 0.000268958
2 *973:X 0.000268958
3 *605:A1 *605:A2 2.36116e-05
4 *605:A3 *605:A2 0.000139776
5 *634:A *605:A2 7.08723e-06
6 *973:A *605:A2 5.07314e-05
7 *182:16 *605:A2 0.000217951
8 *401:68 *605:A2 2.20702e-05
9 *431:12 *605:A2 5.15121e-05
10 *446:14 *605:A2 5.22654e-06
*RES
1 *973:X *605:A2 36.2853 
*END

*D_NET *465 0.00066088
*CONN
*I *616:A I *D sky130_fd_sc_hd__xor2_2
*I *974:X O *D sky130_fd_sc_hd__buf_6
*CAP
1 *616:A 0.000152604
2 *974:X 0.000152604
3 *610:A2 *616:A 0.000158451
4 *621:A1 *616:A 0.00012146
5 *374:35 *616:A 6.03986e-06
6 *375:32 *616:A 6.97203e-05
*RES
1 *974:X *616:A 32.4086 
*END

*D_NET *275 0.00396733
*CONN
*I *828:A I *D sky130_fd_sc_hd__buf_2
*I *562:Y O *D sky130_fd_sc_hd__xnor2_2
*CAP
1 *828:A 0
2 *562:Y 0.000870321
3 *275:14 0.000870321
4 *275:14 *488:A1 0.00012136
5 *275:14 *562:B 8.95297e-05
6 *275:14 *650:A0 1.71442e-05
7 *275:14 *650:A1 0.000174205
8 *275:14 *668:A 0.000360231
9 *275:14 *810:A 0.000174205
10 *275:14 *937:A 0.000375027
11 *275:14 *421:60 6.92705e-05
12 *474:A1 *275:14 0.000107496
13 *474:A2 *275:14 0
14 *488:B1 *275:14 5.46221e-05
15 *970:A *275:14 0.000153008
16 *20:8 *275:14 7.48503e-05
17 *164:12 *275:14 0.000455741
*RES
1 *562:Y *275:14 49.91 
2 *275:14 *828:A 9.24915 
*END

*D_NET *466 0.00219058
*CONN
*I *629:A I *D sky130_fd_sc_hd__nand2_2
*I *975:X O *D sky130_fd_sc_hd__buf_4
*CAP
1 *629:A 0.000945368
2 *975:X 0.000945368
3 *624:B *629:A 3.27606e-06
4 *629:B *629:A 1.83825e-05
5 *633:B1 *629:A 7.09666e-06
6 *947:A *629:A 0.000110458
7 *949:A *629:A 4.66889e-05
8 *129:20 *629:A 6.27718e-05
9 *183:33 *629:A 1.16552e-05
10 *355:82 *629:A 3.95165e-05
*RES
1 *975:X *629:A 44.257 
*END

*D_NET *430 0.00176628
*CONN
*I *941:A I *D sky130_fd_sc_hd__buf_6
*I *939:X O *D sky130_fd_sc_hd__buf_4
*CAP
1 *941:A 0.000699146
2 *939:X 0.000699146
3 *941:A *579:C1 0
4 resp_msg[13] *941:A 1.93781e-05
5 *592:A *941:A 0.000234337
6 *807:A *941:A 0
7 *939:A *941:A 0.000114271
*RES
1 *939:X *941:A 46.112 
*END

*D_NET *435 0.000783398
*CONN
*I *850:A I *D sky130_fd_sc_hd__buf_6
*I *944:X O *D sky130_fd_sc_hd__buf_4
*CAP
1 *850:A 0.000191502
2 *944:X 0.000191502
3 *565:A *850:A 0.000286123
4 *58:18 *850:A 0.000114271
*RES
1 *944:X *850:A 24.9606 
*END

*D_NET *441 0.00361734
*CONN
*I *678:A I *D sky130_fd_sc_hd__nand2_4
*I *562:B I *D sky130_fd_sc_hd__xnor2_2
*I *950:X O *D sky130_fd_sc_hd__buf_6
*CAP
1 *678:A 0.000412216
2 *562:B 0.000676361
3 *950:X 0.000142425
4 *441:12 0.001231
5 *474:A1 *562:B 0.000120471
6 *571:A *562:B 7.12896e-05
7 *572:B *562:B 0
8 *572:C *562:B 0
9 *572:C *441:12 0
10 *678:B *562:B 0
11 *679:A *678:A 0.00033061
12 *75:10 *441:12 0.000100162
13 *164:12 *562:B 0.000365109
14 *275:14 *562:B 8.95297e-05
15 *403:27 *562:B 2.85997e-05
16 *414:118 *678:A 4.95616e-05
*RES
1 *950:X *441:12 17.4379 
2 *441:12 *562:B 30.1769 
3 *441:12 *678:A 21.4171 
*END

*D_NET *467 0.000905363
*CONN
*I *647:A2 I *D sky130_fd_sc_hd__a21oi_2
*I *976:X O *D sky130_fd_sc_hd__buf_4
*CAP
1 *647:A2 0.00027386
2 *976:X 0.00027386
3 *490:B *647:A2 0.00015617
4 *649:A1 *647:A2 4.97938e-05
5 *694:CLK *647:A2 1.07248e-05
6 *178:12 *647:A2 2.17105e-05
7 *416:24 *647:A2 0.000119244
*RES
1 *976:X *647:A2 38.3322 
*END

*D_NET *276 0.00240361
*CONN
*I *653:A1 I *D sky130_fd_sc_hd__mux2i_1
*I *829:A I *D sky130_fd_sc_hd__buf_2
*I *492:Y O *D sky130_fd_sc_hd__xnor2_1
*CAP
1 *653:A1 0
2 *829:A 0.000426015
3 *492:Y 0.000201462
4 *276:12 0.000627477
5 *829:A *668:C 0.000129968
6 *829:A *352:12 0
7 *829:A *395:14 0.000115753
8 *829:A *412:20 1.22289e-05
9 *276:12 *491:B 0.000158452
10 *276:12 *352:12 0
11 *276:12 *412:16 0.000120052
12 *276:12 *412:20 0.000245628
13 *492:B *276:12 4.47713e-05
14 *654:A *829:A 0
15 *655:A2 *829:A 0.000317619
16 *658:A *829:A 0
17 *693:D *829:A 0
18 *901:A *276:12 4.18215e-06
*RES
1 *492:Y *276:12 21.468 
2 *276:12 *829:A 26.3777 
3 *276:12 *653:A1 13.7491 
*END

*D_NET *277 0.00286352
*CONN
*I *830:A I *D sky130_fd_sc_hd__buf_2
*I *650:A1 I *D sky130_fd_sc_hd__mux2i_1
*I *490:Y O *D sky130_fd_sc_hd__nand2_1
*CAP
1 *830:A 0
2 *650:A1 0.000267057
3 *490:Y 0.000374027
4 *277:8 0.000641085
5 *650:A1 resp_msg[15] 0.000123691
6 *650:A1 resp_msg[2] 0
7 *650:A1 *810:A 1.23455e-05
8 *650:A1 *421:97 0.000324151
9 *277:8 resp_msg[2] 6.50727e-05
10 *277:8 *648:B 0.000158371
11 *277:8 *421:97 0.000217947
12 *277:8 *421:106 3.61993e-05
13 *649:B1 *277:8 2.41483e-05
14 *680:A *650:A1 0.000271044
15 *970:A *650:A1 0.000174175
16 *275:14 *650:A1 0.000174205
*RES
1 *490:Y *277:8 19.4249 
2 *277:8 *650:A1 29.0081 
3 *277:8 *830:A 9.24915 
*END

*D_NET *419 0.00166145
*CONN
*I *629:B I *D sky130_fd_sc_hd__nand2_2
*I *925:X O *D sky130_fd_sc_hd__buf_4
*CAP
1 *629:B 0.000264731
2 *925:X 0.000264731
3 *629:B *629:A 1.83825e-05
4 *629:B *459:66 3.16904e-05
5 *609:A3 *629:B 0.000137936
6 *633:A2 *629:B 0.000311263
7 *925:A *629:B 0.000264614
8 *41:14 *629:B 0.000286312
9 *231:12 *629:B 5.04829e-06
10 *341:14 *629:B 2.41483e-05
11 *355:82 *629:B 5.25928e-05
*RES
1 *925:X *629:B 39.0583 
*END

*D_NET *278 0.00225752
*CONN
*I *647:A1 I *D sky130_fd_sc_hd__a21oi_2
*I *831:A I *D sky130_fd_sc_hd__buf_2
*I *486:Y O *D sky130_fd_sc_hd__xnor2_2
*CAP
1 *647:A1 0.0001103
2 *831:A 0.000312715
3 *486:Y 0.000149776
4 *278:12 0.00057279
5 *647:A1 *401:10 6.13051e-05
6 *831:A resp_msg[3] 4.30017e-06
7 *831:A *646:A 9.86603e-05
8 *831:A *694:DE 4.4037e-05
9 *831:A *811:A 0
10 *831:A *812:A 0.000118166
11 *278:12 *453:18 1.58551e-05
12 *486:B *278:12 5.04829e-06
13 *647:B1 *647:A1 6.08467e-05
14 *647:B1 *278:12 0.000144525
15 *649:A1 *647:A1 7.01935e-06
16 *869:A *831:A 0.000381917
17 *869:A *278:12 0.000159968
18 *907:A *831:A 3.00174e-06
19 *907:A *278:12 7.28994e-06
*RES
1 *486:Y *278:12 18.6836 
2 *278:12 *831:A 24.7489 
3 *278:12 *647:A1 16.691 
*END

*D_NET *279 0.00189091
*CONN
*I *956:A I *D sky130_fd_sc_hd__buf_4
*I *957:A I *D sky130_fd_sc_hd__buf_4
*I *483:X O *D sky130_fd_sc_hd__xor2_2
*CAP
1 *956:A 0.00021509
2 *957:A 0.000584791
3 *483:X 0
4 *279:4 0.000799881
5 *957:A *513:S 1.64066e-05
6 *957:A *514:S 7.42689e-05
7 *957:A *640:A0 0
8 *957:A *714:CLK 6.77815e-05
9 *957:A *848:A 0.000101148
10 *957:A *379:10 0
11 *532:A1 *957:A 0
12 *856:A *957:A 3.1546e-05
13 *181:10 *957:A 0
*RES
1 *483:X *279:4 9.24915 
2 *279:4 *957:A 33.1256 
3 *279:4 *956:A 13.8789 
*END

*D_NET *437 0.00117458
*CONN
*I *833:A I *D sky130_fd_sc_hd__buf_2
*I *946:X O *D sky130_fd_sc_hd__buf_4
*CAP
1 *833:A 0.000339635
2 *946:X 0.000339635
3 *833:A *848:A 0.00027329
4 *514:A1 *833:A 5.07314e-05
5 *946:A *833:A 0.000171288
*RES
1 *946:X *833:A 37.1536 
*END

*D_NET *280 0.000959693
*CONN
*I *954:A I *D sky130_fd_sc_hd__buf_4
*I *946:A I *D sky130_fd_sc_hd__buf_4
*I *481:Y O *D sky130_fd_sc_hd__xnor2_1
*CAP
1 *954:A 0
2 *946:A 7.78325e-05
3 *481:Y 0.000238268
4 *280:10 0.000316101
5 *946:A *833:A 0.000171288
6 *946:A *848:A 6.9815e-05
7 *280:10 *832:A 0
8 *481:A *946:A 1.41291e-05
9 *481:B *946:A 3.14978e-05
10 *514:A1 *280:10 4.07614e-05
*RES
1 *481:Y *280:10 24.2337 
2 *280:10 *946:A 12.7456 
3 *280:10 *954:A 9.24915 
*END

*D_NET *420 0.000369965
*CONN
*I *635:B I *D sky130_fd_sc_hd__xnor2_1
*I *926:X O *D sky130_fd_sc_hd__buf_4
*CAP
1 *635:B 2.31887e-05
2 *926:X 2.31887e-05
3 *182:16 *635:B 0.000222836
4 *198:14 *635:B 0.000100752
*RES
1 *926:X *635:B 20.8855 
*END

*D_NET *281 0.00237531
*CONN
*I *834:A I *D sky130_fd_sc_hd__dlygate4sd2_1
*I *953:A I *D sky130_fd_sc_hd__buf_4
*I *636:Y O *D sky130_fd_sc_hd__xnor2_2
*CAP
1 *834:A 0.000447553
2 *953:A 1.95691e-05
3 *636:Y 0.000253852
4 *281:20 0.000720974
5 *834:A *637:A1 5.09367e-05
6 *834:A *800:A 0.000151125
7 *834:A *282:12 0.000117831
8 *953:A *637:A1 0.000122424
9 *281:20 *638:B 6.42582e-06
10 *281:20 *699:DE 0
11 *281:20 *699:CLK 3.20264e-05
12 *281:20 *355:63 3.35199e-05
13 *636:A *281:20 1.99054e-05
14 *638:A *834:A 0.000250563
15 *638:A *953:A 1.02267e-05
16 *638:A *281:20 0.000123927
17 *198:14 *834:A 1.44467e-05
*RES
1 *636:Y *281:20 25.6244 
2 *281:20 *953:A 11.142 
3 *281:20 *834:A 31.8108 
*END

*D_NET *450 0.00325487
*CONN
*I *668:A I *D sky130_fd_sc_hd__nor4_1
*I *650:A0 I *D sky130_fd_sc_hd__mux2i_1
*I *959:X O *D sky130_fd_sc_hd__buf_4
*CAP
1 *668:A 0.000262788
2 *650:A0 0.000386609
3 *959:X 0.000212922
4 *450:6 0.000862319
5 *488:A1 *668:A 1.50924e-05
6 *517:A0 *650:A0 7.92757e-06
7 *517:A0 *450:6 5.05841e-05
8 *517:A1 *650:A0 0
9 *652:A2 *650:A0 0.000104731
10 *668:B *668:A 2.16355e-05
11 *810:A *650:A0 0.000127746
12 *959:A *450:6 6.78549e-05
13 *962:A *650:A0 0.000160617
14 *970:A *668:A 0.000222301
15 *164:12 *650:A0 0.000123582
16 *164:12 *668:A 0.000146652
17 *275:14 *650:A0 1.71442e-05
18 *275:14 *668:A 0.000360231
19 *421:54 *650:A0 5.3697e-05
20 *421:60 *650:A0 5.044e-05
*RES
1 *959:X *450:6 14.964 
2 *450:6 *650:A0 30.7734 
3 *450:6 *668:A 36.9787 
*END

*D_NET *373 0.000988852
*CONN
*I *892:A I *D sky130_fd_sc_hd__buf_6
*I *879:X O *D sky130_fd_sc_hd__buf_4
*CAP
1 *892:A 0.000229322
2 *879:X 0.000229322
3 *892:A *653:S 8.13533e-05
4 *892:A *412:20 0
5 *892:A *414:28 3.10029e-05
6 *892:A *428:16 0.00030843
7 *470:B *892:A 4.66492e-05
8 *879:A *892:A 6.27718e-05
*RES
1 *879:X *892:A 34.4877 
*END

*D_NET *238 0.000300503
*CONN
*I *500:A1 I *D sky130_fd_sc_hd__mux2_4
*I *564:X O *D sky130_fd_sc_hd__clkdlybuf4s50_1
*CAP
1 *500:A1 0.000129025
2 *564:X 0.000129025
3 *500:A1 *500:A0 4.24529e-05
*RES
1 *564:X *500:A1 22.0188 
*END

*D_NET *282 0.0030123
*CONN
*I *843:A I *D sky130_fd_sc_hd__buf_4
*I *835:A I *D sky130_fd_sc_hd__buf_2
*I *630:Y O *D sky130_fd_sc_hd__xnor2_2
*CAP
1 *843:A 0.000452932
2 *835:A 0
3 *630:Y 0.000326629
4 *282:12 0.00077956
5 *843:A *631:A1 4.47179e-05
6 *843:A *632:B 8.25705e-05
7 *843:A *801:A 0.000451702
8 *282:12 *630:A 0
9 *282:12 *801:A 0.000147367
10 *282:12 *815:A 0.000244565
11 *632:A *843:A 4.36818e-05
12 *633:B1 *843:A 1.37189e-05
13 *715:D *843:A 0.000307029
14 *834:A *282:12 0.000117831
15 *129:20 *282:12 0
*RES
1 *630:Y *282:12 27.1727 
2 *282:12 *835:A 9.24915 
3 *282:12 *843:A 22.9454 
*END

*D_NET *458 0.00146551
*CONN
*I *635:A I *D sky130_fd_sc_hd__xnor2_1
*I *513:A0 I *D sky130_fd_sc_hd__mux2_4
*I *967:X O *D sky130_fd_sc_hd__buf_6
*CAP
1 *635:A 8.55689e-05
2 *513:A0 0.000119854
3 *967:X 0.000120699
4 *458:10 0.000326122
5 *967:A *635:A 0.000324843
6 *967:A *458:10 0.000121197
7 *198:14 *513:A0 0
8 *198:14 *635:A 0.000324843
9 *198:14 *458:10 4.23874e-05
*RES
1 *967:X *458:10 17.2697 
2 *458:10 *513:A0 16.4116 
3 *458:10 *635:A 18.2471 
*END

*D_NET *402 0.000684969
*CONN
*I *605:A3 I *D sky130_fd_sc_hd__a31oi_4
*I *908:X O *D sky130_fd_sc_hd__buf_4
*CAP
1 *605:A3 0.00024009
2 *908:X 0.00024009
3 *605:A3 *605:A2 0.000139776
4 *605:A3 *698:CLK 6.50132e-05
5 *533:A2 *605:A3 0
6 *535:B1 *605:A3 0
*RES
1 *908:X *605:A3 33.8981 
*END

*D_NET *283 0.00199498
*CONN
*I *836:A I *D sky130_fd_sc_hd__buf_2
*I *948:A I *D sky130_fd_sc_hd__buf_4
*I *624:Y O *D sky130_fd_sc_hd__xnor2_2
*CAP
1 *836:A 6.40627e-05
2 *948:A 0.000366608
3 *624:Y 0.000310613
4 *283:12 0.000741284
5 *948:A resp_msg[10] 3.46262e-05
6 *948:A *512:S 0
7 *948:A *816:A 0
8 *948:A *845:A 0.000122378
9 *283:12 resp_msg[8] 0
10 *283:12 *816:A 1.03594e-05
11 *283:12 *975:A 0.000196376
12 *510:B *836:A 2.84892e-05
13 *510:B *283:12 5.26719e-05
14 *823:A *948:A 6.75138e-05
*RES
1 *624:Y *283:12 27.0361 
2 *283:12 *948:A 28.006 
3 *283:12 *836:A 11.0817 
*END

*D_NET *284 0.00456809
*CONN
*I *837:A I *D sky130_fd_sc_hd__buf_2
*I *621:A1 I *D sky130_fd_sc_hd__mux2i_1
*I *620:Y O *D sky130_fd_sc_hd__xnor2_2
*CAP
1 *837:A 0.0007553
2 *621:A1 0.000308494
3 *620:Y 0.000269953
4 *284:8 0.00133375
5 *621:A1 *610:A2 3.57037e-05
6 *621:A1 *616:A 0.00012146
7 *621:A1 *617:A 0.000102003
8 *621:A1 *621:A0 1.55025e-05
9 *621:A1 *621:S 2.01028e-05
10 *621:A1 *374:12 6.36477e-05
11 *621:A1 *374:35 0.000175168
12 *621:A1 *375:32 6.50727e-05
13 *837:A *627:B 0
14 *837:A *374:10 7.46068e-05
15 *837:A *375:32 6.08697e-06
16 *284:8 *617:A 0.000652094
17 *610:A3 *621:A1 6.36477e-05
18 *610:A3 *837:A 0.000169077
19 *623:A2 *621:A1 1.32165e-05
20 *627:A *837:A 0.000224381
21 *859:A *284:8 0
22 *880:A *621:A1 0
23 *880:A *837:A 3.0247e-05
24 *37:8 *837:A 6.85778e-05
*RES
1 *620:Y *284:8 17.2065 
2 *284:8 *621:A1 27.3471 
3 *284:8 *837:A 37.8327 
*END

*D_NET *286 0.00325093
*CONN
*I *838:A I *D sky130_fd_sc_hd__buf_2
*I *664:B1 I *D sky130_fd_sc_hd__a221o_1
*I *663:Y O *D sky130_fd_sc_hd__nor2_4
*CAP
1 *838:A 0.000518156
2 *664:B1 0
3 *663:Y 0.000581942
4 *286:10 0.0011001
5 *838:A resp_val 5.0715e-05
6 *838:A *683:CLK 0.000180012
7 *838:A *412:119 0.000122083
8 *286:10 *411:10 7.34948e-06
9 *286:10 *412:119 0.000350319
10 *672:A2 *286:10 0
11 *674:B *286:10 0.000143161
12 *917:A *838:A 3.88655e-06
13 *917:A *286:10 0.000169183
14 *268:10 *838:A 2.40299e-05
*RES
1 *663:Y *286:10 29.601 
2 *286:10 *664:B1 13.7491 
3 *286:10 *838:A 25.0871 
*END

*D_NET *239 0.000900578
*CONN
*I *497:B I *D sky130_fd_sc_hd__nand2_2
*I *545:X O *D sky130_fd_sc_hd__clkdlybuf4s50_1
*CAP
1 *497:B 0.000408056
2 *545:X 0.000408056
3 *497:B *498:A1 1.59362e-06
4 *497:B *457:12 6.84737e-05
5 *545:A *497:B 1.43983e-05
*RES
1 *545:X *497:B 36.0094 
*END

*D_NET *240 0.00339534
*CONN
*I *682:A1 I *D sky130_fd_sc_hd__mux2_4
*I *499:X O *D sky130_fd_sc_hd__clkdlybuf4s50_1
*CAP
1 *682:A1 0.00115027
2 *499:X 0.00115027
3 *682:A1 *662:B 6.54273e-05
4 *682:A1 *676:A 1.03403e-05
5 *682:A1 *682:S 0.000236589
6 *682:A1 *821:A 1.94412e-05
7 *682:A1 *412:113 0.00056584
8 *682:A1 *412:119 1.83992e-05
9 *682:A1 *455:18 0.00010886
10 *685:D *682:A1 6.25883e-06
11 *169:8 *682:A1 6.36477e-05
*RES
1 *499:X *682:A1 46.3008 
*END

*D_NET *241 0.000667338
*CONN
*I *658:A I *D sky130_fd_sc_hd__nand2_1
*I *496:X O *D sky130_fd_sc_hd__clkdlybuf4s50_1
*CAP
1 *658:A 0.000296196
2 *496:X 0.000296196
3 *658:A *518:A1 0
4 *658:A *829:A 0
5 *496:A *658:A 7.49459e-05
6 *659:B1 *658:A 0
*RES
1 *496:X *658:A 33.1026 
*END

*D_NET *242 0.00149562
*CONN
*I *654:A I *D sky130_fd_sc_hd__nand2_1
*I *495:X O *D sky130_fd_sc_hd__clkdlybuf4s50_1
*CAP
1 *654:A 0.000516047
2 *495:X 0.000516047
3 *654:A resp_msg[1] 0
4 *654:A *517:A1 0
5 *654:A *808:A 4.30017e-06
6 *654:A *829:A 0
7 *654:A *937:A 0
8 *654:A *421:168 0.000216458
9 *654:A *423:45 9.46208e-05
10 *177:12 *654:A 0.000148144
*RES
1 *495:X *654:A 41.0246 
*END

*D_NET *105 0.000390409
*CONN
*P req_msg[0] I
*I *596:A I *D sky130_fd_sc_hd__clkdlybuf4s50_1
*CAP
1 req_msg[0] 0.000195204
2 *596:A 0.000195204
3 *596:A *686:CLK 0
*RES
1 req_msg[0] *596:A 18.4339 
*END

*D_NET *103 0.0012096
*CONN
*P req_msg[10] I
*I *593:A I *D sky130_fd_sc_hd__clkdlybuf4s50_1
*CAP
1 req_msg[10] 0.000459035
2 *593:A 0.000459035
3 *593:A resp_msg[9] 0
4 *593:A *627:B 7.38059e-05
5 *593:A *628:B1 2.36463e-05
6 *593:A *700:DE 8.62625e-06
7 *593:A *700:CLK 0.000185447
*RES
1 req_msg[10] *593:A 26.0905 
*END

*D_NET *97 0.00190018
*CONN
*P req_msg[11] I
*I *583:A I *D sky130_fd_sc_hd__clkdlybuf4s50_1
*CAP
1 req_msg[11] 0.000831574
2 *583:A 0.000831574
3 *583:A resp_msg[11] 0
4 *583:A *597:B 0.00011818
5 *583:A *598:A2 1.43894e-05
6 *583:A *598:B1 1.47102e-05
7 *583:A *689:D 1.71154e-05
8 *577:A *583:A 7.26408e-05
*RES
1 req_msg[11] *583:A 29.4128 
*END

*D_NET *91 0.00190369
*CONN
*P req_msg[12] I
*I *577:A I *D sky130_fd_sc_hd__clkdlybuf4s50_1
*CAP
1 req_msg[12] 0.000505676
2 *577:A 0.000505676
3 *577:A resp_msg[11] 0
4 *577:A *501:A1 0.000176388
5 *577:A *583:A 7.26408e-05
6 *577:A *597:B 0.000146645
7 *577:A *598:A1 1.44611e-05
8 *577:A *598:B1 0
9 *577:A *689:D 0.0002646
10 *577:A *806:A 0
11 *577:A *825:A 0.000217602
*RES
1 req_msg[12] *577:A 30.8032 
*END

*D_NET *78 0.00025434
*CONN
*P req_msg[13] I
*I *564:A I *D sky130_fd_sc_hd__clkdlybuf4s50_1
*CAP
1 req_msg[13] 0.00012717
2 *564:A 0.00012717
3 *564:A *165:18 0
*RES
1 req_msg[13] *564:A 18.2045 
*END

*D_NET *60 0.000662743
*CONN
*P req_msg[14] I
*I *545:A I *D sky130_fd_sc_hd__clkdlybuf4s50_1
*CAP
1 req_msg[14] 0.000324172
2 *545:A 0.000324172
3 *545:A *497:B 1.43983e-05
*RES
1 req_msg[14] *545:A 21.6884 
*END

*D_NET *28 0.000314948
*CONN
*P req_msg[15] I
*I *499:A I *D sky130_fd_sc_hd__clkdlybuf4s50_1
*CAP
1 req_msg[15] 0.000157474
2 *499:A 0.000157474
3 *499:A *666:A1 0
*RES
1 req_msg[15] *499:A 19.035 
*END

*D_NET *26 0.000899659
*CONN
*P req_msg[16] I
*I *496:A I *D sky130_fd_sc_hd__clkdlybuf4s50_1
*CAP
1 req_msg[16] 0.000300166
2 *496:A 0.000300166
3 *496:A resp_msg[0] 0
4 *496:A *658:A 7.49459e-05
5 *496:A *797:A 0.000224381
6 *495:A *496:A 0
*RES
1 req_msg[16] *496:A 22.9786 
*END

*D_NET *25 0.000609686
*CONN
*P req_msg[17] I
*I *495:A I *D sky130_fd_sc_hd__clkdlybuf4s50_1
*CAP
1 req_msg[17] 0.000243547
2 *495:A 0.000243547
3 *495:A resp_msg[1] 0.000122592
4 *495:A *496:A 0
*RES
1 req_msg[17] *495:A 20.582 
*END

*D_NET *289 0.000452816
*CONN
*P req_msg[18] I
*I *795:A I *D sky130_fd_sc_hd__clkdlybuf4s50_1
*CAP
1 req_msg[18] 0.000196659
2 *795:A 0.000196659
3 *795:A resp_msg[15] 0
4 *795:A resp_msg[2] 0
5 *795:A *650:S 3.14978e-05
6 *795:A *810:A 2.79993e-05
*RES
1 req_msg[18] *795:A 19.0816 
*END

*D_NET *290 0.00116684
*CONN
*P req_msg[19] I
*I *796:A I *D sky130_fd_sc_hd__clkdlybuf4s50_1
*CAP
1 req_msg[19] 0.000348396
2 *796:A 0.000348396
3 *796:A resp_msg[3] 0
4 *796:A *694:DE 9.77871e-05
5 *796:A *694:CLK 0
6 *796:A *798:A 9.89738e-05
7 *796:A *812:A 0.00027329
8 *178:12 *796:A 0
*RES
1 req_msg[19] *796:A 24.8739 
*END

*D_NET *291 0.00120748
*CONN
*P req_msg[1] I
*I *797:A I *D sky130_fd_sc_hd__clkdlybuf4s50_1
*CAP
1 req_msg[1] 0.000461725
2 *797:A 0.000461725
3 *797:A resp_msg[0] 0
4 *496:A *797:A 0.000224381
5 *518:A1 *797:A 5.96542e-05
*RES
1 req_msg[1] *797:A 25.7369 
*END

*D_NET *292 0.00253472
*CONN
*P req_msg[20] I
*I *798:A I *D sky130_fd_sc_hd__clkdlybuf4s50_1
*CAP
1 req_msg[20] 0.0011987
2 *798:A 0.0011987
3 *798:A resp_msg[3] 0
4 *798:A *812:A 0
5 *796:A *798:A 9.89738e-05
6 *178:12 *798:A 3.8357e-05
*RES
1 req_msg[20] *798:A 43.3904 
*END

*D_NET *293 0.00198046
*CONN
*P req_msg[21] I
*I *799:A I *D sky130_fd_sc_hd__clkdlybuf4s50_1
*CAP
1 req_msg[21] 0.000637096
2 *799:A 0.000637096
3 *799:A resp_msg[3] 0.00017907
4 *799:A *694:DE 0
5 *799:A *696:CLK 7.09148e-05
6 *799:A *811:A 0.000224937
7 *799:A *812:A 0.000113968
8 *515:A1 *799:A 0.000117376
*RES
1 req_msg[21] *799:A 32.5231 
*END

*D_NET *294 0.0010587
*CONN
*P req_msg[22] I
*I *800:A I *D sky130_fd_sc_hd__clkdlybuf4s50_1
*CAP
1 req_msg[22] 0.000339529
2 *800:A 0.000339529
3 *800:A resp_msg[6] 0.000149653
4 *800:A *814:A 4.85568e-05
5 *800:A *815:A 0
6 *834:A *800:A 0.000151125
7 *198:14 *800:A 3.03035e-05
*RES
1 req_msg[22] *800:A 22.4772 
*END

*D_NET *295 0.00239995
*CONN
*P req_msg[23] I
*I *801:A I *D sky130_fd_sc_hd__clkdlybuf4s50_1
*CAP
1 req_msg[23] 0.000422866
2 *801:A 0.000422866
3 *801:A resp_msg[7] 0.000304089
4 *801:A *815:A 0.000296625
5 *632:A *801:A 0.000354433
6 *843:A *801:A 0.000451702
7 *282:12 *801:A 0.000147367
*RES
1 req_msg[23] *801:A 26.3588 
*END

*D_NET *296 0.000354588
*CONN
*P req_msg[24] I
*I *802:A I *D sky130_fd_sc_hd__clkdlybuf4s50_1
*CAP
1 req_msg[24] 0.00013503
2 *802:A 0.00013503
3 *802:A *804:A 8.45271e-05
*RES
1 req_msg[24] *802:A 17.6724 
*END

*D_NET *297 0.000579634
*CONN
*P req_msg[25] I
*I *803:A I *D sky130_fd_sc_hd__clkdlybuf4s50_1
*CAP
1 req_msg[25] 0.000211189
2 *803:A 0.000211189
3 *803:A *804:A 8.79855e-05
4 *627:A *803:A 6.92705e-05
*RES
1 req_msg[25] *803:A 19.8908 
*END

*D_NET *298 0.000724632
*CONN
*P req_msg[26] I
*I *804:A I *D sky130_fd_sc_hd__clkdlybuf4s50_1
*CAP
1 req_msg[26] 0.000261796
2 *804:A 0.000261796
3 *614:A *804:A 2.85274e-05
4 *802:A *804:A 8.45271e-05
5 *803:A *804:A 8.79855e-05
*RES
1 req_msg[26] *804:A 21.6884 
*END

*D_NET *299 0.00149685
*CONN
*P req_msg[27] I
*I *805:A I *D sky130_fd_sc_hd__clkdlybuf4s50_1
*CAP
1 req_msg[27] 0.000530571
2 *805:A 0.000530571
3 *805:A *592:A 0.000193492
4 *805:A *818:A 0.000181591
5 *805:A *819:A 6.0619e-05
6 *805:A *433:26 0
*RES
1 req_msg[27] *805:A 27.4816 
*END

*D_NET *300 0.000400244
*CONN
*P req_msg[28] I
*I *806:A I *D sky130_fd_sc_hd__clkdlybuf4s50_1
*CAP
1 req_msg[28] 0.000144376
2 *806:A 0.000144376
3 *806:A resp_msg[12] 4.64336e-05
4 *577:A *806:A 0
5 *825:A *806:A 6.50586e-05
*RES
1 req_msg[28] *806:A 17.6724 
*END

*D_NET *301 0.000461307
*CONN
*P req_msg[29] I
*I *807:A I *D sky130_fd_sc_hd__clkdlybuf4s50_1
*CAP
1 req_msg[29] 0.000230653
2 *807:A 0.000230653
3 *807:A resp_msg[13] 0
4 *807:A *941:A 0
*RES
1 req_msg[29] *807:A 21.4085 
*END

*D_NET *302 0.000463012
*CONN
*P req_msg[2] I
*I *808:A I *D sky130_fd_sc_hd__clkdlybuf4s50_1
*CAP
1 req_msg[2] 0.000229356
2 *808:A 0.000229356
3 *808:A resp_msg[15] 0
4 *808:A resp_msg[1] 0
5 *654:A *808:A 4.30017e-06
*RES
1 req_msg[2] *808:A 19.4728 
*END

*D_NET *303 0.00101052
*CONN
*P req_msg[30] I
*I *809:A I *D sky130_fd_sc_hd__clkdlybuf4s50_1
*CAP
1 req_msg[30] 0.000402581
2 *809:A 0.000402581
3 *809:A req_rdy 4.75789e-05
4 *809:A resp_val 4.66716e-05
5 *809:A *818:A 0
6 *809:A *819:A 5.05231e-05
7 *809:A *820:A 6.05835e-05
8 *683:D *809:A 0
9 *268:10 *809:A 0
*RES
1 req_msg[30] *809:A 25.4167 
*END

*D_NET *304 0.00149321
*CONN
*P req_msg[31] I
*I *810:A I *D sky130_fd_sc_hd__clkdlybuf4s50_1
*CAP
1 req_msg[31] 0.000332988
2 *810:A 0.000332988
3 *810:A resp_msg[15] 0.000383821
4 *810:A *650:A0 0.000127746
5 *650:A1 *810:A 1.23455e-05
6 *652:A2 *810:A 0.000101118
7 *795:A *810:A 2.79993e-05
8 *275:14 *810:A 0.000174205
*RES
1 req_msg[31] *810:A 26.8662 
*END

*D_NET *305 0.00117826
*CONN
*P req_msg[3] I
*I *811:A I *D sky130_fd_sc_hd__clkdlybuf4s50_1
*CAP
1 req_msg[3] 0.00043923
2 *811:A 0.00043923
3 *811:A *696:CLK 0
4 *811:A *421:106 7.48633e-05
5 *515:A1 *811:A 0
6 *799:A *811:A 0.000224937
7 *831:A *811:A 0
*RES
1 req_msg[3] *811:A 26.6714 
*END

*D_NET *306 0.00273543
*CONN
*P req_msg[4] I
*I *812:A I *D sky130_fd_sc_hd__clkdlybuf4s50_1
*CAP
1 req_msg[4] 0.000769791
2 *812:A 0.000769791
3 *812:A resp_msg[2] 0
4 *812:A resp_msg[3] 3.55357e-05
5 *812:A *650:S 0.000162423
6 *812:A *694:CLK 1.4581e-05
7 *812:A *421:221 0.000111722
8 *648:A *812:A 0.000224381
9 *651:A *812:A 0.000141782
10 *796:A *812:A 0.00027329
11 *798:A *812:A 0
12 *799:A *812:A 0.000113968
13 *831:A *812:A 0.000118166
*RES
1 req_msg[4] *812:A 37.6119 
*END

*D_NET *307 0.0012633
*CONN
*P req_msg[5] I
*I *813:A I *D sky130_fd_sc_hd__clkdlybuf4s50_1
*CAP
1 req_msg[5] 0.000539173
2 *813:A 0.000539173
3 *813:A resp_msg[4] 0
4 *813:A resp_msg[5] 0.000184956
*RES
1 req_msg[5] *813:A 19.166 
*END

*D_NET *308 0.000895704
*CONN
*P req_msg[6] I
*I *814:A I *D sky130_fd_sc_hd__clkdlybuf4s50_1
*CAP
1 req_msg[6] 0.000319221
2 *814:A 0.000319221
3 *814:A resp_msg[4] 0
4 *814:A resp_msg[6] 0.000138981
5 *800:A *814:A 4.85568e-05
6 *198:14 *814:A 6.97239e-05
*RES
1 req_msg[6] *814:A 19.3081 
*END

*D_NET *309 0.00181231
*CONN
*P req_msg[7] I
*I *815:A I *D sky130_fd_sc_hd__clkdlybuf4s50_1
*CAP
1 req_msg[7] 0.000624619
2 *815:A 0.000624619
3 *815:A resp_msg[7] 2.18821e-05
4 *800:A *815:A 0
5 *801:A *815:A 0.000296625
6 *183:10 *815:A 0
7 *282:12 *815:A 0.000244565
*RES
1 req_msg[7] *815:A 26.4439 
*END

*D_NET *310 0.00126076
*CONN
*P req_msg[8] I
*I *816:A I *D sky130_fd_sc_hd__clkdlybuf4s50_1
*CAP
1 req_msg[8] 0.000559659
2 *816:A 0.000559659
3 *816:A resp_msg[10] 0.000131087
4 *816:A resp_msg[8] 0
5 *948:A *816:A 0
6 *283:12 *816:A 1.03594e-05
*RES
1 req_msg[8] *816:A 20.6304 
*END

*D_NET *311 0.000753767
*CONN
*P req_msg[9] I
*I *817:A I *D sky130_fd_sc_hd__clkdlybuf4s50_1
*CAP
1 req_msg[9] 0.000376884
2 *817:A 0.000376884
*RES
1 req_msg[9] *817:A 18.8929 
*END

*D_NET *315 0.000891104
*CONN
*P req_rdy O
*I *821:X O *D sky130_fd_sc_hd__dlygate4sd2_1
*CAP
1 req_rdy 0.000385186
2 *821:X 0.000385186
3 req_rdy *664:A1 5.9765e-05
4 *665:A req_rdy 1.3388e-05
5 *809:A req_rdy 4.75789e-05
*RES
1 *821:X req_rdy 19.3081 
*END

*D_NET *312 0.000884976
*CONN
*P req_val I
*I *818:A I *D sky130_fd_sc_hd__dlygate4sd2_1
*CAP
1 req_val 0.000337816
2 *818:A 0.000337816
3 *818:A *820:A 2.77528e-05
4 *691:D *818:A 0
5 *805:A *818:A 0.000181591
6 *809:A *818:A 0
*RES
1 req_val *818:A 20.0621 
*END

*D_NET *313 0.000687812
*CONN
*P reset I
*I *819:A I *D sky130_fd_sc_hd__clkdlybuf4s50_1
*CAP
1 reset 0.000267072
2 *819:A 0.000267072
3 *819:A resp_msg[14] 4.25268e-05
4 *805:A *819:A 6.0619e-05
5 *809:A *819:A 5.05231e-05
*RES
1 reset *819:A 22.6957 
*END

*D_NET *316 0.000940555
*CONN
*P resp_msg[0] O
*I *822:X O *D sky130_fd_sc_hd__buf_2
*CAP
1 resp_msg[0] 0.000427799
2 *822:X 0.000427799
3 resp_msg[0] *659:A1 1.00937e-05
4 *496:A resp_msg[0] 0
5 *518:A1 resp_msg[0] 0
6 *659:B1 resp_msg[0] 7.48633e-05
7 *797:A resp_msg[0] 0
*RES
1 *822:X resp_msg[0] 23.0735 
*END

*D_NET *317 0.000491753
*CONN
*P resp_msg[10] O
*I *823:X O *D sky130_fd_sc_hd__buf_2
*CAP
1 resp_msg[10] 0.00016302
2 *823:X 0.00016302
3 *816:A resp_msg[10] 0.000131087
4 *948:A resp_msg[10] 3.46262e-05
*RES
1 *823:X resp_msg[10] 19.6032 
*END

*D_NET *318 0.000164744
*CONN
*P resp_msg[11] O
*I *824:X O *D sky130_fd_sc_hd__buf_2
*CAP
1 resp_msg[11] 8.23722e-05
2 *824:X 8.23722e-05
3 *577:A resp_msg[11] 0
4 *583:A resp_msg[11] 0
*RES
1 *824:X resp_msg[11] 15.7033 
*END

*D_NET *319 0.000643255
*CONN
*P resp_msg[12] O
*I *825:X O *D sky130_fd_sc_hd__buf_2
*CAP
1 resp_msg[12] 0.000234365
2 *825:X 0.000234365
3 *806:A resp_msg[12] 4.64336e-05
4 *825:A resp_msg[12] 0.000128091
*RES
1 *825:X resp_msg[12] 18.6451 
*END

*D_NET *320 0.000301815
*CONN
*P resp_msg[13] O
*I *826:X O *D sky130_fd_sc_hd__clkbuf_2
*CAP
1 resp_msg[13] 0.000141219
2 *826:X 0.000141219
3 resp_msg[13] *941:A 1.93781e-05
4 *807:A resp_msg[13] 0
*RES
1 *826:X resp_msg[13] 18.2809 
*END

*D_NET *321 0.00175141
*CONN
*P resp_msg[14] O
*I *827:X O *D sky130_fd_sc_hd__buf_2
*CAP
1 resp_msg[14] 0.00064246
2 *827:X 0.00064246
3 resp_msg[14] *592:A 1.80176e-05
4 *819:A resp_msg[14] 4.25268e-05
5 *854:A resp_msg[14] 0.000405947
*RES
1 *827:X resp_msg[14] 27.0939 
*END

*D_NET *322 0.00163531
*CONN
*P resp_msg[15] O
*I *828:X O *D sky130_fd_sc_hd__buf_2
*CAP
1 resp_msg[15] 0.000377858
2 *828:X 0.000377858
3 resp_msg[15] resp_msg[2] 0
4 resp_msg[15] *937:A 0.000264586
5 *650:A1 resp_msg[15] 0.000123691
6 *652:A2 resp_msg[15] 0.000107496
7 *795:A resp_msg[15] 0
8 *808:A resp_msg[15] 0
9 *810:A resp_msg[15] 0.000383821
*RES
1 *828:X resp_msg[15] 34.4923 
*END

*D_NET *323 0.0009336
*CONN
*P resp_msg[1] O
*I *829:X O *D sky130_fd_sc_hd__buf_2
*CAP
1 resp_msg[1] 0.000390817
2 *829:X 0.000390817
3 resp_msg[1] *421:60 2.9373e-05
4 *495:A resp_msg[1] 0.000122592
5 *654:A resp_msg[1] 0
6 *808:A resp_msg[1] 0
*RES
1 *829:X resp_msg[1] 23.4227 
*END

*D_NET *324 0.00102625
*CONN
*P resp_msg[2] O
*I *830:X O *D sky130_fd_sc_hd__buf_2
*CAP
1 resp_msg[2] 0.000442658
2 *830:X 0.000442658
3 resp_msg[2] *650:S 0
4 resp_msg[15] resp_msg[2] 0
5 *650:A1 resp_msg[2] 0
6 *651:A resp_msg[2] 0
7 *694:D resp_msg[2] 7.58595e-05
8 *795:A resp_msg[2] 0
9 *812:A resp_msg[2] 0
10 *970:A resp_msg[2] 0
11 *277:8 resp_msg[2] 6.50727e-05
*RES
1 *830:X resp_msg[2] 24.7317 
*END

*D_NET *325 0.000907452
*CONN
*P resp_msg[3] O
*I *831:X O *D sky130_fd_sc_hd__buf_2
*CAP
1 resp_msg[3] 0.000344273
2 *831:X 0.000344273
3 resp_msg[3] *694:DE 0
4 *796:A resp_msg[3] 0
5 *798:A resp_msg[3] 0
6 *799:A resp_msg[3] 0.00017907
7 *812:A resp_msg[3] 3.55357e-05
8 *831:A resp_msg[3] 4.30017e-06
*RES
1 *831:X resp_msg[3] 22.5189 
*END

*D_NET *326 0.000857732
*CONN
*P resp_msg[4] O
*I *832:X O *D sky130_fd_sc_hd__buf_2
*CAP
1 resp_msg[4] 0.000391141
2 *832:X 0.000391141
3 resp_msg[4] *832:A 7.54493e-05
4 *813:A resp_msg[4] 0
5 *814:A resp_msg[4] 0
*RES
1 *832:X resp_msg[4] 20.8161 
*END

*D_NET *327 0.000471579
*CONN
*P resp_msg[5] O
*I *833:X O *D sky130_fd_sc_hd__buf_2
*CAP
1 resp_msg[5] 0.000143311
2 *833:X 0.000143311
3 *813:A resp_msg[5] 0.000184956
*RES
1 *833:X resp_msg[5] 18.0952 
*END

*D_NET *328 0.00056744
*CONN
*P resp_msg[6] O
*I *834:X O *D sky130_fd_sc_hd__dlygate4sd2_1
*CAP
1 resp_msg[6] 0.000139403
2 *834:X 0.000139403
3 *800:A resp_msg[6] 0.000149653
4 *814:A resp_msg[6] 0.000138981
5 *198:14 resp_msg[6] 0
*RES
1 *834:X resp_msg[6] 19.6032 
*END

*D_NET *329 0.000813558
*CONN
*P resp_msg[7] O
*I *835:X O *D sky130_fd_sc_hd__buf_2
*CAP
1 resp_msg[7] 0.000243793
2 *835:X 0.000243793
3 resp_msg[7] resp_msg[8] 0
4 *801:A resp_msg[7] 0.000304089
5 *815:A resp_msg[7] 2.18821e-05
*RES
1 *835:X resp_msg[7] 18.4776 
*END

*D_NET *330 0.000624727
*CONN
*P resp_msg[8] O
*I *836:X O *D sky130_fd_sc_hd__buf_2
*CAP
1 resp_msg[8] 0.000312364
2 *836:X 0.000312364
3 resp_msg[7] resp_msg[8] 0
4 *816:A resp_msg[8] 0
5 *283:12 resp_msg[8] 0
*RES
1 *836:X resp_msg[8] 22.7722 
*END

*D_NET *331 0.000714972
*CONN
*P resp_msg[9] O
*I *837:X O *D sky130_fd_sc_hd__buf_2
*CAP
1 resp_msg[9] 0.000281366
2 *837:X 0.000281366
3 *593:A resp_msg[9] 0
4 *627:A resp_msg[9] 0.000152239
*RES
1 *837:X resp_msg[9] 19.1997 
*END

*D_NET *314 0.000660953
*CONN
*P resp_rdy I
*I *820:A I *D sky130_fd_sc_hd__clkdlybuf4s50_1
*CAP
1 resp_rdy 0.000254524
2 *820:A 0.000254524
3 *820:A resp_val 6.35688e-05
4 *683:D *820:A 0
5 *809:A *820:A 6.05835e-05
6 *818:A *820:A 2.77528e-05
*RES
1 resp_rdy *820:A 22.6957 
*END

*D_NET *332 0.000436214
*CONN
*P resp_val O
*I *838:X O *D sky130_fd_sc_hd__buf_2
*CAP
1 resp_val 0.000137629
2 *838:X 0.000137629
3 *809:A resp_val 4.66716e-05
4 *820:A resp_val 6.35688e-05
5 *838:A resp_val 5.0715e-05
*RES
1 *838:X resp_val 20.0234 
*END
