*SPEF "ieee 1481-1999"
*DESIGN "gcd"
*DATE "11:54:20 Wednesday October 07, 2026"
*VENDOR "The OpenROAD Project"
*PROGRAM "OpenROAD"
*VERSION "unknown"
*DESIGN_FLOW "NAME_SCOPE LOCAL" "PIN_CAP NONE"
*DIVIDER /
*DELIMITER :
*BUS_DELIMITER []
*T_UNIT 1 NS
*C_UNIT 1 PF
*R_UNIT 1 OHM
*L_UNIT 1 HENRY

*NAME_MAP
*2 _001_
*3 _002_
*4 _003_
*5 _004_
*6 _005_
*7 _006_
*8 _007_
*9 _008_
*10 _009_
*11 _010_
*12 _011_
*13 _012_
*14 _013_
*15 _014_
*16 _015_
*17 _016_
*18 _017_
*19 _018_
*20 _019_
*21 _020_
*22 _021_
*23 _022_
*24 _023_
*25 _024_
*26 _025_
*27 _026_
*28 _027_
*29 _028_
*30 _029_
*31 _030_
*32 _031_
*33 _032_
*34 _033_
*35 _034_
*36 _035_
*37 _036_
*38 _037_
*39 _038_
*40 _039_
*41 _040_
*42 _041_
*43 _042_
*44 _043_
*45 _044_
*46 _045_
*47 _046_
*48 _047_
*49 _048_
*50 _049_
*51 _050_
*52 _051_
*53 _052_
*54 _053_
*55 _054_
*56 _055_
*57 _056_
*58 _057_
*59 _058_
*60 _059_
*61 _060_
*62 _061_
*63 _062_
*64 _063_
*65 _064_
*66 _065_
*67 _066_
*68 _067_
*69 _068_
*70 _069_
*71 _070_
*72 _071_
*73 _072_
*74 _073_
*75 _074_
*76 _075_
*77 _076_
*78 _077_
*79 _078_
*80 _079_
*81 _080_
*82 _081_
*83 _082_
*84 _083_
*85 _084_
*86 _085_
*87 _086_
*88 _087_
*89 _088_
*90 _089_
*91 _090_
*92 _091_
*93 _092_
*94 _093_
*95 _094_
*96 _095_
*97 _096_
*98 _097_
*99 _098_
*100 _099_
*101 _100_
*102 _101_
*103 _102_
*104 _103_
*105 _104_
*106 _105_
*107 _106_
*108 _107_
*109 _108_
*110 _109_
*111 _110_
*112 _111_
*113 _112_
*114 _113_
*115 _114_
*116 _115_
*117 _116_
*118 _117_
*119 _118_
*255 _119_/_000_
*252 _119_/_001_
*247 _119_/_002_
*242 _119_/_003_
*240 _119_/_004_
*239 _119_/_005_
*237 _119_/_006_
*235 _119_/_007_
*233 _119_/_008_
*231 _119_/_009_
*229 _119_/_010_
*228 _119_/_011_
*227 _119_/_012_
*224 _119_/_013_
*222 _119_/_014_
*221 _119_/_015_
*220 _119_/_016_
*219 _119_/_017_
*218 _119_/_018_
*216 _119_/_019_
*214 _119_/_020_
*213 _119_/_021_
*211 _119_/_022_
*209 _119_/_023_
*208 _119_/_024_
*207 _119_/_025_
*206 _119_/_026_
*204 _119_/_027_
*202 _119_/_028_
*200 _119_/_029_
*198 _119_/_030_
*196 _119_/_031_
*195 _119_/_032_
*194 _119_/_033_
*193 _119_/_034_
*199 _119_/_035_
*191 _119_/_036_
*190 _119_/_037_
*189 _119_/_038_
*187 _119_/_039_
*185 _119_/_040_
*184 _119_/_041_
*182 _119_/_042_
*180 _119_/_043_
*179 _119_/_044_
*178 _119_/_045_
*176 _119_/_046_
*174 _119_/_047_
*1 _119_/_048_
*262 _119_/_049_
*264 _119_/_050_
*265 _119_/_051_
*266 _119_/_052_
*267 _119_/_053_
*269 _119_/_054_
*246 _119_/_055_
*272 _119_/_056_
*256 _119_/_057_
*258 _119_/_058_
*274 _119_/_059_
*276 _119_/_060_
*257 _119_/_061_
*278 _119_/_062_
*280 _119_/_063_
*282 _119_/_064_
*283 _119_/_065_
*284 _119_/_066_
*285 _119_/_067_
*286 _119_/_068_
*287 _119_/_069_
*288 _119_/_070_
*289 _119_/_071_
*290 _119_/_072_
*291 _119_/_073_
*292 _119_/_074_
*293 _119_/_075_
*299 _119_/_076_
*300 _119_/_077_
*301 _119_/_078_
*304 _119_/_079_
*305 _119_/_080_
*306 _119_/_081_
*307 _119_/_082_
*308 _119_/_083_
*310 _119_/_084_
*197 _119_/_085_
*311 _119_/_086_
*313 _119_/_087_
*314 _119_/_088_
*315 _119_/_089_
*316 _119_/_090_
*251 _119_/_091_
*319 _119_/_092_
*320 _119_/_093_
*321 _119_/_094_
*322 _119_/_095_
*323 _119_/_096_
*324 _119_/_097_
*325 _119_/_098_
*326 _119_/_099_
*328 _119_/_100_
*329 _119_/_101_
*225 _119_/_102_
*331 _119_/_103_
*332 _119_/_104_
*334 _119_/_105_
*223 _119_/_106_
*335 _119_/_107_
*336 _119_/_108_
*337 _119_/_109_
*250 _119_/_110_
*338 _119_/_111_
*340 _119_/_112_
*341 _119_/_113_
*254 _119_/_114_
*343 _119_/_115_
*344 _119_/_116_
*345 _119_/_117_
*346 _119_/_118_
*238 _119_/_119_
*347 _119_/_120_
*349 _119_/_121_
*350 _119_/_122_
*351 _119_/_123_
*352 _119_/_124_
*253 _119_/_125_
*249 _119_/_126_
*248 _119_/_127_
*361 _119_/net154
*365 _119_/net158
*437 _119_/net159
*366 _119_/net160
*438 _119_/net161
*367 _119_/net162
*369 _119_/net164
*370 _119_/net165
*371 _119_/net166
*372 _119_/net167
*373 _119_/net168
*374 _119_/net169
*375 _119_/net170
*376 _119_/net171
*377 _119_/net172
*439 _119_/net173
*378 _119_/net174
*379 _119_/net175
*380 _119_/net176
*440 _119_/net177
*381 _119_/net178
*382 _119_/net179
*441 _119_/net180
*385 _119_/net181
*386 _119_/net182
*387 _119_/net183
*392 _119_/net189
*391 _119_/net190
*393 _119_/net191
*394 _119_/net192
*396 _119_/net194
*398 _119_/net195
*399 _119_/net196
*400 _119_/net197
*452 _119_/net237
*453 _119_/net238
*454 _119_/net239
*455 _119_/net240
*456 _119_/net242
*457 _119_/net243
*458 _119_/net244
*460 _119_/net246
*461 _119_/net247
*462 _119_/net248
*464 _119_/net250
*466 _119_/net252
*467 _119_/net272
*468 _119_/net273
*469 _119_/net274
*475 _119_/net300
*476 _119_/net302
*477 _119_/net303
*479 _119_/net305
*483 _119_/net310
*363 _119_/net315
*485 _119_/net316
*486 _119_/net317
*487 _119_/net329
*493 _119_/net337
*494 _119_/net338
*496 _119_/net340
*497 _119_/net341
*499 _119_/net345
*360 _119_/net347
*501 _119_/net348
*502 _119_/net353
*503 _119_/net361
*504 _119_/net362
*505 _119_/net363
*506 _119_/net364
*510 _119_/net368
*511 _119_/net369
*512 _119_/net370
*513 _119_/net371
*470 _119_/net391
*491 _119_/net409
*120 clk
*432 clknet_0_clk
*429 clknet_2_0__leaf_clk
*444 clknet_2_1__leaf_clk
*445 clknet_2_2__leaf_clk
*446 clknet_2_3__leaf_clk
*128 net10
*129 net11
*130 net12
*131 net13
*132 net14
*433 net147
*434 net148
*359 net149
*133 net15
*435 net151
*436 net152
*134 net16
*135 net17
*136 net18
*388 net184
*384 net185
*383 net186
*442 net187
*390 net188
*137 net19
*397 net198
*401 net199
*138 net20
*402 net200
*403 net201
*404 net202
*405 net203
*406 net204
*407 net205
*409 net206
*410 net207
*411 net208
*412 net209
*139 net21
*413 net210
*414 net211
*408 net212
*415 net213
*416 net214
*417 net215
*418 net216
*419 net217
*420 net218
*421 net219
*140 net22
*423 net221
*424 net222
*425 net223
*426 net224
*427 net225
*428 net226
*389 net227
*443 net228
*430 net229
*141 net23
*431 net230
*447 net231
*448 net233
*449 net234
*451 net236
*142 net24
*450 net241
*459 net245
*463 net249
*143 net25
*144 net26
*145 net27
*146 net28
*474 net287
*147 net29
*121 net3
*148 net30
*478 net304
*481 net308
*482 net309
*149 net31
*484 net313
*150 net32
*151 net33
*488 net330
*395 net331
*489 net332
*490 net333
*492 net336
*495 net339
*152 net34
*498 net344
*500 net346
*154 net35
*155 net36
*507 net365
*508 net366
*509 net367
*172 net37
*358 net378
*153 net38
*362 net380
*514 net381
*364 net382
*156 net39
*122 net4
*157 net40
*368 net400
*158 net41
*159 net42
*160 net43
*161 net44
*162 net45
*163 net46
*164 net47
*165 net48
*166 net49
*123 net5
*167 net50
*168 net51
*169 net52
*170 net53
*171 net54
*173 net55
*124 net6
*125 net7
*126 net8
*127 net9
*259 net_1
*260 net_2
*342 req_msg[0]
*339 req_msg[10]
*333 req_msg[11]
*330 req_msg[12]
*327 req_msg[13]
*318 req_msg[14]
*317 req_msg[15]
*312 req_msg[16]
*309 req_msg[17]
*303 req_msg[18]
*302 req_msg[19]
*298 req_msg[1]
*297 req_msg[20]
*296 req_msg[21]
*295 req_msg[22]
*294 req_msg[23]
*281 req_msg[24]
*279 req_msg[25]
*277 req_msg[26]
*275 req_msg[27]
*273 req_msg[28]
*271 req_msg[29]
*270 req_msg[2]
*268 req_msg[30]
*263 req_msg[31]
*261 req_msg[3]
*245 req_msg[4]
*244 req_msg[5]
*243 req_msg[6]
*241 req_msg[7]
*236 req_msg[8]
*234 req_msg[9]
*217 req_rdy
*232 req_val
*230 reset
*215 resp_msg[0]
*212 resp_msg[10]
*210 resp_msg[11]
*205 resp_msg[12]
*203 resp_msg[13]
*201 resp_msg[14]
*192 resp_msg[15]
*188 resp_msg[1]
*186 resp_msg[2]
*183 resp_msg[3]
*181 resp_msg[4]
*177 resp_msg[5]
*175 resp_msg[6]
*354 resp_msg[7]
*355 resp_msg[8]
*356 resp_msg[9]
*226 resp_rdy
*357 resp_val
*973 FILLER_0_0
*1069 FILLER_0_113
*1070 FILLER_0_124
*1071 FILLER_0_164
*1034 FILLER_0_31
*1026 FILLER_0_33
*1019 FILLER_0_58
*1027 FILLER_0_85
*1025 FILLER_0_89
*1128 FILLER_10_118
*1129 FILLER_10_151
*1130 FILLER_10_167
*1125 FILLER_10_20
*1126 FILLER_10_28
*1127 FILLER_10_57
*1133 FILLER_11_119
*1134 FILLER_11_136
*1135 FILLER_11_140
*1136 FILLER_11_150
*1137 FILLER_11_156
*1138 FILLER_11_165
*1139 FILLER_11_167
*1131 FILLER_11_36
*1132 FILLER_11_74
*1141 FILLER_12_12
*1145 FILLER_12_122
*1146 FILLER_12_146
*1147 FILLER_12_166
*1142 FILLER_12_42
*1143 FILLER_12_59
*1144 FILLER_12_69
*1140 FILLER_12_8
*1148 FILLER_13_0
*1152 FILLER_13_108
*1153 FILLER_13_119
*1154 FILLER_13_128
*1155 FILLER_13_142
*1149 FILLER_13_16
*1156 FILLER_13_167
*1150 FILLER_13_85
*1151 FILLER_13_95
*1157 FILLER_14_0
*1162 FILLER_14_159
*1163 FILLER_14_163
*1164 FILLER_14_167
*1159 FILLER_14_18
*1158 FILLER_14_2
*1160 FILLER_14_20
*1161 FILLER_14_55
*1167 FILLER_15_103
*1168 FILLER_15_136
*1169 FILLER_15_140
*1170 FILLER_15_153
*1171 FILLER_15_155
*1165 FILLER_15_59
*1166 FILLER_15_79
*1172 FILLER_16_16
*1175 FILLER_16_165
*1176 FILLER_16_167
*1173 FILLER_16_68
*1174 FILLER_16_89
*1177 FILLER_17_0
*1184 FILLER_17_116
*1185 FILLER_17_134
*1186 FILLER_17_167
*1179 FILLER_17_30
*1180 FILLER_17_32
*1178 FILLER_17_4
*1181 FILLER_17_45
*1182 FILLER_17_80
*1183 FILLER_17_87
*1187 FILLER_18_11
*1191 FILLER_18_132
*1192 FILLER_18_146
*1188 FILLER_18_16
*1193 FILLER_18_167
*1189 FILLER_18_43
*1190 FILLER_18_62
*1196 FILLER_19_118
*1197 FILLER_19_131
*1198 FILLER_19_156
*1199 FILLER_19_165
*1200 FILLER_19_167
*1194 FILLER_19_59
*1195 FILLER_19_92
*1072 FILLER_1_0
*1074 FILLER_1_111
*1075 FILLER_1_133
*1076 FILLER_1_135
*1073 FILLER_1_26
*1201 FILLER_20_0
*1206 FILLER_20_106
*1207 FILLER_20_126
*1208 FILLER_20_136
*1209 FILLER_20_151
*1210 FILLER_20_155
*1211 FILLER_20_159
*1202 FILLER_20_4
*1203 FILLER_20_46
*1204 FILLER_20_50
*1205 FILLER_20_97
*1212 FILLER_21_0
*1214 FILLER_21_104
*1215 FILLER_21_119
*1216 FILLER_21_143
*1213 FILLER_21_59
*1217 FILLER_22_0
*1220 FILLER_22_123
*1221 FILLER_22_149
*1222 FILLER_22_163
*1223 FILLER_22_167
*1218 FILLER_22_79
*1219 FILLER_22_88
*1228 FILLER_23_134
*1229 FILLER_23_138
*1230 FILLER_23_142
*1224 FILLER_23_16
*1225 FILLER_23_18
*1226 FILLER_23_69
*1227 FILLER_23_76
*1231 FILLER_24_10
*1235 FILLER_24_128
*1236 FILLER_24_130
*1237 FILLER_24_151
*1238 FILLER_24_167
*1232 FILLER_24_28
*1233 FILLER_24_37
*1234 FILLER_24_91
*1244 FILLER_25_121
*1245 FILLER_25_123
*1246 FILLER_25_137
*1239 FILLER_25_25
*1240 FILLER_25_58
*1241 FILLER_25_61
*1242 FILLER_25_90
*1243 FILLER_25_98
*1250 FILLER_26_119
*1251 FILLER_26_121
*1252 FILLER_26_157
*1253 FILLER_26_165
*1254 FILLER_26_167
*1247 FILLER_26_28
*1248 FILLER_26_34
*1249 FILLER_26_49
*1255 FILLER_27_0
*1262 FILLER_27_121
*1263 FILLER_27_123
*1264 FILLER_27_148
*1265 FILLER_27_165
*1266 FILLER_27_167
*1256 FILLER_27_57
*1257 FILLER_27_59
*1258 FILLER_27_61
*1259 FILLER_27_79
*1260 FILLER_27_88
*1261 FILLER_27_95
*1081 FILLER_2_101
*1082 FILLER_2_149
*1083 FILLER_2_151
*1084 FILLER_2_153
*1085 FILLER_2_166
*1077 FILLER_2_37
*1078 FILLER_2_70
*1079 FILLER_2_78
*1080 FILLER_2_99
*1089 FILLER_3_155
*1090 FILLER_3_165
*1091 FILLER_3_167
*1086 FILLER_3_47
*1087 FILLER_3_59
*1088 FILLER_3_69
*1095 FILLER_4_164
*1092 FILLER_4_52
*1093 FILLER_4_81
*1094 FILLER_4_83
*1099 FILLER_5_155
*1096 FILLER_5_24
*1097 FILLER_5_61
*1098 FILLER_5_75
*1102 FILLER_6_119
*1103 FILLER_6_121
*1104 FILLER_6_126
*1105 FILLER_6_140
*1100 FILLER_6_16
*1106 FILLER_6_167
*1101 FILLER_6_46
*1111 FILLER_7_110
*1112 FILLER_7_128
*1107 FILLER_7_24
*1108 FILLER_7_73
*1109 FILLER_7_92
*1110 FILLER_7_96
*1113 FILLER_8_11
*1116 FILLER_8_113
*1117 FILLER_8_137
*1118 FILLER_8_164
*1114 FILLER_8_40
*1115 FILLER_8_71
*1123 FILLER_9_102
*1124 FILLER_9_143
*1119 FILLER_9_53
*1120 FILLER_9_75
*1121 FILLER_9_85
*1122 FILLER_9_98
*781 TAP_TAPCELL_ROW_0_0
*782 TAP_TAPCELL_ROW_0_1
*783 TAP_TAPCELL_ROW_0_2
*784 TAP_TAPCELL_ROW_0_3
*785 TAP_TAPCELL_ROW_0_4
*808 TAP_TAPCELL_ROW_10_27
*809 TAP_TAPCELL_ROW_10_28
*810 TAP_TAPCELL_ROW_10_29
*811 TAP_TAPCELL_ROW_11_30
*812 TAP_TAPCELL_ROW_11_31
*813 TAP_TAPCELL_ROW_12_32
*814 TAP_TAPCELL_ROW_12_33
*815 TAP_TAPCELL_ROW_12_34
*816 TAP_TAPCELL_ROW_13_35
*817 TAP_TAPCELL_ROW_13_36
*818 TAP_TAPCELL_ROW_14_37
*819 TAP_TAPCELL_ROW_14_38
*820 TAP_TAPCELL_ROW_14_39
*821 TAP_TAPCELL_ROW_15_40
*822 TAP_TAPCELL_ROW_15_41
*823 TAP_TAPCELL_ROW_16_42
*824 TAP_TAPCELL_ROW_16_43
*825 TAP_TAPCELL_ROW_16_44
*826 TAP_TAPCELL_ROW_17_45
*827 TAP_TAPCELL_ROW_17_46
*828 TAP_TAPCELL_ROW_18_47
*829 TAP_TAPCELL_ROW_18_48
*830 TAP_TAPCELL_ROW_18_49
*831 TAP_TAPCELL_ROW_19_50
*832 TAP_TAPCELL_ROW_19_51
*786 TAP_TAPCELL_ROW_1_5
*787 TAP_TAPCELL_ROW_1_6
*833 TAP_TAPCELL_ROW_20_52
*834 TAP_TAPCELL_ROW_20_53
*835 TAP_TAPCELL_ROW_20_54
*836 TAP_TAPCELL_ROW_21_55
*837 TAP_TAPCELL_ROW_21_56
*838 TAP_TAPCELL_ROW_22_57
*839 TAP_TAPCELL_ROW_22_58
*840 TAP_TAPCELL_ROW_22_59
*841 TAP_TAPCELL_ROW_23_60
*842 TAP_TAPCELL_ROW_23_61
*843 TAP_TAPCELL_ROW_24_62
*844 TAP_TAPCELL_ROW_24_63
*845 TAP_TAPCELL_ROW_24_64
*846 TAP_TAPCELL_ROW_25_65
*847 TAP_TAPCELL_ROW_25_66
*848 TAP_TAPCELL_ROW_26_67
*849 TAP_TAPCELL_ROW_26_68
*850 TAP_TAPCELL_ROW_26_69
*851 TAP_TAPCELL_ROW_27_70
*852 TAP_TAPCELL_ROW_27_71
*853 TAP_TAPCELL_ROW_27_72
*854 TAP_TAPCELL_ROW_27_73
*855 TAP_TAPCELL_ROW_27_74
*788 TAP_TAPCELL_ROW_2_7
*789 TAP_TAPCELL_ROW_2_8
*790 TAP_TAPCELL_ROW_2_9
*791 TAP_TAPCELL_ROW_3_10
*792 TAP_TAPCELL_ROW_3_11
*793 TAP_TAPCELL_ROW_4_12
*794 TAP_TAPCELL_ROW_4_13
*795 TAP_TAPCELL_ROW_4_14
*796 TAP_TAPCELL_ROW_5_15
*797 TAP_TAPCELL_ROW_5_16
*798 TAP_TAPCELL_ROW_6_17
*799 TAP_TAPCELL_ROW_6_18
*800 TAP_TAPCELL_ROW_6_19
*801 TAP_TAPCELL_ROW_7_20
*802 TAP_TAPCELL_ROW_7_21
*803 TAP_TAPCELL_ROW_8_22
*804 TAP_TAPCELL_ROW_8_23
*805 TAP_TAPCELL_ROW_8_24
*806 TAP_TAPCELL_ROW_9_25
*807 TAP_TAPCELL_ROW_9_26
*616 _119_/_128_
*615 _119_/_129_
*614 _119_/_130_
*613 _119_/_131_
*612 _119_/_132_
*611 _119_/_133_
*610 _119_/_134_
*609 _119_/_135_
*608 _119_/_136_
*607 _119_/_137_
*606 _119_/_138_
*605 _119_/_139_
*604 _119_/_140_
*603 _119_/_141_
*602 _119_/_142_
*601 _119_/_143_
*600 _119_/_144_
*599 _119_/_145_
*598 _119_/_146_
*597 _119_/_147_
*596 _119_/_148_
*595 _119_/_149_
*594 _119_/_150_
*593 _119_/_151_
*592 _119_/_152_
*591 _119_/_153_
*590 _119_/_154_
*589 _119_/_155_
*588 _119_/_156_
*587 _119_/_157_
*586 _119_/_158_
*585 _119_/_159_
*584 _119_/_160_
*583 _119_/_161_
*582 _119_/_162_
*581 _119_/_163_
*580 _119_/_164_
*579 _119_/_165_
*578 _119_/_166_
*577 _119_/_167_
*576 _119_/_168_
*575 _119_/_169_
*574 _119_/_170_
*573 _119_/_171_
*572 _119_/_172_
*571 _119_/_173_
*570 _119_/_174_
*569 _119_/_175_
*568 _119_/_176_
*567 _119_/_177_
*566 _119_/_178_
*565 _119_/_179_
*564 _119_/_180_
*563 _119_/_181_
*562 _119_/_182_
*561 _119_/_183_
*560 _119_/_184_
*559 _119_/_185_
*558 _119_/_186_
*557 _119_/_187_
*556 _119_/_188_
*555 _119_/_189_
*554 _119_/_190_
*553 _119_/_191_
*552 _119_/_192_
*551 _119_/_193_
*550 _119_/_194_
*549 _119_/_195_
*548 _119_/_196_
*547 _119_/_197_
*546 _119_/_198_
*545 _119_/_199_
*544 _119_/_200_
*543 _119_/_201_
*542 _119_/_202_
*541 _119_/_203_
*540 _119_/_204_
*539 _119_/_205_
*538 _119_/_206_
*537 _119_/_207_
*536 _119_/_208_
*535 _119_/_209_
*534 _119_/_210_
*533 _119_/_211_
*532 _119_/_212_
*531 _119_/_213_
*530 _119_/_214_
*529 _119_/_215_
*528 _119_/_216_
*527 _119_/_217_
*526 _119_/_218_
*525 _119_/_219_
*524 _119_/_220_
*523 _119_/_221_
*522 _119_/_222_
*521 _119_/_223_
*520 _119_/_224_
*519 _119_/_225_
*518 _119_/_226_
*517 _119_/_227_
*516 _119_/_228_
*515 _119_/_229_
*617 _119_/_230_
*739 _119_/_231_
*740 _119_/_232_
*741 _119_/_233_
*742 _119_/_234_
*743 _119_/_235_
*744 _119_/_236_
*745 _119_/_237_
*746 _119_/_238_
*747 _119_/_239_
*748 _119_/_240_
*749 _119_/_241_
*750 _119_/_242_
*751 _119_/_243_
*752 _119_/_244_
*753 _119_/_245_
*754 _119_/_246_
*755 _119_/_247_
*756 _119_/_248_
*757 _119_/_249_
*758 _119_/_250_
*759 _119_/_251_
*760 _119_/_252_
*761 _119_/_253_
*762 _119_/_254_
*763 _119_/_255_
*764 _119_/_256_
*765 _119_/_257_
*766 _119_/_258_
*767 _119_/_259_
*768 _119_/_260_
*769 _119_/_261_
*770 _119_/_262_
*771 _119_/_263_
*772 _119_/_264_
*773 _119_/_265_
*774 _119_/_266_
*775 _119_/_267_
*776 _119_/_268_
*777 _119_/_269_
*778 _119_/_270_
*779 _119_/_271_
*780 _119_/_272_
*912 _119_/place138
*916 _119_/place142
*988 _119_/place143
*917 _119_/place144
*989 _119_/place145
*918 _119_/place146
*920 _119_/place148
*921 _119_/place149
*922 _119_/place150
*923 _119_/place151
*924 _119_/place152
*925 _119_/place153
*926 _119_/place154
*927 _119_/place155
*928 _119_/place156
*990 _119_/place157
*929 _119_/place158
*930 _119_/place159
*931 _119_/place160
*991 _119_/place161
*932 _119_/place162
*933 _119_/place163
*992 _119_/place164
*936 _119_/place165
*937 _119_/place166
*938 _119_/place167
*943 _119_/place173
*942 _119_/place174
*944 _119_/place175
*945 _119_/place176
*947 _119_/place178
*949 _119_/place179
*950 _119_/place180
*951 _119_/place181
*1006 _119_/rebuffer220
*1007 _119_/rebuffer221
*1008 _119_/rebuffer222
*1009 _119_/rebuffer223
*1010 _119_/rebuffer225
*1011 _119_/rebuffer226
*1012 _119_/rebuffer227
*1014 _119_/rebuffer229
*1015 _119_/rebuffer230
*1016 _119_/rebuffer231
*1018 _119_/rebuffer233
*1020 _119_/rebuffer235
*1021 _119_/rebuffer255
*1022 _119_/rebuffer256
*1023 _119_/rebuffer257
*1029 _119_/rebuffer283
*1030 _119_/rebuffer285
*1031 _119_/rebuffer286
*1033 _119_/rebuffer288
*1037 _119_/rebuffer293
*914 _119_/rebuffer298
*1039 _119_/rebuffer299
*1040 _119_/rebuffer300
*1041 _119_/rebuffer312
*1047 _119_/rebuffer320
*1048 _119_/rebuffer321
*1050 _119_/rebuffer323
*1051 _119_/rebuffer324
*1053 _119_/rebuffer328
*911 _119_/rebuffer330
*1055 _119_/rebuffer331
*1056 _119_/rebuffer336
*1057 _119_/rebuffer344
*1058 _119_/rebuffer345
*1059 _119_/rebuffer346
*1060 _119_/rebuffer347
*1064 _119_/rebuffer351
*1065 _119_/rebuffer352
*1066 _119_/rebuffer353
*1067 _119_/rebuffer354
*1024 _119_/rebuffer374
*1045 _119_/rebuffer392
*737 _119__1
*738 _119__2
*618 _121_
*619 _122_
*620 _123_
*621 _124_
*622 _125_
*623 _126_
*624 _127_
*625 _128_
*626 _129_
*627 _130_
*628 _131_
*629 _132_
*630 _133_
*631 _134_
*632 _135_
*633 _136_
*634 _137_
*635 _138_
*636 _139_
*637 _140_
*638 _141_
*639 _142_
*640 _143_
*641 _144_
*642 _145_
*643 _146_
*644 _147_
*645 _148_
*646 _149_
*647 _150_
*648 _151_
*649 _152_
*650 _153_
*651 _154_
*652 _155_
*653 _156_
*654 _157_
*655 _158_
*656 _159_
*657 _160_
*658 _161_
*659 _162_
*660 _163_
*661 _164_
*662 _165_
*663 _166_
*664 _167_
*665 _168_
*666 _169_
*667 _170_
*668 _171_
*669 _172_
*670 _173_
*671 _174_
*672 _175_
*673 _176_
*674 _177_
*675 _178_
*676 _179_
*677 _180_
*678 _181_
*679 _182_
*680 _183_
*681 _184_
*682 _185_
*683 _186_
*684 _187_
*685 _188_
*686 _189_
*687 _190_
*688 _191_
*689 _192_
*690 _193_
*691 _194_
*692 _195_
*693 _196_
*694 _197_
*695 _198_
*696 _199_
*697 _200_
*698 _201_
*699 _202_
*700 _203_
*701 _204_
*983 clkbuf_0_clk
*980 clkbuf_2_0__f_clk
*995 clkbuf_2_1__f_clk
*996 clkbuf_2_2__f_clk
*997 clkbuf_2_3__f_clk
*998 clkload0
*999 clkload1
*1000 clkload2
*1013 clone228
*702 ctrl\.state\.out\[0\]\$_DFF_P_
*703 ctrl\.state\.out\[1\]\$_DFF_P_
*704 ctrl\.state\.out\[2\]\$_DFF_P_
*705 dpath\.a_reg\.out\[0\]\$_DFFE_PP_
*706 dpath\.a_reg\.out\[10\]\$_DFFE_PP_
*707 dpath\.a_reg\.out\[11\]\$_DFFE_PP_
*708 dpath\.a_reg\.out\[12\]\$_DFFE_PP_
*709 dpath\.a_reg\.out\[13\]\$_DFFE_PP_
*710 dpath\.a_reg\.out\[14\]\$_DFFE_PP_
*711 dpath\.a_reg\.out\[15\]\$_DFFE_PP_
*712 dpath\.a_reg\.out\[1\]\$_DFFE_PP_
*713 dpath\.a_reg\.out\[2\]\$_DFFE_PP_
*714 dpath\.a_reg\.out\[3\]\$_DFFE_PP_
*715 dpath\.a_reg\.out\[4\]\$_DFFE_PP_
*716 dpath\.a_reg\.out\[5\]\$_DFFE_PP_
*717 dpath\.a_reg\.out\[6\]\$_DFFE_PP_
*718 dpath\.a_reg\.out\[7\]\$_DFFE_PP_
*719 dpath\.a_reg\.out\[8\]\$_DFFE_PP_
*720 dpath\.a_reg\.out\[9\]\$_DFFE_PP_
*721 dpath\.b_reg\.out\[0\]\$_DFFE_PP_
*722 dpath\.b_reg\.out\[10\]\$_DFFE_PP_
*723 dpath\.b_reg\.out\[11\]\$_DFFE_PP_
*724 dpath\.b_reg\.out\[12\]\$_DFFE_PP_
*725 dpath\.b_reg\.out\[13\]\$_DFFE_PP_
*726 dpath\.b_reg\.out\[14\]\$_DFFE_PP_
*727 dpath\.b_reg\.out\[15\]\$_DFFE_PP_
*728 dpath\.b_reg\.out\[1\]\$_DFFE_PP_
*729 dpath\.b_reg\.out\[2\]\$_DFFE_PP_
*730 dpath\.b_reg\.out\[3\]\$_DFFE_PP_
*731 dpath\.b_reg\.out\[4\]\$_DFFE_PP_
*732 dpath\.b_reg\.out\[5\]\$_DFFE_PP_
*733 dpath\.b_reg\.out\[6\]\$_DFFE_PP_
*734 dpath\.b_reg\.out\[7\]\$_DFFE_PP_
*735 dpath\.b_reg\.out\[8\]\$_DFFE_PP_
*736 dpath\.b_reg\.out\[9\]\$_DFFE_PP_
*863 input10
*864 input11
*865 input12
*866 input13
*867 input14
*868 input15
*869 input16
*870 input17
*871 input18
*872 input19
*873 input20
*874 input21
*875 input22
*876 input23
*877 input24
*878 input25
*879 input26
*880 input27
*881 input28
*882 input29
*856 input3
*883 input30
*884 input31
*885 input32
*886 input33
*887 input34
*888 input35
*889 input36
*890 input37
*857 input4
*858 input5
*859 input6
*860 input7
*861 input8
*862 input9
*891 output38
*892 output39
*893 output40
*894 output41
*895 output42
*896 output43
*897 output44
*898 output45
*899 output46
*900 output47
*901 output48
*902 output49
*903 output50
*904 output51
*905 output52
*906 output53
*907 output54
*908 output55
*984 place131
*985 place132
*910 place133
*986 place135
*987 place136
*939 place168
*935 place169
*934 place170
*993 place171
*941 place172
*948 place182
*952 place183
*953 place184
*954 place185
*955 place186
*956 place187
*957 place188
*958 place189
*960 place190
*961 place191
*962 place192
*963 place193
*964 place194
*965 place195
*959 place196
*966 place197
*967 place198
*968 place199
*969 place200
*970 place201
*971 place202
*972 place203
*974 place205
*975 place206
*976 place207
*977 place208
*978 place209
*979 place210
*940 place211
*994 place212
*981 place213
*982 place214
*1001 rebuffer215
*1002 rebuffer216
*1003 rebuffer217
*1005 rebuffer219
*1004 rebuffer224
*1017 rebuffer232
*1028 rebuffer270
*1032 rebuffer287
*1035 rebuffer291
*1036 rebuffer292
*1038 rebuffer296
*1042 rebuffer313
*946 rebuffer314
*1043 rebuffer315
*1044 rebuffer316
*1046 rebuffer319
*1049 rebuffer322
*1052 rebuffer327
*1054 rebuffer329
*1061 rebuffer348
*1062 rebuffer349
*1063 rebuffer350
*909 rebuffer361
*913 rebuffer363
*1068 rebuffer364
*915 rebuffer365
*919 rebuffer383

*PORTS
clk I
req_msg[0] I
req_msg[10] I
req_msg[11] I
req_msg[12] I
req_msg[13] I
req_msg[14] I
req_msg[15] I
req_msg[16] I
req_msg[17] I
req_msg[18] I
req_msg[19] I
req_msg[1] I
req_msg[20] I
req_msg[21] I
req_msg[22] I
req_msg[23] I
req_msg[24] I
req_msg[25] I
req_msg[26] I
req_msg[27] I
req_msg[28] I
req_msg[29] I
req_msg[2] I
req_msg[30] I
req_msg[31] I
req_msg[3] I
req_msg[4] I
req_msg[5] I
req_msg[6] I
req_msg[7] I
req_msg[8] I
req_msg[9] I
req_rdy O
req_val I
reset I
resp_msg[0] O
resp_msg[10] O
resp_msg[11] O
resp_msg[12] O
resp_msg[13] O
resp_msg[14] O
resp_msg[15] O
resp_msg[1] O
resp_msg[2] O
resp_msg[3] O
resp_msg[4] O
resp_msg[5] O
resp_msg[6] O
resp_msg[7] O
resp_msg[8] O
resp_msg[9] O
resp_rdy I
resp_val O

*D_NET *2 0.00689633
*CONN
*I *976:A I *D sky130_fd_sc_hd__buf_4
*I *560:A I *D sky130_fd_sc_hd__xnor2_1
*I *711:Q O *D sky130_fd_sc_hd__edfxtp_1
*CAP
1 *976:A 0.000308665
2 *560:A 0.00105591
3 *711:Q 0.000485093
4 *2:10 0.00184966
5 *560:A *545:A2 0.000163997
6 *560:A *560:B 0.000696309
7 *560:A *700:A 0.000130907
8 *560:A *777:A 0.000309159
9 *560:A *894:A 5.47093e-05
10 *560:A *921:A 3.20049e-05
11 *560:A *1049:A 6.11359e-06
12 *560:A *1056:A 0.00046917
13 *560:A *258:23 0.000408929
14 *560:A *288:18 6.14642e-05
15 *560:A *383:132 2.55751e-05
16 *560:A *383:140 2.28733e-05
17 *560:A *383:150 0.000333047
18 *976:A *621:S 4.01708e-05
19 *976:A *921:A 3.87022e-06
20 *976:A *383:132 0.000113659
21 *976:A *443:82 0
22 *2:10 *711:D 4.18215e-05
23 *2:10 *862:A 6.27332e-05
24 *2:10 *921:A 0.000220494
*RES
1 *711:Q *2:10 21.4292 
2 *2:10 *560:A 46.6704 
3 *2:10 *976:A 21.3947 
*END

*D_NET *3 0.00358789
*CONN
*I *622:B I *D sky130_fd_sc_hd__or2_4
*I *978:A I *D sky130_fd_sc_hd__buf_4
*I *704:Q O *D sky130_fd_sc_hd__dfxtp_1
*CAP
1 *622:B 0.000752379
2 *978:A 0.000740294
3 *704:Q 0
4 *3:4 0.00149267
5 *622:B *685:A1 4.97638e-05
6 *622:B *685:A2 5.94977e-06
7 *622:B *685:B2 1.1818e-05
8 *622:B *685:C1 6.3657e-05
9 *622:B *702:D 1.42729e-05
10 *622:B *941:A 2.58616e-05
11 *622:B *41:10 7.73621e-05
12 *622:B *173:18 6.08467e-05
13 *978:A *698:A 0
14 *978:A *702:D 8.87896e-05
15 *978:A *702:CLK 0.000126335
16 *978:A *703:D 3.67707e-05
17 *978:A *704:D 4.1112e-05
*RES
1 *704:Q *3:4 9.24915 
2 *3:4 *978:A 32.1669 
3 *3:4 *622:B 21.6674 
*END

*D_NET *4 0.00208074
*CONN
*I *618:A I *D sky130_fd_sc_hd__clkinv_1
*I *693:B1 I *D sky130_fd_sc_hd__a21oi_4
*I *703:Q O *D sky130_fd_sc_hd__dfxtp_1
*CAP
1 *618:A 0.000370787
2 *693:B1 0.00016926
3 *703:Q 0
4 *4:6 0.000540046
5 *618:A *620:A1 0.000503244
6 *618:A *697:B1 1.72278e-05
7 *618:A *698:B 6.66413e-05
8 *693:B1 *623:A_N 0
9 *693:B1 *675:A0 0.00011818
10 *693:B1 *675:S 0
11 *693:B1 *697:B1 2.58518e-05
12 *693:B1 *698:B 0.000200236
13 *693:B1 *733:D 6.92705e-05
14 *693:B1 *445:37 0
*RES
1 *703:Q *4:6 13.7491 
2 *4:6 *693:B1 19.7659 
3 *4:6 *618:A 20.8807 
*END

*D_NET *5 0.00200915
*CONN
*I *962:A I *D sky130_fd_sc_hd__buf_4
*I *559:A I *D sky130_fd_sc_hd__xor2_2
*I *726:Q O *D sky130_fd_sc_hd__edfxtp_1
*CAP
1 *962:A 0
2 *559:A 0.000146853
3 *726:Q 0.000387607
4 *5:12 0.000534459
5 *559:A *257:12 0.000193031
6 *559:A *278:19 8.33364e-05
7 *559:A *282:37 0.000105182
8 *559:A *411:16 0.000109421
9 *559:A *428:8 5.85259e-05
10 *5:12 *657:A0 0.000134976
11 *5:12 *665:A1 0.000153998
12 *5:12 *102:14 6.0385e-05
13 *5:12 *278:10 3.30108e-05
14 *5:12 *278:19 8.36429e-06
*RES
1 *726:Q *5:12 26.4829 
2 *5:12 *559:A 24.684 
3 *5:12 *962:A 9.24915 
*END

*D_NET *6 0.00240747
*CONN
*I *555:B I *D sky130_fd_sc_hd__xor2_2
*I *963:A I *D sky130_fd_sc_hd__buf_4
*I *725:Q O *D sky130_fd_sc_hd__edfxtp_1
*CAP
1 *555:B 6.20255e-05
2 *963:A 0.000292719
3 *725:Q 0.000397509
4 *6:10 0.000752253
5 *555:B *682:S 1.22289e-05
6 *555:B *860:A 5.82008e-05
7 *555:B *276:8 0.000120147
8 *963:A *682:A1 5.20546e-06
9 *6:10 *553:B 0.000175674
10 *6:10 *682:A1 0.000148129
11 *6:10 *725:D 0.000180917
12 *6:10 *860:A 1.44467e-05
13 *6:10 *276:8 0.000188012
*RES
1 *725:Q *6:10 24.4772 
2 *6:10 *963:A 20.0427 
3 *6:10 *555:B 7.1625 
*END

*D_NET *7 0.00254215
*CONN
*I *552:A I *D sky130_fd_sc_hd__xor2_1
*I *964:A I *D sky130_fd_sc_hd__buf_4
*I *724:Q O *D sky130_fd_sc_hd__edfxtp_1
*CAP
1 *552:A 0
2 *964:A 0.000171084
3 *724:Q 0.000965885
4 *7:18 0.00113697
5 *964:A *330:27 0
6 *964:A *413:22 6.50586e-05
7 *964:A *442:128 6.92705e-05
8 *964:A *444:22 1.87469e-05
9 *964:A *444:28 7.0954e-05
10 *7:18 *709:DE 0
11 *7:18 *1003:A 1.77537e-06
12 *7:18 *278:10 0
13 *7:18 *433:88 0
14 *7:18 *442:144 3.8519e-05
15 *7:18 *444:22 3.88655e-06
*RES
1 *724:Q *7:18 25.346 
2 *7:18 *964:A 18.3808 
3 *7:18 *552:A 13.7491 
*END

*D_NET *8 0.00304716
*CONN
*I *965:A I *D sky130_fd_sc_hd__buf_4
*I *576:B I *D sky130_fd_sc_hd__xor2_2
*I *723:Q O *D sky130_fd_sc_hd__edfxtp_1
*CAP
1 *965:A 0.000258207
2 *576:B 5.45687e-05
3 *723:Q 0.000614475
4 *8:10 0.00092725
5 *576:B *559:B 9.81288e-06
6 *576:B *772:B 6.08467e-05
7 *576:B *76:8 7.93204e-05
8 *576:B *124:16 5.52256e-05
9 *576:B *187:10 0.000153395
10 *965:A *559:B 0.00015339
11 *965:A *772:B 0.000360247
12 *965:A *184:14 0.000118166
13 *965:A *414:10 2.16355e-05
14 *8:10 *559:B 2.40834e-05
15 *8:10 *709:D 5.00174e-05
16 *8:10 *709:DE 1.4249e-05
17 *8:10 *772:B 2.65331e-05
18 *8:10 *1003:A 6.57373e-05
19 *8:10 *124:16 0
*RES
1 *723:Q *8:10 25.1712 
2 *8:10 *576:B 7.35741 
3 *8:10 *965:A 22.9514 
*END

*D_NET *9 0.00403293
*CONN
*I *959:A I *D sky130_fd_sc_hd__buf_4
*I *573:A I *D sky130_fd_sc_hd__xor2_2
*I *722:Q O *D sky130_fd_sc_hd__edfxtp_1
*CAP
1 *959:A 0.000190892
2 *573:A 0.000347566
3 *722:Q 0.000404226
4 *9:8 0.000942684
5 *573:A *573:B 0.000427505
6 *573:A *722:D 0.000212189
7 *573:A *727:DE 7.66316e-05
8 *573:A *24:25 0.00014621
9 *573:A *182:8 0.000100615
10 *573:A *408:18 0.000191526
11 *959:A *569:B 8.36429e-06
12 *959:A *727:DE 1.05857e-06
13 *959:A *736:D 0.000138395
14 *959:A *408:18 0.000519279
15 *959:A *434:79 0.000325786
*RES
1 *722:Q *9:8 22.5143 
2 *9:8 *573:A 27.3938 
3 *9:8 *959:A 23.4709 
*END

*D_NET *10 0.00278227
*CONN
*I *567:C I *D sky130_fd_sc_hd__xnor3_2
*I *948:A I *D sky130_fd_sc_hd__buf_4
*I *736:Q O *D sky130_fd_sc_hd__edfxtp_1
*CAP
1 *567:C 0.00029378
2 *948:A 2.12834e-05
3 *736:Q 0.000458501
4 *10:10 0.000773564
5 *567:C *567:A 5.49983e-05
6 *567:C *567:B 0.000114594
7 *567:C *651:S 4.35266e-06
8 *567:C *397:12 0.000792807
9 *10:10 *567:A 4.47179e-05
10 *10:10 *1043:A 6.27782e-05
11 *10:10 *259:188 0.000104639
12 *10:10 *397:12 5.62568e-05
*RES
1 *736:Q *10:10 21.5107 
2 *10:10 *948:A 9.82786 
3 *10:10 *567:C 19.859 
*END

*D_NET *11 0.00337063
*CONN
*I *952:A I *D sky130_fd_sc_hd__buf_4
*I *564:C I *D sky130_fd_sc_hd__xnor3_2
*I *735:Q O *D sky130_fd_sc_hd__edfxtp_1
*CAP
1 *952:A 3.07807e-05
2 *564:C 0.000268541
3 *735:Q 0.000831004
4 *11:10 0.00113033
5 *564:C *741:C1 4.47293e-05
6 *564:C *886:A 0.000130056
7 *564:C *358:72 9.04224e-05
8 *564:C *392:16 1.92172e-05
9 *564:C *399:18 6.22703e-05
10 *564:C *401:10 7.60235e-05
11 *564:C *401:14 8.75441e-06
12 *564:C *491:26 0.000162583
13 *952:A *383:81 0.000102441
14 *952:A *492:41 0.00016195
15 *11:10 *735:D 0.000131328
16 *11:10 *872:A 0
17 *11:10 *886:A 0.000120204
18 *11:10 *906:A 0
*RES
1 *735:Q *11:10 28.6382 
2 *11:10 *564:C 22.9514 
3 *11:10 *952:A 15.5817 
*END

*D_NET *12 0.00244652
*CONN
*I *953:A I *D sky130_fd_sc_hd__buf_4
*I *750:B I *D sky130_fd_sc_hd__xor2_2
*I *734:Q O *D sky130_fd_sc_hd__edfxtp_1
*CAP
1 *953:A 0.000132273
2 *750:B 0.000370353
3 *734:Q 0.000192641
4 *12:8 0.000695267
5 *750:B *750:A 2.65732e-05
6 *750:B *905:A 0.000292728
7 *750:B *943:A 0.000104977
8 *750:B *169:14 0.0001621
9 *750:B *402:8 0.000108243
10 *750:B *434:8 0
11 *750:B *501:24 5.69911e-05
12 *953:A *676:A0 6.79392e-05
13 *953:A *905:A 9.89537e-05
14 *953:A *402:8 9.17747e-05
15 *953:A *492:41 2.58616e-05
16 *12:8 *647:B1 8.80737e-06
17 *12:8 *383:67 1.10348e-05
*RES
1 *734:Q *12:8 16.4137 
2 *12:8 *750:B 17.3523 
3 *12:8 *953:A 18.7961 
*END

*D_NET *13 0.00466577
*CONN
*I *612:B I *D sky130_fd_sc_hd__xor2_4
*I *954:A I *D sky130_fd_sc_hd__buf_4
*I *733:Q O *D sky130_fd_sc_hd__edfxtp_1
*CAP
1 *612:B 0
2 *954:A 0.000959303
3 *733:Q 0.000202645
4 *13:10 0.00116195
5 *954:A *519:A 0.000144702
6 *954:A *531:A 0.000530077
7 *954:A *633:S 5.08974e-05
8 *954:A *673:A0 1.9633e-05
9 *954:A *673:A1 4.31603e-06
10 *954:A *690:A 0
11 *954:A *690:C 0.00013262
12 *954:A *691:D 0.000190823
13 *954:A *903:A 3.8543e-05
14 *954:A *955:A 5.4704e-05
15 *954:A *92:16 0.000445515
16 *954:A *403:14 0.000217937
17 *954:A *403:41 0
18 *954:A *404:14 0.000262132
19 *954:A *435:64 0
20 *954:A *470:28 1.91391e-05
21 *13:10 *955:A 0.000113224
22 *13:10 *443:16 6.33927e-05
23 *13:10 *443:18 5.42221e-05
*RES
1 *733:Q *13:10 18.1063 
2 *13:10 *954:A 43.5028 
3 *13:10 *612:B 13.7491 
*END

*D_NET *14 0.00405404
*CONN
*I *608:B I *D sky130_fd_sc_hd__xor2_2
*I *955:A I *D sky130_fd_sc_hd__buf_4
*I *732:Q O *D sky130_fd_sc_hd__edfxtp_1
*CAP
1 *608:B 0.00028741
2 *955:A 0.000320286
3 *732:Q 0.00027982
4 *14:10 0.000887516
5 *608:B *604:A 1.4106e-05
6 *608:B *612:A 0.000346779
7 *608:B *674:A0 0.000533786
8 *608:B *259:318 9.52298e-05
9 *608:B *419:18 4.34169e-05
10 *955:A *620:A1 0.000292911
11 *955:A *644:A1 0.000170592
12 *955:A *993:A 0.000110297
13 *955:A *404:14 0.00017562
14 *14:10 *674:A0 0.000260325
15 *14:10 *419:18 6.80132e-05
16 *954:A *955:A 5.4704e-05
17 *13:10 *955:A 0.000113224
*RES
1 *732:Q *14:10 15.9888 
2 *14:10 *955:A 30.0794 
3 *14:10 *608:B 10.5013 
*END

*D_NET *15 0.00369923
*CONN
*I *599:C I *D sky130_fd_sc_hd__xnor3_2
*I *956:A I *D sky130_fd_sc_hd__buf_4
*I *731:Q O *D sky130_fd_sc_hd__edfxtp_1
*CAP
1 *599:C 0.000875272
2 *956:A 0
3 *731:Q 2.77139e-05
4 *15:6 0.000902986
5 *599:C *519:B 7.92757e-06
6 *599:C *598:A 0.000107496
7 *599:C *605:A 3.0769e-05
8 *599:C *715:D 0.000223013
9 *599:C *903:A 0.000169
10 *599:C *16:12 1.19381e-05
11 *599:C *107:10 0.000749268
12 *599:C *166:18 0.000322365
13 *599:C *304:18 6.19695e-05
14 *599:C *405:8 9.43286e-05
15 *599:C *421:12 2.57102e-05
16 *15:6 *405:8 8.94761e-05
*RES
1 *731:Q *15:6 10.2498 
2 *15:6 *956:A 9.24915 
3 *15:6 *599:C 46.3985 
*END

*D_NET *16 0.00935672
*CONN
*I *594:B I *D sky130_fd_sc_hd__xnor3_2
*I *957:A I *D sky130_fd_sc_hd__buf_4
*I *730:Q O *D sky130_fd_sc_hd__edfxtp_1
*CAP
1 *594:B 0
2 *957:A 0.00107771
3 *730:Q 0.00017228
4 *16:12 0.00214163
5 *16:8 0.0012362
6 *957:A *528:B 0.000152586
7 *957:A *587:B 7.28994e-06
8 *957:A *928:A 0.000123582
9 *957:A *958:A 8.36586e-06
10 *957:A *1006:A 3.46061e-05
11 *957:A *259:228 1.43848e-05
12 *957:A *259:280 2.91038e-05
13 *957:A *388:10 0.00105575
14 *16:8 *638:A1 0.00011818
15 *16:8 *639:S 1.65872e-05
16 *16:8 *691:D 0.000612765
17 *16:8 *433:20 0.000203836
18 *16:12 *527:A2 5.23577e-05
19 *16:12 *605:A 0.000413811
20 *16:12 *605:B 0
21 *16:12 *715:D 3.16904e-05
22 *16:12 *933:A 0
23 *16:12 *52:12 7.069e-05
24 *16:12 *55:12 0.000789225
25 *16:12 *56:12 0.000446639
26 *16:12 *107:10 0
27 *16:12 *165:14 7.28994e-06
28 *16:12 *220:12 0.000122083
29 *16:12 *259:220 3.31733e-05
30 *16:12 *421:12 6.51423e-05
31 *16:12 *429:16 9.13603e-05
32 *16:12 *432:39 0.000162813
33 *16:12 *433:20 1.35146e-05
34 *16:12 *442:20 0
35 *16:12 *442:46 4.01437e-05
36 *599:C *16:12 1.19381e-05
*RES
1 *730:Q *16:8 21.9597 
2 *16:8 *16:12 38.7217 
3 *16:12 *957:A 39.3955 
4 *16:12 *594:B 9.24915 
*END

*D_NET *17 0.00274749
*CONN
*I *1001:A I *D sky130_fd_sc_hd__buf_6
*I *1050:A I *D sky130_fd_sc_hd__buf_4
*I *729:Q O *D sky130_fd_sc_hd__edfxtp_1
*CAP
1 *1001:A 0.000243646
2 *1050:A 0
3 *729:Q 0.000348577
4 *17:10 0.000592223
5 *1001:A *536:A 0
6 *1001:A *662:A1 0.000139705
7 *1001:A *1054:A 2.16355e-05
8 *1001:A *259:77 0.000113909
9 *1001:A *447:10 0.000196653
10 *17:10 *631:B 0.0001554
11 *17:10 *658:B 1.09645e-05
12 *17:10 *662:A1 0.00022208
13 *17:10 *713:D 0
14 *17:10 *865:A 4.27168e-05
15 *17:10 *164:12 1.99382e-05
16 *17:10 *442:110 0.000141977
17 *17:10 *447:10 0.000498065
*RES
1 *729:Q *17:10 26.4085 
2 *17:10 *1050:A 13.7491 
3 *17:10 *1001:A 21.7084 
*END

*D_NET *18 0.00266454
*CONN
*I *960:A I *D sky130_fd_sc_hd__buf_4
*I *582:B I *D sky130_fd_sc_hd__xor3_1
*I *728:Q O *D sky130_fd_sc_hd__edfxtp_1
*CAP
1 *960:A 0.000509395
2 *582:B 0.00025479
3 *728:Q 0.000127592
4 *18:10 0.000891777
5 *582:B *582:A 6.9503e-05
6 *582:B *586:B 0
7 *582:B *625:A 2.77082e-05
8 *582:B *626:B1 2.43387e-05
9 *582:B *259:238 6.13567e-05
10 *960:A *669:A0 1.43698e-05
11 *960:A *712:D 0.000147247
12 *960:A *712:DE 8.54933e-05
13 *960:A *390:49 6.20147e-05
14 *960:A *429:28 0.00025527
15 *18:10 *669:A0 7.26748e-05
16 *18:10 *163:18 3.79836e-05
17 *18:10 *259:238 2.30281e-05
18 *18:10 *442:63 0
*RES
1 *728:Q *18:10 16.8577 
2 *18:10 *582:B 20.4383 
3 *18:10 *960:A 27.4454 
*END

*D_NET *19 0.00272485
*CONN
*I *966:A I *D sky130_fd_sc_hd__buf_4
*I *586:B I *D sky130_fd_sc_hd__xnor2_2
*I *721:Q O *D sky130_fd_sc_hd__edfxtp_1
*CAP
1 *966:A 0.000660414
2 *586:B 0.000628447
3 *721:Q 0
4 *19:4 0.00128886
5 *586:B *582:A 0
6 *586:B *582:C 0
7 *586:B *88:26 0
8 *586:B *442:65 0
9 *966:A *538:A 2.65667e-05
10 *966:A *624:A1 0.000120565
11 *582:B *586:B 0
*RES
1 *721:Q *19:4 9.24915 
2 *19:4 *586:B 29.1166 
3 *19:4 *966:A 19.5575 
*END

*D_NET *20 0.0045007
*CONN
*I *558:A I *D sky130_fd_sc_hd__nand2_1
*I *557:A I *D sky130_fd_sc_hd__xnor2_2
*I *683:A0 I *D sky130_fd_sc_hd__mux2_4
*I *710:Q O *D sky130_fd_sc_hd__edfxtp_1
*CAP
1 *558:A 0.000652548
2 *557:A 0
3 *683:A0 0.000104392
4 *710:Q 0.000519507
5 *20:10 0.000149905
6 *20:8 0.00121757
7 *558:A *614:C1 0.00025424
8 *558:A *666:A0 2.86259e-05
9 *558:A *668:A1 1.88014e-05
10 *558:A *668:A2 0.000345147
11 *558:A *767:A 0
12 *558:A *258:10 0.000226519
13 *558:A *259:137 4.34248e-05
14 *558:A *390:192 0.000151043
15 *683:A0 *555:A 7.14746e-05
16 *683:A0 *683:A1 0.000172569
17 *683:A0 *102:14 1.65872e-05
18 *683:A0 *259:137 0.000122083
19 *683:A0 *436:50 3.31881e-05
20 *683:A0 *492:90 0.000122083
21 *20:10 *258:10 0.0001261
22 *20:10 *259:137 0.0001122
23 *20:10 *436:50 1.2693e-05
*RES
1 *710:Q *20:8 20.8505 
2 *20:8 *20:10 2.6625 
3 *20:10 *683:A0 18.5201 
4 *20:10 *557:A 13.7491 
5 *20:8 *558:A 33.5786 
*END

*D_NET *21 0.00262749
*CONN
*I *682:A0 I *D sky130_fd_sc_hd__mux2_4
*I *554:A I *D sky130_fd_sc_hd__nand2_1
*I *553:A I *D sky130_fd_sc_hd__xnor2_2
*I *709:Q O *D sky130_fd_sc_hd__edfxtp_1
*CAP
1 *682:A0 9.13255e-05
2 *554:A 0.000139523
3 *553:A 0.000124804
4 *709:Q 6.56922e-05
5 *21:23 0.000519772
6 *21:6 0.000479419
7 *553:A *278:10 6.05501e-05
8 *554:A *554:B 0.000583269
9 *554:A *664:A 8.82956e-05
10 *554:A *1003:A 4.24529e-05
11 *554:A *442:144 4.38712e-05
12 *682:A0 *554:B 0.000383717
13 *21:6 *278:10 4.79713e-06
14 *21:23 *278:10 0
15 *21:23 *442:144 0
*RES
1 *709:Q *21:6 10.2498 
2 *21:6 *553:A 13.2037 
3 *21:6 *21:23 14.9845 
4 *21:23 *554:A 16.0973 
5 *21:23 *682:A0 13.3002 
*END

*D_NET *22 0.00526698
*CONN
*I *550:A I *D sky130_fd_sc_hd__xnor2_1
*I *551:A I *D sky130_fd_sc_hd__nand2_1
*I *681:A0 I *D sky130_fd_sc_hd__mux2_4
*I *708:Q O *D sky130_fd_sc_hd__edfxtp_1
*CAP
1 *550:A 0.000426749
2 *551:A 0.000460286
3 *681:A0 0.000134622
4 *708:Q 7.32602e-05
5 *22:10 0.000757532
6 *22:8 0.000662634
7 *550:A *543:B1 0.000137114
8 *550:A *765:A1 0.000403187
9 *550:A *23:10 6.72709e-06
10 *550:A *184:44 0.00030589
11 *550:A *280:16 0.0003827
12 *550:A *282:22 0.000258134
13 *551:A *725:DE 7.34308e-05
14 *551:A *413:22 3.75603e-05
15 *551:A *459:65 4.58929e-05
16 *681:A0 *724:D 2.16355e-05
17 *681:A0 *80:18 7.25274e-05
18 *681:A0 *280:16 0.000262053
19 *681:A0 *330:27 4.54106e-05
20 *681:A0 *444:76 6.50586e-05
21 *22:8 *726:CLK 1.52578e-05
22 *22:10 *280:16 0.000370378
23 *22:10 *282:22 0.000235535
24 *22:10 *330:27 1.34046e-05
*RES
1 *708:Q *22:8 14.7498 
2 *22:8 *22:10 6.81502 
3 *22:10 *681:A0 19.2113 
4 *22:10 *551:A 21.4171 
5 *22:8 *550:A 29.6997 
*END

*D_NET *23 0.00374753
*CONN
*I *977:A I *D sky130_fd_sc_hd__buf_4
*I *574:A I *D sky130_fd_sc_hd__xnor2_2
*I *707:Q O *D sky130_fd_sc_hd__edfxtp_1
*CAP
1 *977:A 0.000179502
2 *574:A 0.000387233
3 *707:Q 0.000431144
4 *23:10 0.000997879
5 *574:A *575:B 3.45866e-05
6 *574:A *680:S 0.000347214
7 *574:A *772:B 8.53106e-06
8 *574:A *184:14 2.22198e-05
9 *574:A *187:10 5.03545e-06
10 *574:A *428:8 0.000160617
11 *977:A *575:A 6.36477e-05
12 *977:A *575:B 7.30804e-05
13 *977:A *680:A0 0.000161243
14 *977:A *932:A 0.000156946
15 *977:A *283:16 0.000133878
16 *23:10 *723:D 0.000430107
17 *23:10 *282:22 3.50623e-05
18 *23:10 *283:16 5.01737e-05
19 *23:10 *330:27 6.27031e-05
20 *23:10 *444:14 0
21 *23:10 *444:16 0
22 *550:A *23:10 6.72709e-06
*RES
1 *707:Q *23:10 24.8869 
2 *23:10 *574:A 29.8807 
3 *23:10 *977:A 19.9081 
*END

*D_NET *24 0.00540448
*CONN
*I *571:A I *D sky130_fd_sc_hd__xnor2_2
*I *572:A I *D sky130_fd_sc_hd__nand2_1
*I *679:A0 I *D sky130_fd_sc_hd__mux2_4
*I *706:Q O *D sky130_fd_sc_hd__edfxtp_1
*CAP
1 *571:A 0.000444316
2 *572:A 0.000367109
3 *679:A0 0
4 *706:Q 0.000585109
5 *24:25 0.00132781
6 *24:10 0.00110149
7 *571:A *651:S 0
8 *571:A *174:14 0.000112868
9 *571:A *492:74 4.70005e-05
10 *572:A *572:B 4.62432e-06
11 *572:A *651:S 0
12 *572:A *656:A2 6.46815e-05
13 *572:A *935:A 0.000260577
14 *572:A *170:16 9.54707e-05
15 *572:A *408:18 1.66375e-05
16 *572:A *492:74 0.000269009
17 *24:10 *679:A1 0.000122098
18 *24:10 *408:18 6.66538e-05
19 *24:10 *443:82 0
20 *24:25 *722:D 0.000355827
21 *24:25 *408:18 1.69932e-05
22 *24:25 *443:82 0
23 *573:A *24:25 0.00014621
*RES
1 *706:Q *24:10 23.513 
2 *24:10 *679:A0 13.7491 
3 *24:10 *24:25 17.9347 
4 *24:25 *572:A 24.9099 
5 *24:25 *571:A 24.6771 
*END

*D_NET *25 0.00219468
*CONN
*I *967:A I *D sky130_fd_sc_hd__buf_4
*I *567:B I *D sky130_fd_sc_hd__xnor3_2
*I *720:Q O *D sky130_fd_sc_hd__edfxtp_1
*CAP
1 *967:A 0.00013471
2 *567:B 0.000175099
3 *720:Q 0.000291725
4 *25:10 0.000601533
5 *567:B *446:82 0.000163478
6 *567:B *446:97 5.37077e-05
7 *967:A *736:CLK 2.16355e-05
8 *967:A *434:62 0.000298979
9 *25:10 *569:B 0
10 *25:10 *176:16 0.000140062
11 *25:10 *446:97 0.000199153
12 *567:C *567:B 0.000114594
*RES
1 *720:Q *25:10 20.4585 
2 *25:10 *567:B 18.9354 
3 *25:10 *967:A 17.8243 
*END

*D_NET *26 0.00254611
*CONN
*I *564:A I *D sky130_fd_sc_hd__xnor3_2
*I *968:A I *D sky130_fd_sc_hd__buf_4
*I *719:Q O *D sky130_fd_sc_hd__edfxtp_1
*CAP
1 *564:A 4.78104e-05
2 *968:A 0.00029287
3 *719:Q 0.000399282
4 *26:10 0.000739962
5 *564:A *259:369 6.3657e-05
6 *564:A *392:16 1.88152e-05
7 *968:A *518:B1 0.000193616
8 *968:A *518:C1 8.0556e-05
9 *968:A *566:B 3.06627e-05
10 *968:A *741:C1 0
11 *968:A *401:28 6.08467e-05
12 *968:A *417:8 6.27782e-05
13 *968:A *476:16 0.000157191
14 *26:10 *566:B 0.000201445
15 *26:10 *649:A 6.61829e-06
16 *26:10 *677:A1 0
17 *26:10 *747:B 5.9955e-05
18 *26:10 *492:58 0.000130049
*RES
1 *719:Q *26:10 23.6411 
2 *26:10 *968:A 22.1913 
3 *26:10 *564:A 15.0271 
*END

*D_NET *27 0.00273341
*CONN
*I *969:A I *D sky130_fd_sc_hd__buf_6
*I *770:A I *D sky130_fd_sc_hd__xnor2_2
*I *602:A1 I *D sky130_fd_sc_hd__o211ai_1
*I *718:Q O *D sky130_fd_sc_hd__edfxtp_1
*CAP
1 *969:A 7.327e-05
2 *770:A 6.47589e-05
3 *602:A1 0.000267294
4 *718:Q 0.00016343
5 *27:12 0.000485279
6 *27:10 0.000389925
7 *602:A1 *518:A2 1.79413e-05
8 *602:A1 *770:B 0.000206332
9 *602:A1 *169:14 0
10 *602:A1 *225:14 0.000118002
11 *602:A1 *418:33 3.09433e-05
12 *770:A *518:A2 6.50727e-05
13 *770:A *315:10 5.97576e-05
14 *770:A *358:82 4.0752e-05
15 *969:A *676:A0 0.000111802
16 *969:A *392:16 8.54423e-05
17 *969:A *399:18 0.000314062
18 *27:10 *650:A2 9.13603e-05
19 *27:10 *676:A0 0
20 *27:10 *390:155 5.84326e-05
21 *27:12 *518:A2 1.44611e-05
22 *27:12 *650:A2 8.62625e-06
23 *27:12 *170:16 0
24 *27:12 *358:82 0
25 *27:12 *418:33 6.64646e-05
*RES
1 *718:Q *27:10 17.1364 
2 *27:10 *27:12 3.90826 
3 *27:12 *602:A1 20.9794 
4 *27:12 *770:A 16.1605 
5 *27:10 *969:A 17.8243 
*END

*D_NET *28 0.0046029
*CONN
*I *1045:A I *D sky130_fd_sc_hd__buf_4
*I *610:A I *D sky130_fd_sc_hd__xnor2_4
*I *970:A I *D sky130_fd_sc_hd__buf_6
*I *717:Q O *D sky130_fd_sc_hd__edfxtp_1
*CAP
1 *1045:A 0.000844077
2 *610:A 0
3 *970:A 8.28113e-05
4 *717:Q 0.000315618
5 *28:16 0.000283285
6 *28:10 0.00136017
7 *970:A *607:B 9.38677e-05
8 *970:A *109:16 0.000161804
9 *1045:A *950:A 0.000267718
10 *1045:A *993:A 0
11 *1045:A *109:18 3.82894e-05
12 *1045:A *420:64 0.000362878
13 *1045:A *445:12 7.50722e-05
14 *28:10 *517:B 4.25398e-05
15 *28:10 *607:B 0.000133238
16 *28:10 *718:CLK 1.43439e-05
17 *28:10 *904:A 0
18 *28:10 *109:16 7.77309e-06
19 *28:10 *168:16 3.51113e-05
20 *28:10 *316:18 5.12265e-05
21 *28:10 *390:134 1.82824e-05
22 *28:10 *399:18 4.80597e-05
23 *28:10 *445:12 0
24 *28:16 *607:B 0.000262544
25 *28:16 *316:18 0.000104194
*RES
1 *717:Q *28:10 22.256 
2 *28:10 *28:16 10.5168 
3 *28:16 *970:A 21.3269 
4 *28:16 *610:A 9.24915 
5 *28:10 *1045:A 37.1388 
*END

*D_NET *29 0.00454783
*CONN
*I *604:A I *D sky130_fd_sc_hd__xnor2_4
*I *971:A I *D sky130_fd_sc_hd__buf_4
*I *716:Q O *D sky130_fd_sc_hd__edfxtp_1
*CAP
1 *604:A 0.00078698
2 *971:A 0
3 *716:Q 0.000156365
4 *29:8 0.000943345
5 *604:A *604:B 0.000424998
6 *604:A *610:B 3.56119e-05
7 *604:A *612:A 0.000105182
8 *604:A *717:D 4.99897e-05
9 *604:A *61:14 0.000159413
10 *604:A *228:10 2.89405e-05
11 *604:A *235:6 9.25028e-05
12 *604:A *259:318 3.82228e-05
13 *604:A *419:18 0.00112929
14 *604:A *419:31 0.000144819
15 *604:A *420:6 0.000118166
16 *604:A *420:10 0.000104532
17 *604:A *442:12 5.75817e-05
18 *29:8 *644:A1 6.08467e-05
19 *29:8 *717:D 6.50727e-05
20 *29:8 *61:14 3.186e-05
21 *608:B *604:A 1.4106e-05
*RES
1 *716:Q *29:8 13.047 
2 *29:8 *971:A 9.24915 
3 *29:8 *604:A 46.6402 
*END

*D_NET *30 0.00233194
*CONN
*I *1052:A I *D sky130_fd_sc_hd__buf_4
*I *599:A I *D sky130_fd_sc_hd__xnor3_2
*I *715:Q O *D sky130_fd_sc_hd__edfxtp_1
*CAP
1 *1052:A 0.000152337
2 *599:A 0.000304353
3 *715:Q 9.89375e-05
4 *30:10 0.000555627
5 *599:A *529:B1 7.65861e-05
6 *599:A *229:10 0.000194937
7 *599:A *304:18 0
8 *1052:A *972:A 0.000235845
9 *1052:A *470:28 0.000279878
10 *30:10 *519:B 0.000135765
11 *30:10 *529:B1 0.000128076
12 *30:10 *972:A 0.000115753
13 *30:10 *421:12 5.38447e-05
*RES
1 *715:Q *30:10 17.9669 
2 *30:10 *599:A 21.8832 
3 *30:10 *1052:A 19.1023 
*END

*D_NET *31 0.00528749
*CONN
*I *1002:A I *D sky130_fd_sc_hd__buf_4
*I *594:C I *D sky130_fd_sc_hd__xnor3_2
*I *714:Q O *D sky130_fd_sc_hd__edfxtp_1
*CAP
1 *1002:A 0.000941008
2 *594:C 0.000235935
3 *714:Q 0.000361484
4 *31:6 0.00153843
5 *594:C *595:B 9.48557e-05
6 *594:C *627:S 0
7 *594:C *1007:A 0.000179126
8 *594:C *213:10 0.000184946
9 *594:C *406:12 2.3939e-05
10 *594:C *435:26 0
11 *1002:A *527:B1 0.000745113
12 *1002:A *579:B1 6.59997e-05
13 *1002:A *596:A 3.31745e-05
14 *1002:A *1048:A 0
15 *1002:A *220:35 0.000364586
16 *1002:A *259:280 0.000306188
17 *1002:A *429:16 4.65647e-06
18 *1002:A *455:12 8.62625e-06
19 *31:6 *596:A 0.000157178
20 *31:6 *596:B 3.95582e-05
21 *31:6 *429:16 2.68666e-06
*RES
1 *714:Q *31:6 15.2413 
2 *31:6 *594:C 25.8947 
3 *31:6 *1002:A 38.4013 
*END

*D_NET *32 0.00340796
*CONN
*I *591:A I *D sky130_fd_sc_hd__xor3_1
*I *974:A I *D sky130_fd_sc_hd__buf_4
*I *713:Q O *D sky130_fd_sc_hd__edfxtp_1
*CAP
1 *591:A 0.000289542
2 *974:A 3.58004e-05
3 *713:Q 0.000796528
4 *32:12 0.00112187
5 *591:A *671:A0 6.50727e-05
6 *591:A *164:12 0
7 *591:A *205:22 4.61732e-05
8 *591:A *423:27 0.000503105
9 *591:A *447:10 0
10 *32:12 resp_msg[2] 3.00073e-05
11 *32:12 *671:A0 0.00018985
12 *32:12 *729:D 4.97077e-05
13 *32:12 *729:DE 2.12674e-05
14 *32:12 *729:CLK 0.000255147
15 *32:12 *878:A 0
16 *32:12 *900:A 3.89332e-06
*RES
1 *713:Q *32:12 33.1382 
2 *32:12 *974:A 9.97254 
3 *32:12 *591:A 28.006 
*END

*D_NET *33 0.00660897
*CONN
*I *913:A I *D sky130_fd_sc_hd__buf_6
*I *1032:A I *D sky130_fd_sc_hd__buf_6
*I *986:A I *D sky130_fd_sc_hd__buf_12
*I *539:X O *D sky130_fd_sc_hd__a21o_4
*CAP
1 *913:A 0.000165263
2 *1032:A 0.00114836
3 *986:A 0.00068664
4 *539:X 0.000768222
5 *33:24 0.0013952
6 *913:A *539:A2 0.000116742
7 *913:A *909:A 5.03545e-06
8 *913:A *1051:A 0.000121807
9 *913:A *251:8 0.000196031
10 *913:A *341:16 4.73106e-05
11 *986:A *536:A 1.09198e-05
12 *986:A *589:A 0.00022446
13 *986:A *1059:A 0
14 *986:A *207:12 0.000554381
15 *986:A *259:10 0
16 *986:A *367:10 5.1573e-05
17 *986:A *461:44 0
18 *1032:A *520:A 5.96157e-05
19 *1032:A *539:A2 1.5714e-05
20 *1032:A *560:B 0.000220183
21 *1032:A *577:A1 4.96778e-05
22 *1032:A *746:A 2.22933e-05
23 *1032:A *761:A 2.02035e-05
24 *1032:A *763:A1 0.000333233
25 *1032:A *780:A1 1.87309e-05
26 *1032:A *1051:A 1.9101e-05
27 *1032:A *246:10 5.0715e-05
28 *1032:A *251:31 0.000151623
29 *1032:A *341:16 1.97943e-05
30 *1032:A *440:12 5.11681e-05
31 *1032:A *478:26 0
32 *33:24 *539:B1 6.50727e-05
33 *33:24 *1016:A 1.98996e-05
*RES
1 *539:X *986:A 47.1861 
2 *539:X *33:24 15.5817 
3 *33:24 *1032:A 34.421 
4 *33:24 *913:A 19.7337 
*END

*D_NET *34 0.00223393
*CONN
*I *975:A I *D sky130_fd_sc_hd__buf_4
*I *582:A I *D sky130_fd_sc_hd__xor3_1
*I *712:Q O *D sky130_fd_sc_hd__edfxtp_1
*CAP
1 *975:A 0.000266493
2 *582:A 0.000355447
3 *712:Q 0
4 *34:4 0.00062194
5 *582:A *625:A 3.85049e-05
6 *582:A *669:A0 8.11366e-06
7 *582:A *442:63 0.000302452
8 *582:A *442:65 8.62625e-06
9 *975:A *537:A 0.000213449
10 *975:A *669:A0 6.02028e-05
11 *975:A *1060:A 0.000259225
12 *975:A *199:12 2.99747e-05
13 *582:B *582:A 6.9503e-05
14 *586:B *582:A 0
*RES
1 *712:Q *34:4 9.24915 
2 *34:4 *582:A 26.7897 
3 *34:4 *975:A 17.7732 
*END

*D_NET *35 0.00342931
*CONN
*I *669:A0 I *D sky130_fd_sc_hd__mux2_4
*I *580:A I *D sky130_fd_sc_hd__clkinv_1
*I *705:Q O *D sky130_fd_sc_hd__edfxtp_1
*CAP
1 *669:A0 0.000622889
2 *580:A 0
3 *705:Q 0.000687287
4 *35:12 0.00131018
5 *669:A0 *259:238 0.000319308
6 *669:A0 *389:45 2.79626e-05
7 *669:A0 *435:26 0
8 *669:A0 *442:63 0
9 *669:A0 *482:22 1.25215e-05
10 *35:12 *538:A 2.29823e-05
11 *35:12 *624:A1 5.50808e-05
12 *35:12 *626:A2 0
13 *35:12 *729:CLK 8.72921e-05
14 *35:12 *433:65 4.84492e-05
15 *35:12 *442:63 0
16 *35:12 *442:65 0
17 *35:12 *482:22 8.00003e-05
18 *582:A *669:A0 8.11366e-06
19 *960:A *669:A0 1.43698e-05
20 *975:A *669:A0 6.02028e-05
21 *18:10 *669:A0 7.26748e-05
*RES
1 *705:Q *35:12 28.8051 
2 *35:12 *580:A 13.7491 
3 *35:12 *669:A0 35.8652 
*END

*D_NET *36 0.00125868
*CONN
*I *961:A I *D sky130_fd_sc_hd__buf_4
*I *561:B I *D sky130_fd_sc_hd__xor2_2
*I *727:Q O *D sky130_fd_sc_hd__edfxtp_1
*CAP
1 *961:A 3.73941e-05
2 *561:B 7.16311e-05
3 *727:Q 0.000107369
4 *36:10 0.000216394
5 *561:B *699:A0 0.000163982
6 *561:B *390:182 0.000163982
7 *961:A *687:A 0.000107496
8 *961:A *699:A0 4.66492e-05
9 *961:A *893:A 0.000154145
10 *36:10 *655:A 1.5115e-06
11 *36:10 *699:A0 2.95757e-05
12 *36:10 *390:182 0.000133102
13 *36:10 *443:82 2.54463e-05
*RES
1 *727:Q *36:10 16.8577 
2 *36:10 *561:B 7.57775 
3 *36:10 *961:A 15.5817 
*END

*D_NET *37 0.00200916
*CONN
*I *684:B I *D sky130_fd_sc_hd__nor2_4
*I *694:A1 I *D sky130_fd_sc_hd__o22ai_2
*I *618:Y O *D sky130_fd_sc_hd__clkinv_1
*CAP
1 *684:B 0.000141973
2 *694:A1 0.000139939
3 *618:Y 4.53288e-05
4 *37:6 0.00032724
5 *684:B *697:A1 2.86829e-05
6 *684:B *941:A 8.36586e-06
7 *684:B *390:8 4.02103e-05
8 *694:A1 *620:A1 0.000131924
9 *694:A1 *694:B1 8.35465e-05
10 *694:A1 *696:B_N 0.00026034
11 *694:A1 *697:A1 6.08467e-05
12 *694:A1 *697:B2 0.000159038
13 *694:A1 *698:B 6.27782e-05
14 *694:A1 *445:29 0.000119842
15 *37:6 *620:A1 8.29846e-05
16 *37:6 *697:A1 0.000255277
17 *37:6 *697:A2 6.08467e-05
*RES
1 *618:Y *37:6 12.191 
2 *37:6 *694:A1 17.2065 
3 *37:6 *684:B 21.7421 
*END

*D_NET *38 0.00541121
*CONN
*I *620:A1 I *D sky130_fd_sc_hd__o21bai_4
*I *694:B1 I *D sky130_fd_sc_hd__o22ai_2
*I *619:Y O *D sky130_fd_sc_hd__clkinv_1
*CAP
1 *620:A1 0.00114045
2 *694:B1 0.00035126
3 *619:Y 0
4 *38:4 0.00149171
5 *620:A1 *644:A1 1.08647e-05
6 *620:A1 *692:A 0.000153389
7 *620:A1 *697:A1 6.45538e-05
8 *620:A1 *697:A2 6.27782e-05
9 *620:A1 *697:B2 6.27782e-05
10 *620:A1 *982:A 6.36477e-05
11 *620:A1 *993:A 2.15153e-05
12 *620:A1 *104:14 0.000641164
13 *620:A1 *383:16 1.64983e-05
14 *620:A1 *383:35 4.49888e-05
15 *620:A1 *390:8 0
16 *620:A1 *390:14 0
17 *620:A1 *403:41 0
18 *694:B1 *694:A2 6.27718e-05
19 *694:B1 *696:B_N 1.77674e-05
20 *694:B1 *697:B2 0.000110458
21 *618:A *620:A1 0.000503244
22 *694:A1 *620:A1 0.000131924
23 *694:A1 *694:B1 8.35465e-05
24 *955:A *620:A1 0.000292911
25 *37:6 *620:A1 8.29846e-05
*RES
1 *619:Y *38:4 9.24915 
2 *38:4 *694:B1 17.2065 
3 *38:4 *620:A1 47.5775 
*END

*D_NET *39 0.00279113
*CONN
*I *1068:A I *D sky130_fd_sc_hd__buf_12
*I *1017:A I *D sky130_fd_sc_hd__buf_6
*I *620:Y O *D sky130_fd_sc_hd__o21bai_4
*CAP
1 *1068:A 0.000144887
2 *1017:A 0
3 *620:Y 0.000303412
4 *39:10 0.000448299
5 *1068:A *686:B_N 0.000210977
6 *1068:A *390:122 2.41483e-05
7 *1068:A *390:134 0.000171273
8 *1068:A *403:41 0.000224381
9 *1068:A *443:16 0
10 *1068:A *491:10 0
11 *39:10 *610:B 5.20218e-05
12 *39:10 *686:B_N 0.000340919
13 *39:10 *750:A 0.000139684
14 *39:10 *950:A 6.79265e-05
15 *39:10 *104:14 0.000539163
16 *39:10 *443:16 0.000124038
*RES
1 *620:Y *39:10 26.4183 
2 *39:10 *1017:A 13.7491 
3 *39:10 *1068:A 20.0446 
*END

*D_NET *40 0.00233877
*CONN
*I *727:D I *D sky130_fd_sc_hd__edfxtp_1
*I *621:X O *D sky130_fd_sc_hd__mux2_4
*CAP
1 *727:D 0.00077941
2 *621:X 0.00077941
3 *727:D *621:S 0.00021601
4 *727:D *727:DE 8.58103e-05
5 *727:D *259:162 0.000181333
6 *727:D *390:182 0.000296793
7 *727:D *436:64 0
*RES
1 *621:X *727:D 46.4866 
*END

*D_NET *41 0.00209605
*CONN
*I *941:A I *D sky130_fd_sc_hd__buf_6
*I *684:A I *D sky130_fd_sc_hd__nor2_4
*I *622:X O *D sky130_fd_sc_hd__or2_4
*CAP
1 *941:A 0.000145089
2 *684:A 0
3 *622:X 0.000287351
4 *41:10 0.00043244
5 *41:10 *685:A1 0.000317001
6 *41:10 *685:A2 8.2304e-06
7 *41:10 *702:D 0.000756341
8 *41:10 *994:A 3.00829e-05
9 *41:10 *173:18 7.92757e-06
10 *622:B *941:A 2.58616e-05
11 *622:B *41:10 7.73621e-05
12 *684:B *941:A 8.36586e-06
*RES
1 *622:X *41:10 21.5228 
2 *41:10 *684:A 9.24915 
3 *41:10 *941:A 22.0503 
*END

*D_NET *42 0.00203132
*CONN
*I *934:A I *D sky130_fd_sc_hd__buf_4
*I *993:A I *D sky130_fd_sc_hd__buf_4
*I *623:Y O *D sky130_fd_sc_hd__nand2b_1
*CAP
1 *934:A 2.11456e-05
2 *993:A 0.000497492
3 *623:Y 0.000518637
4 *934:A *697:B1 6.50586e-05
5 *934:A *390:122 5.04829e-06
6 *993:A *693:A2 0.000213614
7 *993:A *697:B1 0.000298361
8 *993:A *109:18 0.000199541
9 *993:A *383:16 8.03393e-06
10 *993:A *403:41 5.09378e-05
11 *993:A *404:14 2.16355e-05
12 *620:A1 *993:A 2.15153e-05
13 *955:A *993:A 0.000110297
14 *1045:A *993:A 0
*RES
1 *623:Y *993:A 39.5355 
2 *623:Y *934:A 19.2217 
*END

*D_NET *43 0.00339205
*CONN
*I *626:A1 I *D sky130_fd_sc_hd__o21ai_1
*I *624:Y O *D sky130_fd_sc_hd__mux2i_2
*CAP
1 *626:A1 0
2 *624:Y 0.00089101
3 *43:12 0.00089101
4 *43:12 *624:A0 1.37669e-05
5 *43:12 *624:A1 6.64392e-05
6 *43:12 *626:B1 0.000132369
7 *43:12 *863:A 6.29116e-05
8 *43:12 *429:32 0
9 *43:12 *429:36 0
10 *43:12 *433:65 0.00112234
11 *43:12 *482:22 0.000212198
*RES
1 *624:Y *43:12 44.2232 
2 *43:12 *626:A1 9.24915 
*END

*D_NET *44 0.00292505
*CONN
*I *626:B1 I *D sky130_fd_sc_hd__o21ai_1
*I *625:Y O *D sky130_fd_sc_hd__nand2_1
*CAP
1 *626:B1 0.000397045
2 *625:Y 0.000397045
3 *626:B1 *625:A 0.00052532
4 *626:B1 *194:10 0.00102957
5 *626:B1 *429:32 0.000297292
6 *626:B1 *429:36 0.000122068
7 *582:B *626:B1 2.43387e-05
8 *43:12 *626:B1 0.000132369
*RES
1 *625:Y *626:B1 47.6532 
*END

*D_NET *45 0.00037495
*CONN
*I *705:D I *D sky130_fd_sc_hd__edfxtp_1
*I *626:Y O *D sky130_fd_sc_hd__o21ai_1
*CAP
1 *705:D 8.24068e-05
2 *626:Y 8.24068e-05
3 *705:D *626:A2 1.00937e-05
4 *705:D *729:CLK 0.000200042
*RES
1 *626:Y *705:D 21.1507 
*END

*D_NET *46 0.00106132
*CONN
*I *629:A2 I *D sky130_fd_sc_hd__o21ai_1
*I *627:Y O *D sky130_fd_sc_hd__mux2i_1
*CAP
1 *629:A2 0.000451609
2 *627:Y 0.000451609
3 *629:A2 *629:A1 2.0154e-05
4 *629:A2 *670:A1 5.04829e-06
5 *629:A2 *864:A 6.08467e-05
6 *629:A2 *899:A 6.1708e-05
7 *629:A2 *901:A 1.03434e-05
*RES
1 *627:Y *629:A2 28.2883 
*END

*D_NET *47 0.00505525
*CONN
*I *629:B1 I *D sky130_fd_sc_hd__o21ai_1
*I *628:Y O *D sky130_fd_sc_hd__nand2_1
*CAP
1 *629:B1 0
2 *628:Y 0.00147901
3 *47:12 0.00147901
4 *47:12 resp_msg[1] 7.81768e-05
5 *47:12 *712:D 0.000158974
6 *47:12 *728:D 0.000590684
7 *47:12 *899:A 0.000167603
8 *47:12 *88:26 0.000659408
9 *47:12 *390:49 3.26358e-05
10 *47:12 *429:20 2.62008e-05
11 *47:12 *435:16 0.00020769
12 *47:12 *435:26 6.64376e-05
13 *47:12 *482:22 0.000109427
*RES
1 *628:Y *47:12 47.5537 
2 *47:12 *629:B1 9.24915 
*END

*D_NET *48 0.00223655
*CONN
*I *712:D I *D sky130_fd_sc_hd__edfxtp_1
*I *629:Y O *D sky130_fd_sc_hd__o21ai_1
*CAP
1 *712:D 0.000550762
2 *629:Y 0.000550762
3 *712:D *629:A1 6.12686e-06
4 *712:D *901:A 6.50586e-05
5 *712:D *390:49 0.000625741
6 *712:D *409:12 2.28129e-05
7 *712:D *429:28 6.08467e-05
8 *712:D *429:32 2.86829e-05
9 *712:D *433:42 1.95325e-05
10 *960:A *712:D 0.000147247
11 *47:12 *712:D 0.000158974
*RES
1 *629:Y *712:D 44.4725 
*END

*D_NET *49 0.000391096
*CONN
*I *632:A1 I *D sky130_fd_sc_hd__o21ai_1
*I *630:Y O *D sky130_fd_sc_hd__mux2i_1
*CAP
1 *632:A1 0.000138849
2 *630:Y 0.000138849
3 *632:A1 *630:A0 6.50586e-05
4 *632:A1 *632:B1 2.41483e-05
5 *632:A1 *900:A 2.41916e-05
*RES
1 *630:Y *632:A1 22.0188 
*END

*D_NET *50 0.000786935
*CONN
*I *632:B1 I *D sky130_fd_sc_hd__o21ai_1
*I *631:Y O *D sky130_fd_sc_hd__nand2_1
*CAP
1 *632:B1 0.000203622
2 *631:Y 0.000203622
3 *632:B1 *593:B 7.53561e-05
4 *632:B1 *630:A0 0.000115934
5 *632:B1 *630:A1 6.50727e-05
6 *632:B1 *631:B 5.08824e-05
7 *632:B1 *900:A 4.82966e-05
8 *632:A1 *632:B1 2.41483e-05
*RES
1 *631:Y *632:B1 33.7966 
*END

*D_NET *51 0.00274303
*CONN
*I *713:D I *D sky130_fd_sc_hd__edfxtp_1
*I *632:Y O *D sky130_fd_sc_hd__o21ai_1
*CAP
1 *713:D 0.00111577
2 *632:Y 0.00111577
3 *713:D resp_msg[0] 0
4 *713:D resp_msg[2] 0
5 *713:D *631:B 0
6 *713:D *713:DE 6.92705e-05
7 *713:D *729:CLK 3.55785e-05
8 *713:D *865:A 7.86825e-06
9 *713:D *900:A 9.35753e-06
10 *713:D *164:12 3.67528e-06
11 *713:D *442:80 0.000374216
12 *713:D *442:95 1.15279e-05
13 *713:D *444:36 0
14 *17:10 *713:D 0
*RES
1 *632:Y *713:D 42.0729 
*END

*D_NET *52 0.00342307
*CONN
*I *635:A2 I *D sky130_fd_sc_hd__o21ai_1
*I *633:Y O *D sky130_fd_sc_hd__mux2i_2
*CAP
1 *635:A2 0
2 *633:Y 0.00129749
3 *52:12 0.00129749
4 *52:12 *526:B 0.000355341
5 *52:12 *527:B1 1.1957e-05
6 *52:12 *579:A1 0.00022683
7 *52:12 *605:B 3.1218e-05
8 *52:12 *633:A1 0
9 *52:12 *672:A1 3.17291e-05
10 *52:12 *714:D 2.16355e-05
11 *52:12 *220:12 7.86847e-05
12 *16:12 *52:12 7.069e-05
*RES
1 *633:Y *52:12 40.904 
2 *52:12 *635:A2 9.24915 
*END

*D_NET *53 0.000987117
*CONN
*I *635:B1 I *D sky130_fd_sc_hd__o21ai_1
*I *634:Y O *D sky130_fd_sc_hd__nand2_1
*CAP
1 *635:B1 0.000235379
2 *634:Y 0.000235379
3 *635:B1 *634:A 0.000322608
4 *635:B1 *714:D 1.28047e-05
5 *635:B1 *881:A 3.60099e-05
6 *635:B1 *901:A 2.32594e-05
7 *635:B1 *389:16 0.000121677
*RES
1 *634:Y *635:B1 35.0267 
*END

*D_NET *54 0.0010494
*CONN
*I *714:D I *D sky130_fd_sc_hd__edfxtp_1
*I *635:Y O *D sky130_fd_sc_hd__o21ai_1
*CAP
1 *714:D 0.000260996
2 *635:Y 0.000260996
3 *714:D *634:A 0.00018306
4 *714:D *672:A1 2.16355e-05
5 *714:D *714:DE 3.42041e-05
6 *714:D *429:16 5.7176e-05
7 *714:D *442:32 3.3403e-05
8 *714:D *442:34 0.000163492
9 *635:B1 *714:D 1.28047e-05
10 *52:12 *714:D 2.16355e-05
*RES
1 *635:Y *714:D 35.5125 
*END

*D_NET *55 0.00445162
*CONN
*I *638:A2 I *D sky130_fd_sc_hd__o21ai_1
*I *636:Y O *D sky130_fd_sc_hd__mux2i_1
*CAP
1 *638:A2 0
2 *636:Y 0.000874518
3 *55:12 0.000874518
4 *55:12 *595:A 8.88984e-06
5 *55:12 *595:B 0.000263126
6 *55:12 *598:A 0.00033616
7 *55:12 *605:B 0
8 *55:12 *633:A0 2.16355e-05
9 *55:12 *633:A1 6.73186e-05
10 *55:12 *633:S 2.15348e-05
11 *55:12 *636:A0 4.97617e-05
12 *55:12 *636:A1 0.000113968
13 *55:12 *636:S 0.000169041
14 *55:12 *673:S 4.42055e-05
15 *55:12 *903:A 0
16 *55:12 *214:8 0.000713135
17 *55:12 *220:12 5.04829e-06
18 *55:12 *314:22 5.78745e-05
19 *55:12 *442:20 1.77537e-06
20 *55:12 *448:10 2.41679e-05
21 *55:12 *459:65 1.5714e-05
22 *16:12 *55:12 0.000789225
*RES
1 *636:Y *55:12 49.0669 
2 *55:12 *638:A2 9.24915 
*END

*D_NET *56 0.00383049
*CONN
*I *638:B1 I *D sky130_fd_sc_hd__o21ai_1
*I *637:Y O *D sky130_fd_sc_hd__nand2_1
*CAP
1 *638:B1 0
2 *637:Y 0.00125513
3 *56:12 0.00125513
4 *56:12 *715:D 0.000514043
5 *56:12 *715:DE 2.12526e-05
6 *56:12 *715:CLK 0.000326558
7 *56:12 *107:10 2.03363e-06
8 *56:12 *433:20 9.7112e-06
9 *16:12 *56:12 0.000446639
*RES
1 *637:Y *56:12 42.8381 
2 *56:12 *638:B1 9.24915 
*END

*D_NET *57 0.00219595
*CONN
*I *715:D I *D sky130_fd_sc_hd__edfxtp_1
*I *638:Y O *D sky130_fd_sc_hd__o21ai_1
*CAP
1 *715:D 0.000561473
2 *638:Y 0.000561473
3 *715:D *715:DE 6.38084e-05
4 *715:D *107:10 0.000107077
5 *715:D *421:12 2.58757e-05
6 *715:D *433:20 0.000107496
7 *599:C *715:D 0.000223013
8 *16:12 *715:D 3.16904e-05
9 *56:12 *715:D 0.000514043
*RES
1 *638:Y *715:D 44.075 
*END

*D_NET *58 0.00266807
*CONN
*I *641:A2 I *D sky130_fd_sc_hd__o21ai_1
*I *639:Y O *D sky130_fd_sc_hd__mux2i_1
*CAP
1 *641:A2 0.000850051
2 *639:Y 0.000850051
3 *641:A2 *639:S 0
4 *641:A2 *641:B1 1.92172e-05
5 *641:A2 *690:C 1.07248e-05
6 *641:A2 *716:D 6.92705e-05
7 *641:A2 *732:D 0.000553427
8 *641:A2 *404:14 0.000242134
9 *641:A2 *435:64 3.49679e-05
10 *641:A2 *435:77 3.82228e-05
11 *641:A2 *442:12 0
*RES
1 *639:Y *641:A2 43.6373 
*END

*D_NET *59 0.00119292
*CONN
*I *641:B1 I *D sky130_fd_sc_hd__o21ai_1
*I *640:Y O *D sky130_fd_sc_hd__nand2_1
*CAP
1 *641:B1 0.000218773
2 *640:Y 0.000218773
3 *641:B1 *640:B 0.000479029
4 *641:B1 *716:D 0.000122378
5 *641:B1 *732:D 1.65872e-05
6 *641:B1 *442:243 0.000118166
7 *641:A2 *641:B1 1.92172e-05
*RES
1 *640:Y *641:B1 26.4315 
*END

*D_NET *60 0.00140898
*CONN
*I *716:D I *D sky130_fd_sc_hd__edfxtp_1
*I *641:Y O *D sky130_fd_sc_hd__o21ai_1
*CAP
1 *716:D 0.0002842
2 *641:Y 0.0002842
3 *716:D *675:S 0.000552737
4 *716:D *940:A 9.61957e-05
5 *716:D *390:25 0
6 *641:A2 *716:D 6.92705e-05
7 *641:B1 *716:D 0.000122378
*RES
1 *641:Y *716:D 38.8718 
*END

*D_NET *61 0.00334961
*CONN
*I *644:A2 I *D sky130_fd_sc_hd__o21ai_1
*I *642:Y O *D sky130_fd_sc_hd__mux2i_1
*CAP
1 *644:A2 0
2 *642:Y 0.00059525
3 *61:14 0.00059525
4 *61:14 *642:A0 0.000206462
5 *61:14 *644:A1 7.01935e-06
6 *61:14 *717:D 0.000294241
7 *61:14 *390:134 1.19856e-05
8 *61:14 *403:41 0.00041971
9 *61:14 *420:6 7.92757e-06
10 *61:14 *420:10 8.02767e-05
11 *61:14 *442:12 0
12 *61:14 *443:16 0.000130628
13 *61:14 *491:26 0.000809584
14 *604:A *61:14 0.000159413
15 *29:8 *61:14 3.186e-05
*RES
1 *642:Y *61:14 40.9307 
2 *61:14 *644:A2 9.24915 
*END

*D_NET *62 0.00150408
*CONN
*I *644:B1 I *D sky130_fd_sc_hd__o21ai_1
*I *643:Y O *D sky130_fd_sc_hd__nand2_1
*CAP
1 *644:B1 0.000415164
2 *643:Y 0.000415164
3 *644:B1 *644:A1 6.42805e-05
4 *644:B1 *717:D 0
5 *644:B1 *1063:A 0.000172987
6 *644:B1 *383:35 0.000239851
7 *644:B1 *383:50 2.30636e-05
8 *644:B1 *404:14 0.000173566
*RES
1 *643:Y *644:B1 39.192 
*END

*D_NET *63 0.00193922
*CONN
*I *717:D I *D sky130_fd_sc_hd__edfxtp_1
*I *644:Y O *D sky130_fd_sc_hd__o21ai_1
*CAP
1 *717:D 0.000567483
2 *644:Y 0.000567483
3 *717:D *1063:A 0
4 *717:D *383:35 2.53145e-06
5 *717:D *420:6 0.000122378
6 *717:D *442:12 4.21913e-05
7 *717:D *443:16 4.3188e-05
8 *717:D *445:16 0.000184658
9 *604:A *717:D 4.99897e-05
10 *644:B1 *717:D 0
11 *29:8 *717:D 6.50727e-05
12 *61:14 *717:D 0.000294241
*RES
1 *644:Y *717:D 41.732 
*END

*D_NET *64 0.0023213
*CONN
*I *647:A2 I *D sky130_fd_sc_hd__o21ai_1
*I *645:Y O *D sky130_fd_sc_hd__mux2i_1
*CAP
1 *647:A2 0.000504411
2 *645:Y 0.000504411
3 *647:A2 *642:S 0.000260374
4 *647:A2 *645:A0 2.65667e-05
5 *647:A2 *718:D 0
6 *647:A2 *734:D 0.000143175
7 *647:A2 *904:A 0
8 *647:A2 *168:16 0
9 *647:A2 *315:10 5.03285e-05
10 *647:A2 *434:8 0.000739515
11 *647:A2 *434:35 9.25219e-05
*RES
1 *645:Y *647:A2 45.5602 
*END

*D_NET *65 0.00161506
*CONN
*I *647:B1 I *D sky130_fd_sc_hd__o21ai_1
*I *646:Y O *D sky130_fd_sc_hd__nand2_1
*CAP
1 *647:B1 0.000560618
2 *646:Y 0.000560618
3 *647:B1 resp_msg[7] 0
4 *647:B1 *676:A0 0
5 *647:B1 *905:A 0.000114659
6 *647:B1 *383:67 4.87439e-05
7 *647:B1 *383:81 1.37189e-05
8 *647:B1 *434:8 0.000159732
9 *647:B1 *434:35 0.000148159
10 *12:8 *647:B1 8.80737e-06
*RES
1 *646:Y *647:B1 38.7824 
*END

*D_NET *66 0.00171646
*CONN
*I *718:D I *D sky130_fd_sc_hd__edfxtp_1
*I *647:Y O *D sky130_fd_sc_hd__o21ai_1
*CAP
1 *718:D 0.000447838
2 *647:Y 0.000447838
3 *718:D *734:D 3.6928e-05
4 *718:D *904:A 0.000536834
5 *718:D *383:50 4.26566e-05
6 *718:D *383:59 2.42138e-05
7 *718:D *390:134 6.42418e-05
8 *718:D *390:155 8.65578e-05
9 *718:D *434:35 0
10 *718:D *443:68 2.93504e-05
11 *647:A2 *718:D 0
*RES
1 *647:Y *718:D 41.7172 
*END

*D_NET *67 0.00178531
*CONN
*I *650:A2 I *D sky130_fd_sc_hd__o21ai_1
*I *648:Y O *D sky130_fd_sc_hd__mux2i_1
*CAP
1 *650:A2 0.000387363
2 *648:Y 0.000387363
3 *650:A2 *646:A 0.000207824
4 *650:A2 *648:A0 6.92705e-05
5 *650:A2 *650:B1 1.2366e-05
6 *650:A2 *719:D 7.50872e-05
7 *650:A2 *872:A 0.000399114
8 *650:A2 *906:A 2.83576e-06
9 *650:A2 *358:82 1.77537e-06
10 *650:A2 *392:16 2.41483e-05
11 *650:A2 *399:18 0.00011818
12 *27:10 *650:A2 9.13603e-05
13 *27:12 *650:A2 8.62625e-06
*RES
1 *648:Y *650:A2 40.5743 
*END

*D_NET *68 0.00342522
*CONN
*I *650:B1 I *D sky130_fd_sc_hd__o21ai_1
*I *649:Y O *D sky130_fd_sc_hd__nand2_1
*CAP
1 *650:B1 0.000929113
2 *649:Y 0.000929113
3 *650:B1 *649:B 6.64392e-05
4 *650:B1 *719:D 7.50872e-05
5 *650:B1 *735:D 0.000206566
6 *650:B1 *872:A 0.000150716
7 *650:B1 *906:A 0.000298336
8 *650:B1 *383:81 4.56967e-05
9 *650:B1 *492:41 0.000695742
10 *650:B1 *492:58 1.60442e-05
11 *650:A2 *650:B1 1.2366e-05
*RES
1 *649:Y *650:B1 46.5468 
*END

*D_NET *69 0.000730182
*CONN
*I *719:D I *D sky130_fd_sc_hd__edfxtp_1
*I *650:Y O *D sky130_fd_sc_hd__o21ai_1
*CAP
1 *719:D 0.00021432
2 *650:Y 0.00021432
3 *719:D *719:CLK 1.50924e-05
4 *719:D *492:41 0.000136275
5 *650:A2 *719:D 7.50872e-05
6 *650:B1 *719:D 7.50872e-05
*RES
1 *650:Y *719:D 33.9668 
*END

*D_NET *70 0.000537763
*CONN
*I *653:A2 I *D sky130_fd_sc_hd__o21ai_1
*I *651:Y O *D sky130_fd_sc_hd__mux2i_1
*CAP
1 *653:A2 0.000138142
2 *651:Y 0.000138142
3 *653:A2 *651:A0 0.000209636
4 *653:A2 *741:C1 1.21461e-06
5 *653:A2 *383:117 2.02354e-05
6 *1:10 *653:A2 3.03926e-05
*RES
1 *651:Y *653:A2 31.7175 
*END

*D_NET *71 0.000239098
*CONN
*I *653:B1 I *D sky130_fd_sc_hd__o21ai_1
*I *652:Y O *D sky130_fd_sc_hd__nand2_1
*CAP
1 *653:B1 2.9489e-05
2 *652:Y 2.9489e-05
3 *653:B1 *747:B 0.000109421
4 *653:B1 *383:101 6.27718e-05
5 *653:B1 *434:62 7.92757e-06
*RES
1 *652:Y *653:B1 19.7763 
*END

*D_NET *72 0.000759114
*CONN
*I *720:D I *D sky130_fd_sc_hd__edfxtp_1
*I *653:Y O *D sky130_fd_sc_hd__o21ai_1
*CAP
1 *720:D 0.000198416
2 *653:Y 0.000198416
3 *720:D *720:CLK 3.58321e-05
4 *720:D *873:A 0
5 *720:D *434:56 0.00032645
*RES
1 *653:Y *720:D 33.8566 
*END

*D_NET *73 0.000645031
*CONN
*I *656:A2 I *D sky130_fd_sc_hd__o21ai_1
*I *654:Y O *D sky130_fd_sc_hd__mux2i_1
*CAP
1 *656:A2 0.000118849
2 *654:Y 0.000118849
3 *656:A2 *654:A1 0.000115595
4 *656:A2 *706:D 6.98337e-06
5 *656:A2 *935:A 6.49694e-05
6 *656:A2 *383:124 6.3657e-05
7 *656:A2 *408:18 9.14461e-05
8 *572:A *656:A2 6.46815e-05
*RES
1 *654:Y *656:A2 23.1039 
*END

*D_NET *74 0.00035102
*CONN
*I *656:B1 I *D sky130_fd_sc_hd__o21ai_1
*I *655:Y O *D sky130_fd_sc_hd__nand2_1
*CAP
1 *656:B1 8.72625e-05
2 *655:Y 8.72625e-05
3 *656:B1 *383:124 0.000159908
4 *656:B1 *383:132 1.65872e-05
*RES
1 *655:Y *656:B1 20.8855 
*END

*D_NET *75 0.00047655
*CONN
*I *706:D I *D sky130_fd_sc_hd__edfxtp_1
*I *656:Y O *D sky130_fd_sc_hd__o21ai_1
*CAP
1 *706:D 0.000138677
2 *656:Y 0.000138677
3 *706:D *727:DE 3.49076e-05
4 *706:D *383:117 0.000143586
5 *706:D *383:124 1.37189e-05
6 *656:A2 *706:D 6.98337e-06
*RES
1 *656:Y *706:D 31.2579 
*END

*D_NET *76 0.00588918
*CONN
*I *659:A1 I *D sky130_fd_sc_hd__o21ai_1
*I *657:Y O *D sky130_fd_sc_hd__mux2i_2
*CAP
1 *659:A1 0
2 *657:Y 0.0021545
3 *76:8 0.0021545
4 *76:8 *559:B 1.83294e-06
5 *76:8 *657:A0 0.000116621
6 *76:8 *657:S 0.000112367
7 *76:8 *659:A2 1.83795e-06
8 *76:8 *663:A0 1.37531e-05
9 *76:8 *665:A1 0.00016553
10 *76:8 *772:A 7.62044e-05
11 *76:8 *772:B 1.19705e-05
12 *76:8 *896:A 6.24474e-06
13 *76:8 *1054:A 0
14 *76:8 *124:16 0.000539003
15 *76:8 *259:50 7.09967e-05
16 *76:8 *330:27 1.4091e-06
17 *76:8 *436:37 0.000252337
18 *76:8 *436:44 0.000112361
19 *76:8 *449:16 1.83992e-05
20 *576:B *76:8 7.93204e-05
*RES
1 *657:Y *76:8 43.1282 
2 *76:8 *659:A1 9.24915 
*END

*D_NET *77 0.00247789
*CONN
*I *659:B1 I *D sky130_fd_sc_hd__o21ai_1
*I *658:Y O *D sky130_fd_sc_hd__nand2_1
*CAP
1 *659:B1 0.000873775
2 *658:Y 0.000873775
3 *659:B1 *707:D 0.000404379
4 *659:B1 *709:DE 3.24551e-06
5 *659:B1 *259:50 0.000117877
6 *659:B1 *282:22 7.7517e-05
7 *659:B1 *330:27 5.46597e-05
8 *659:B1 *378:12 4.19401e-05
9 *659:B1 *444:16 0
10 *659:B1 *444:20 3.07196e-05
*RES
1 *658:Y *659:B1 44.7409 
*END

*D_NET *78 0.00151901
*CONN
*I *707:D I *D sky130_fd_sc_hd__edfxtp_1
*I *659:Y O *D sky130_fd_sc_hd__o21ai_1
*CAP
1 *707:D 0.000386138
2 *659:Y 0.000386138
3 *707:D *707:DE 3.81987e-05
4 *707:D *378:12 0.000304153
5 *659:B1 *707:D 0.000404379
*RES
1 *659:Y *707:D 39.0597 
*END

*D_NET *79 0.00219097
*CONN
*I *662:A1 I *D sky130_fd_sc_hd__o21ai_1
*I *660:Y O *D sky130_fd_sc_hd__mux2i_2
*CAP
1 *662:A1 0.000749055
2 *660:Y 0.000749055
3 *662:A1 *658:B 0.000132296
4 *662:A1 *660:A0 0.000158002
5 *662:A1 *895:A 8.70622e-06
6 *662:A1 *1054:A 2.33652e-05
7 *662:A1 *442:118 8.70622e-06
8 *1001:A *662:A1 0.000139705
9 *17:10 *662:A1 0.00022208
*RES
1 *660:Y *662:A1 43.5816 
*END

*D_NET *80 0.00384681
*CONN
*I *662:B1 I *D sky130_fd_sc_hd__o21ai_1
*I *661:Y O *D sky130_fd_sc_hd__nand2_1
*CAP
1 *662:B1 0.000195153
2 *661:Y 0.000782212
3 *80:18 0.000977364
4 *662:B1 *708:D 0.00029814
5 *662:B1 *858:A 6.08467e-05
6 *662:B1 *205:22 0.000406794
7 *662:B1 *413:22 1.41976e-05
8 *662:B1 *442:118 0.000131777
9 *80:18 *551:B 0.0003717
10 *80:18 *552:B 9.80747e-05
11 *80:18 *724:D 0.000160617
12 *80:18 *929:A 5.30033e-05
13 *80:18 *259:22 0.000140487
14 *80:18 *280:16 1.70077e-05
15 *80:18 *330:27 6.69064e-05
16 *80:18 *442:144 0
17 *681:A0 *80:18 7.25274e-05
*RES
1 *661:Y *80:18 43.0017 
2 *80:18 *662:B1 18.2916 
*END

*D_NET *81 0.00237842
*CONN
*I *708:D I *D sky130_fd_sc_hd__edfxtp_1
*I *662:Y O *D sky130_fd_sc_hd__o21ai_1
*CAP
1 *708:D 0.000692932
2 *662:Y 0.000692932
3 *708:D *707:DE 0.000129806
4 *708:D *259:22 0.000275684
5 *708:D *442:118 9.75148e-06
6 *708:D *444:47 0.000279176
7 *662:B1 *708:D 0.00029814
*RES
1 *662:Y *708:D 42.6834 
*END

*D_NET *82 0.00128585
*CONN
*I *665:A1 I *D sky130_fd_sc_hd__o21ai_1
*I *663:Y O *D sky130_fd_sc_hd__mux2i_1
*CAP
1 *665:A1 0.000353202
2 *663:Y 0.000353202
3 *665:A1 *657:A0 4.17605e-05
4 *665:A1 *663:A0 6.64392e-05
5 *665:A1 *709:D 3.07133e-05
6 *665:A1 *102:14 0
7 *665:A1 *412:8 0
8 *665:A1 *436:37 0
9 *665:A1 *449:16 0.000121004
10 *5:12 *665:A1 0.000153998
11 *76:8 *665:A1 0.00016553
*RES
1 *663:Y *665:A1 38.1884 
*END

*D_NET *83 0.000362825
*CONN
*I *665:B1 I *D sky130_fd_sc_hd__o21ai_1
*I *664:Y O *D sky130_fd_sc_hd__nand2_1
*CAP
1 *665:B1 0.000137906
2 *664:Y 0.000137906
3 *665:B1 *665:A2 7.28157e-05
4 *665:B1 *709:D 1.41976e-05
5 *665:B1 *449:16 0
*RES
1 *664:Y *665:B1 30.4689 
*END

*D_NET *84 0.00270438
*CONN
*I *709:D I *D sky130_fd_sc_hd__edfxtp_1
*I *665:Y O *D sky130_fd_sc_hd__o21ai_1
*CAP
1 *709:D 0.000876575
2 *665:Y 0.000876575
3 *709:D *681:S 0.000303768
4 *709:D *709:DE 8.18934e-05
5 *709:D *709:CLK 9.75356e-05
6 *709:D *124:16 0.000324887
7 *709:D *442:144 4.82203e-05
8 *665:A1 *709:D 3.07133e-05
9 *665:B1 *709:D 1.41976e-05
10 *8:10 *709:D 5.00174e-05
*RES
1 *665:Y *709:D 48.6565 
*END

*D_NET *85 0.000763895
*CONN
*I *668:A2 I *D sky130_fd_sc_hd__o21ai_1
*I *666:Y O *D sky130_fd_sc_hd__mux2i_1
*CAP
1 *668:A2 0.000153392
2 *666:Y 0.000153392
3 *668:A2 *666:A0 3.13805e-06
4 *668:A2 *666:S 4.23858e-05
5 *668:A2 *668:A1 6.64392e-05
6 *558:A *668:A2 0.000345147
*RES
1 *666:Y *668:A2 23.8514 
*END

*D_NET *86 0.000442941
*CONN
*I *668:B1 I *D sky130_fd_sc_hd__o21ai_1
*I *667:Y O *D sky130_fd_sc_hd__nand2_1
*CAP
1 *668:B1 0.000192012
2 *667:Y 0.000192012
3 *668:B1 *667:A 1.41976e-05
4 *668:B1 *668:A1 4.19431e-05
5 *668:B1 *383:150 2.77625e-06
*RES
1 *667:Y *668:B1 21.8741 
*END

*D_NET *87 0.000570722
*CONN
*I *710:D I *D sky130_fd_sc_hd__edfxtp_1
*I *668:Y O *D sky130_fd_sc_hd__o21ai_1
*CAP
1 *710:D 0.00019732
2 *668:Y 0.00019732
3 *710:D *668:A1 2.54623e-05
4 *710:D *259:137 4.21215e-05
5 *710:D *390:192 8.09529e-05
6 *710:D *390:211 2.75449e-05
7 *710:D *492:90 0
*RES
1 *668:Y *710:D 32.0242 
*END

*D_NET *88 0.00405327
*CONN
*I *721:D I *D sky130_fd_sc_hd__edfxtp_1
*I *669:X O *D sky130_fd_sc_hd__mux2_4
*CAP
1 *721:D 0
2 *669:X 0.000964228
3 *88:26 0.000964228
4 *88:26 *582:C 0.00021459
5 *88:26 *669:A1 0.000386968
6 *88:26 *712:DE 1.80522e-05
7 *88:26 *721:DE 3.81987e-05
8 *88:26 *721:CLK 6.37652e-06
9 *88:26 *728:D 6.27782e-05
10 *88:26 *259:238 0
11 *88:26 *389:31 8.07858e-05
12 *88:26 *390:49 0
13 *88:26 *390:53 0.000443549
14 *88:26 *435:26 0.000214105
15 *586:B *88:26 0
16 *47:12 *88:26 0.000659408
*RES
1 *669:X *88:26 49.4388 
2 *88:26 *721:D 9.24915 
*END

*D_NET *89 0.00188787
*CONN
*I *728:D I *D sky130_fd_sc_hd__edfxtp_1
*I *670:X O *D sky130_fd_sc_hd__mux2_4
*CAP
1 *728:D 0.000442588
2 *670:X 0.000442588
3 *728:D resp_msg[1] 6.27782e-05
4 *728:D *670:A1 6.27782e-05
5 *728:D *670:S 9.09902e-05
6 *728:D *864:A 0
7 *728:D *899:A 0.000109427
8 *728:D *389:31 7.66391e-06
9 *728:D *424:41 1.55915e-05
10 *47:12 *728:D 0.000590684
11 *88:26 *728:D 6.27782e-05
*RES
1 *670:X *728:D 32.4116 
*END

*D_NET *90 0.000998498
*CONN
*I *729:D I *D sky130_fd_sc_hd__edfxtp_1
*I *671:X O *D sky130_fd_sc_hd__mux2_4
*CAP
1 *729:D 0.000238902
2 *671:X 0.000238902
3 *729:D *671:A0 0.000217937
4 *729:D *729:DE 6.92705e-05
5 *729:D *878:A 0.000183778
6 *32:12 *729:D 4.97077e-05
*RES
1 *671:X *729:D 35.4884 
*END

*D_NET *91 0.00294794
*CONN
*I *730:D I *D sky130_fd_sc_hd__edfxtp_1
*I *672:X O *D sky130_fd_sc_hd__mux2_4
*CAP
1 *730:D 0.000506324
2 *672:X 0.000506324
3 *730:D resp_msg[5] 0.000336381
4 *730:D *672:S 0.00011818
5 *730:D *881:A 2.33103e-06
6 *730:D *998:A 0.000114271
7 *730:D *389:10 0.000142683
8 *730:D *389:12 0
9 *730:D *389:91 7.42533e-05
10 *730:D *433:40 0.00114719
*RES
1 *672:X *730:D 49.2531 
*END

*D_NET *92 0.00428294
*CONN
*I *731:D I *D sky130_fd_sc_hd__edfxtp_1
*I *673:X O *D sky130_fd_sc_hd__mux2_4
*CAP
1 *731:D 0
2 *673:X 0.000459937
3 *92:16 0.000459937
4 *92:16 *531:A 6.21507e-05
5 *92:16 *730:CLK 0.000435035
6 *92:16 *731:DE 3.61138e-05
7 *92:16 *1007:A 0.00137051
8 *92:16 *403:14 0.000222149
9 *92:16 *433:40 0.000431453
10 *92:16 *453:10 0.000360145
11 *954:A *92:16 0.000445515
*RES
1 *673:X *92:16 43.7264 
2 *92:16 *731:D 9.24915 
*END

*D_NET *93 0.00294075
*CONN
*I *732:D I *D sky130_fd_sc_hd__edfxtp_1
*I *674:X O *D sky130_fd_sc_hd__mux2_4
*CAP
1 *732:D 0.0005385
2 *674:X 0.0005385
3 *732:D *640:B 0.000164843
4 *732:D *674:A0 0.000375093
5 *732:D *674:A1 9.65997e-05
6 *732:D *674:S 0.0004245
7 *732:D *675:S 7.06383e-05
8 *732:D *732:DE 3.42041e-05
9 *732:D *435:64 2.29454e-05
10 *732:D *435:77 2.91008e-06
11 *732:D *442:243 0.000102003
12 *732:D *459:21 0
13 *641:A2 *732:D 0.000553427
14 *641:B1 *732:D 1.65872e-05
*RES
1 *674:X *732:D 48.4479 
*END

*D_NET *94 0.00140023
*CONN
*I *733:D I *D sky130_fd_sc_hd__edfxtp_1
*I *675:X O *D sky130_fd_sc_hd__mux2_4
*CAP
1 *733:D 0.000404423
2 *675:X 0.000404423
3 *733:D *623:A_N 0
4 *733:D *675:A0 6.75302e-05
5 *733:D *675:A1 6.56617e-05
6 *733:D *675:S 0.000130909
7 *733:D *694:A2 8.40017e-05
8 *733:D *733:DE 3.34188e-05
9 *733:D *104:14 5.49029e-06
10 *733:D *445:37 0.000113188
11 *733:D *445:45 2.19092e-05
12 *693:B1 *733:D 6.92705e-05
*RES
1 *675:X *733:D 43.8469 
*END

*D_NET *95 0.000825272
*CONN
*I *734:D I *D sky130_fd_sc_hd__edfxtp_1
*I *676:X O *D sky130_fd_sc_hd__mux2_4
*CAP
1 *734:D 0.000279733
2 *676:X 0.000279733
3 *734:D *734:DE 8.5703e-05
4 *647:A2 *734:D 0.000143175
5 *718:D *734:D 3.6928e-05
*RES
1 *676:X *734:D 35.0437 
*END

*D_NET *96 0.0018196
*CONN
*I *735:D I *D sky130_fd_sc_hd__edfxtp_1
*I *677:X O *D sky130_fd_sc_hd__mux2_4
*CAP
1 *735:D 0.00052258
2 *677:X 0.00052258
3 *735:D resp_msg[9] 0
4 *735:D *886:A 0
5 *735:D *383:81 6.26561e-05
6 *735:D *434:35 7.33113e-05
7 *735:D *434:56 2.25129e-05
8 *735:D *443:68 7.1982e-05
9 *735:D *492:58 0.000206081
10 *650:B1 *735:D 0.000206566
11 *11:10 *735:D 0.000131328
*RES
1 *677:X *735:D 43.3866 
*END

*D_NET *97 0.00062824
*CONN
*I *736:D I *D sky130_fd_sc_hd__edfxtp_1
*I *678:X O *D sky130_fd_sc_hd__mux2_4
*CAP
1 *736:D 0.000179533
2 *678:X 0.000179533
3 *736:D *434:62 6.93408e-05
4 *736:D *434:79 4.73201e-05
5 *736:D *443:72 1.41181e-05
6 *959:A *736:D 0.000138395
*RES
1 *678:X *736:D 32.4395 
*END

*D_NET *98 0.0016618
*CONN
*I *722:D I *D sky130_fd_sc_hd__edfxtp_1
*I *679:X O *D sky130_fd_sc_hd__mux2_4
*CAP
1 *722:D 0.000431193
2 *679:X 0.000431193
3 *722:D *573:B 5.97399e-05
4 *722:D *679:S 3.82228e-05
5 *722:D *727:DE 6.61157e-05
6 *722:D *446:71 0
7 *722:D *489:12 6.73186e-05
8 *573:A *722:D 0.000212189
9 *24:25 *722:D 0.000355827
*RES
1 *679:X *722:D 40.0164 
*END

*D_NET *99 0.00188375
*CONN
*I *723:D I *D sky130_fd_sc_hd__edfxtp_1
*I *680:X O *D sky130_fd_sc_hd__mux2_4
*CAP
1 *723:D 0.000388548
2 *680:X 0.000388548
3 *723:D *929:A 0.000161234
4 *723:D *282:22 0.000515315
5 *23:10 *723:D 0.000430107
*RES
1 *680:X *723:D 40.4835 
*END

*D_NET *100 0.00166108
*CONN
*I *724:D I *D sky130_fd_sc_hd__edfxtp_1
*I *681:X O *D sky130_fd_sc_hd__mux2_4
*CAP
1 *724:D 0.000349732
2 *681:X 0.000349732
3 *724:D *551:B 1.55025e-05
4 *724:D *681:S 6.08467e-05
5 *724:D *725:DE 0.000385556
6 *724:D *725:CLK 2.20702e-05
7 *724:D *124:16 8.14711e-05
8 *724:D *330:27 0.000108397
9 *724:D *444:22 0
10 *724:D *444:76 4.73838e-05
11 *724:D *459:65 5.81343e-05
12 *681:A0 *724:D 2.16355e-05
13 *80:18 *724:D 0.000160617
*RES
1 *681:X *724:D 38.6915 
*END

*D_NET *101 0.00139984
*CONN
*I *725:D I *D sky130_fd_sc_hd__edfxtp_1
*I *682:X O *D sky130_fd_sc_hd__mux2_4
*CAP
1 *725:D 0.000576243
2 *682:X 0.000576243
3 *725:D *725:DE 6.64392e-05
4 *6:10 *725:D 0.000180917
*RES
1 *682:X *725:D 34.4974 
*END

*D_NET *102 0.00310666
*CONN
*I *726:D I *D sky130_fd_sc_hd__edfxtp_1
*I *683:X O *D sky130_fd_sc_hd__mux2_4
*CAP
1 *726:D 0
2 *683:X 0.00109031
3 *102:14 0.00109031
4 *102:14 *657:A0 0
5 *102:14 *683:A1 0.000184106
6 *102:14 *688:A 0
7 *102:14 *688:C 0.000157378
8 *102:14 *726:DE 6.17632e-05
9 *102:14 *259:110 0.000160617
10 *102:14 *412:8 8.48982e-05
11 *102:14 *436:37 5.40924e-05
12 *102:14 *449:16 0.000146225
13 *665:A1 *102:14 0
14 *683:A0 *102:14 1.65872e-05
15 *5:12 *102:14 6.0385e-05
*RES
1 *683:X *102:14 46.4697 
2 *102:14 *726:D 9.24915 
*END

*D_NET *103 0.00354006
*CONN
*I *702:D I *D sky130_fd_sc_hd__dfxtp_4
*I *685:X O *D sky130_fd_sc_hd__a221o_1
*CAP
1 *702:D 0.00119482
2 *685:X 0.00119482
3 *702:D *702:CLK 1.32845e-05
4 *702:D *703:D 0.000238834
5 *702:D *704:D 3.88893e-05
6 *622:B *702:D 1.42729e-05
7 *978:A *702:D 8.87896e-05
8 *41:10 *702:D 0.000756341
*RES
1 *685:X *702:D 49.1833 
*END

*D_NET *104 0.00554902
*CONN
*I *694:A2 I *D sky130_fd_sc_hd__o22ai_2
*I *686:Y O *D sky130_fd_sc_hd__nor2b_1
*CAP
1 *694:A2 0.000353575
2 *686:Y 0.00130343
3 *104:14 0.00165701
4 *694:A2 *675:A1 0.000130777
5 *694:A2 *696:B_N 2.58616e-05
6 *694:A2 *698:A 0.000163689
7 *694:A2 *704:D 0
8 *694:A2 *884:A 0
9 *694:A2 *445:29 6.90359e-05
10 *694:A2 *445:37 3.18408e-05
11 *694:A2 *445:45 0.000122844
12 *104:14 *610:B 4.58959e-05
13 *104:14 *733:DE 2.03771e-05
14 *104:14 *940:A 4.64934e-05
15 *104:14 *443:16 8.73768e-05
16 *104:14 *443:18 0.000158227
17 *620:A1 *104:14 0.000641164
18 *694:B1 *694:A2 6.27718e-05
19 *733:D *694:A2 8.40017e-05
20 *733:D *104:14 5.49029e-06
21 *39:10 *104:14 0.000539163
*RES
1 *686:Y *104:14 41.4646 
2 *104:14 *694:A2 26.6858 
*END

*D_NET *105 0.0022913
*CONN
*I *935:A I *D sky130_fd_sc_hd__buf_4
*I *687:Y O *D sky130_fd_sc_hd__nor4_1
*CAP
1 *935:A 0.000670325
2 *687:Y 0.000670325
3 *935:A *651:S 4.62703e-05
4 *935:A *687:C 5.8493e-05
5 *935:A *401:28 0.000160942
6 *935:A *446:71 0.00017686
7 *935:A *492:74 0.000182542
8 *572:A *935:A 0.000260577
9 *656:A2 *935:A 6.49694e-05
*RES
1 *687:Y *935:A 41.5554 
*END

*D_NET *106 0.00456613
*CONN
*I *939:A I *D sky130_fd_sc_hd__buf_4
*I *688:Y O *D sky130_fd_sc_hd__nor4_1
*CAP
1 *939:A 0.00151035
2 *688:Y 0.00151035
3 *939:A *522:B2 0
4 *939:A *660:S 0
5 *939:A *666:S 0
6 *939:A *688:B 8.78565e-06
7 *939:A *159:12 6.83542e-05
8 *939:A *257:12 6.11074e-05
9 *939:A *278:19 6.11074e-05
10 *939:A *341:16 1.97947e-05
11 *939:A *378:12 0.00011818
12 *939:A *388:10 3.16131e-05
13 *939:A *390:211 0.000510056
14 *939:A *436:37 0
15 *939:A *499:14 0.000666435
*RES
1 *688:Y *939:A 48.8165 
*END

*D_NET *107 0.00731773
*CONN
*I *691:C I *D sky130_fd_sc_hd__and4_1
*I *689:Y O *D sky130_fd_sc_hd__nor4_1
*CAP
1 *691:C 9.06861e-05
2 *689:Y 0.000103428
3 *107:10 0.00132074
4 *107:8 0.00133349
5 *691:C *529:A2 0.000164829
6 *691:C *529:B1 0.000110306
7 *691:C *691:D 0.000468419
8 *691:C *305:10 1.19856e-05
9 *691:C *388:22 3.03403e-05
10 *107:8 *535:A 0.000169041
11 *107:10 *689:D 4.25222e-05
12 *107:10 *1039:A 0.000122708
13 *107:10 *196:36 0.000202943
14 *107:10 *259:220 5.71729e-05
15 *107:10 *259:305 2.93597e-05
16 *107:10 *260:10 0.000141718
17 *107:10 *388:22 0.00181867
18 *107:10 *424:27 0
19 *107:10 *432:39 0.000162271
20 *107:10 *433:20 7.87165e-05
21 *599:C *107:10 0.000749268
22 *715:D *107:10 0.000107077
23 *16:12 *107:10 0
24 *56:12 *107:10 2.03363e-06
*RES
1 *689:Y *107:8 15.5817 
2 *107:8 *107:10 46.264 
3 *107:10 *691:C 18.9094 
*END

*D_NET *108 0.00389311
*CONN
*I *691:D I *D sky130_fd_sc_hd__and4_1
*I *690:Y O *D sky130_fd_sc_hd__nor4_1
*CAP
1 *691:D 0.00108896
2 *690:Y 0.00108896
3 *691:D *690:A 3.16131e-05
4 *691:D *690:B 0.000161243
5 *691:D *690:C 0.000216458
6 *691:D *305:10 9.87052e-06
7 *691:D *433:20 1.80887e-05
8 *691:D *435:64 0
9 *691:D *459:8 5.91002e-06
10 *691:C *691:D 0.000468419
11 *954:A *691:D 0.000190823
12 *16:8 *691:D 0.000612765
*RES
1 *690:Y *691:D 49.4914 
*END

*D_NET *109 0.00497237
*CONN
*I *692:A I *D sky130_fd_sc_hd__nand2_2
*I *693:A2 I *D sky130_fd_sc_hd__a21oi_4
*I *691:X O *D sky130_fd_sc_hd__and4_1
*CAP
1 *692:A 6.88604e-05
2 *693:A2 0.000139657
3 *691:X 0.000705011
4 *109:18 0.000938599
5 *109:16 0.00143509
6 *692:A *644:A1 9.75356e-05
7 *692:A *383:35 7.15574e-05
8 *109:16 *607:B 0.000257032
9 *109:16 *691:A 0
10 *109:16 *911:A 0.000140826
11 *109:16 *228:10 6.14128e-05
12 *109:16 *305:10 2.26947e-05
13 *109:16 *399:18 2.95757e-05
14 *109:16 *445:12 0
15 *109:18 *607:B 6.08467e-05
16 *109:18 *950:A 0.000169255
17 *620:A1 *692:A 0.000153389
18 *970:A *109:16 0.000161804
19 *993:A *693:A2 0.000213614
20 *993:A *109:18 0.000199541
21 *1045:A *109:18 3.82894e-05
22 *28:10 *109:16 7.77309e-06
*RES
1 *691:X *109:16 36.7968 
2 *109:16 *109:18 16.2523 
3 *109:18 *693:A2 12.7697 
4 *109:18 *692:A 21.3269 
*END

*D_NET *110 0.0014896
*CONN
*I *697:B1 I *D sky130_fd_sc_hd__a22oi_2
*I *692:Y O *D sky130_fd_sc_hd__nand2_2
*CAP
1 *697:B1 0.000340816
2 *692:Y 0.000340816
3 *697:B1 *623:A_N 3.31882e-05
4 *697:B1 *623:B 5.25612e-05
5 *697:B1 *693:A1 2.07503e-05
6 *697:B1 *697:A1 5.03545e-06
7 *697:B1 *383:16 0.000273045
8 *697:B1 *390:8 0
9 *697:B1 *390:14 0
10 *697:B1 *390:122 1.68845e-05
11 *697:B1 *509:12 0
12 *618:A *697:B1 1.72278e-05
13 *693:B1 *697:B1 2.58518e-05
14 *934:A *697:B1 6.50586e-05
15 *993:A *697:B1 0.000298361
*RES
1 *692:Y *697:B1 39.1174 
*END

*D_NET *111 0.0021498
*CONN
*I *694:B2 I *D sky130_fd_sc_hd__o22ai_2
*I *693:Y O *D sky130_fd_sc_hd__a21oi_4
*CAP
1 *694:B2 0.000317021
2 *693:Y 0.000317021
3 *694:B2 *675:A0 0.000534349
4 *694:B2 *698:A 0.000103526
5 *694:B2 *698:B 0.000576814
6 *694:B2 *703:D 0.000145171
7 *694:B2 *704:D 0.000155902
*RES
1 *693:Y *694:B2 41.9707 
*END

*D_NET *112 0.00191286
*CONN
*I *696:B_N I *D sky130_fd_sc_hd__nor2b_1
*I *694:Y O *D sky130_fd_sc_hd__o22ai_2
*CAP
1 *696:B_N 0.000481464
2 *694:Y 0.000481464
3 *696:B_N *698:B 8.36586e-06
4 *696:B_N *1046:A 0
5 *696:B_N *427:12 0.000480491
6 *696:B_N *445:29 0.000157107
7 *694:A1 *696:B_N 0.00026034
8 *694:A2 *696:B_N 2.58616e-05
9 *694:B1 *696:B_N 1.77674e-05
*RES
1 *694:Y *696:B_N 42.4044 
*END

*D_NET *113 0.000315456
*CONN
*I *685:A2 I *D sky130_fd_sc_hd__a221o_1
*I *695:Y O *D sky130_fd_sc_hd__clkinv_1
*CAP
1 *685:A2 8.96857e-05
2 *695:Y 8.96857e-05
3 *685:A2 *685:B1 0.000121905
4 *622:B *685:A2 5.94977e-06
5 *41:10 *685:A2 8.2304e-06
*RES
1 *695:Y *685:A2 29.9445 
*END

*D_NET *114 0.00304156
*CONN
*I *703:D I *D sky130_fd_sc_hd__dfxtp_1
*I *696:Y O *D sky130_fd_sc_hd__nor2b_1
*CAP
1 *703:D 0.000712471
2 *696:Y 0.000712471
3 *703:D *696:A 6.22703e-05
4 *703:D *698:A 0.000652855
5 *703:D *704:D 3.77175e-05
6 *703:D *981:A 7.25324e-06
7 *703:D *427:12 0.000426154
8 *703:D *445:94 9.58927e-06
9 *694:B2 *703:D 0.000145171
10 *702:D *703:D 0.000238834
11 *978:A *703:D 3.67707e-05
*RES
1 *696:Y *703:D 47.4526 
*END

*D_NET *115 0.00238059
*CONN
*I *698:B I *D sky130_fd_sc_hd__nor2_1
*I *697:Y O *D sky130_fd_sc_hd__a22oi_2
*CAP
1 *698:B 0.000660214
2 *697:Y 0.000660214
3 *698:B *623:B 5.78792e-05
4 *698:B *704:D 1.00937e-05
5 *698:B *427:12 1.45799e-05
6 *698:B *445:29 6.27782e-05
7 *618:A *698:B 6.66413e-05
8 *693:B1 *698:B 0.000200236
9 *694:A1 *698:B 6.27782e-05
10 *694:B2 *698:B 0.000576814
11 *696:B_N *698:B 8.36586e-06
*RES
1 *697:Y *698:B 42.8441 
*END

*D_NET *116 0.00153963
*CONN
*I *704:D I *D sky130_fd_sc_hd__dfxtp_1
*I *698:Y O *D sky130_fd_sc_hd__nor2_1
*CAP
1 *704:D 0.000411562
2 *698:Y 0.000411562
3 *704:D *698:A 0
4 *704:D *702:CLK 3.55179e-05
5 *704:D *445:98 0.000397273
6 *694:A2 *704:D 0
7 *694:B2 *704:D 0.000155902
8 *698:B *704:D 1.00937e-05
9 *702:D *704:D 3.88893e-05
10 *703:D *704:D 3.77175e-05
11 *978:A *704:D 4.1112e-05
*RES
1 *698:Y *704:D 40.9013 
*END

*D_NET *117 0.00170201
*CONN
*I *701:A2 I *D sky130_fd_sc_hd__o21ai_1
*I *699:Y O *D sky130_fd_sc_hd__mux2i_1
*CAP
1 *701:A2 0.000476075
2 *699:Y 0.000476075
3 *701:A2 *699:A0 3.31745e-05
4 *701:A2 *699:A1 6.08467e-05
5 *701:A2 *699:S 1.82679e-05
6 *701:A2 *701:B1 0.000304866
7 *701:A2 *711:D 9.44631e-06
8 *701:A2 *1005:A 0.000107496
9 *701:A2 *383:140 0.000205681
10 *701:A2 *436:64 1.00766e-05
*RES
1 *699:Y *701:A2 31.5918 
*END

*D_NET *118 0.000993699
*CONN
*I *701:B1 I *D sky130_fd_sc_hd__o21ai_1
*I *700:Y O *D sky130_fd_sc_hd__nand2_1
*CAP
1 *701:B1 0.00032787
2 *700:Y 0.00032787
3 *701:B1 *383:140 3.30938e-05
4 *701:A2 *701:B1 0.000304866
*RES
1 *700:Y *701:B1 33.242 
*END

*D_NET *119 0.00343234
*CONN
*I *711:D I *D sky130_fd_sc_hd__edfxtp_1
*I *701:Y O *D sky130_fd_sc_hd__o21ai_1
*CAP
1 *711:D 0.00082216
2 *701:Y 0.00082216
3 *711:D *621:A1 0.000883672
4 *711:D *711:DE 6.13018e-05
5 *711:D *862:A 0.000501334
6 *711:D *921:A 0.000231882
7 *711:D *157:20 5.85665e-05
8 *701:A2 *711:D 9.44631e-06
9 *2:10 *711:D 4.18215e-05
*RES
1 *701:Y *711:D 44.1186 
*END

*D_NET *255 0.000331965
*CONN
*I *615:B1 I *D sky130_fd_sc_hd__a21oi_1
*I *616:Y O *D sky130_fd_sc_hd__o21ai_0
*CAP
1 *615:B1 6.6819e-05
2 *616:Y 6.6819e-05
3 *615:B1 *558:B 0
4 *615:B1 *616:B1 0.00011059
5 *615:B1 *772:B 8.77364e-05
*RES
1 *616:Y *615:B1 29.7455 
*END

*D_NET *252 0.00284931
*CONN
*I *614:C1 I *D sky130_fd_sc_hd__o311ai_2
*I *615:Y O *D sky130_fd_sc_hd__a21oi_1
*CAP
1 *614:C1 0.000687034
2 *615:Y 0.000687034
3 *614:C1 *545:A1 0.000538476
4 *614:C1 *666:A0 5.04423e-06
5 *614:C1 *256:8 0.000107451
6 *614:C1 *274:14 5.04324e-05
7 *614:C1 *492:74 1.03594e-05
8 *614:C1 *492:90 0.000103877
9 *558:A *614:C1 0.00025424
10 *613:A *614:C1 0.000119265
11 *915:A *614:C1 0.000286102
*RES
1 *615:Y *614:C1 45.981 
*END

*D_NET *247 0.000784945
*CONN
*I *613:A I *D sky130_fd_sc_hd__xnor2_1
*I *614:Y O *D sky130_fd_sc_hd__o311ai_2
*CAP
1 *613:A 0.00010503
2 *614:Y 0.00010503
3 *613:A *545:B1 0.000109814
4 *613:A *545:A1 2.07503e-05
5 *613:A *556:B 0.000209388
6 *613:A *614:C1 0.000119265
7 *613:A *492:90 0.000115668
*RES
1 *614:Y *613:A 32.6874 
*END

*D_NET *242 0.00562752
*CONN
*I *518:A2 I *D sky130_fd_sc_hd__o211ai_1
*I *951:A I *D sky130_fd_sc_hd__buf_4
*I *610:B I *D sky130_fd_sc_hd__xnor2_4
*I *612:X O *D sky130_fd_sc_hd__xor2_4
*CAP
1 *518:A2 0.000864616
2 *951:A 0
3 *610:B 0.000810226
4 *612:X 0.000713772
5 *242:24 0.00096107
6 *518:A2 *602:B1 5.82312e-05
7 *518:A2 *602:C1 0.000313935
8 *518:A2 *611:B 3.61531e-05
9 *518:A2 *755:A 0
10 *518:A2 *315:10 0.000127819
11 *518:A2 *320:22 6.08467e-05
12 *518:A2 *358:82 0.00011818
13 *518:A2 *367:10 0.00013662
14 *518:A2 *401:28 0
15 *518:A2 *432:95 8.10016e-06
16 *610:B *442:12 9.63354e-05
17 *610:B *443:16 0.000255298
18 *242:24 *602:C1 8.23828e-05
19 *242:24 *611:B 0.000151323
20 *602:A1 *518:A2 1.79413e-05
21 *604:A *610:B 3.56119e-05
22 *677:A1 *518:A2 6.64392e-05
23 *741:B1 *518:A2 0.000143875
24 *755:B *518:A2 6.27718e-05
25 *770:A *518:A2 6.50727e-05
26 *770:B *518:A2 0.00020993
27 *27:12 *518:A2 1.44611e-05
28 *39:10 *610:B 5.20218e-05
29 *104:14 *610:B 4.58959e-05
30 *170:16 *518:A2 3.93117e-06
31 *225:14 *518:A2 0.000114659
*RES
1 *612:X *610:B 30.6668 
2 *610:B *242:24 13.3002 
3 *242:24 *951:A 9.24915 
4 *242:24 *518:A2 45.2522 
*END

*D_NET *240 0.00274137
*CONN
*I *740:A2 I *D sky130_fd_sc_hd__a211oi_1
*I *517:A I *D sky130_fd_sc_hd__nand2_1
*I *611:Y O *D sky130_fd_sc_hd__nand2_1
*CAP
1 *740:A2 0.000677475
2 *517:A 6.9535e-05
3 *611:Y 0
4 *240:4 0.00074701
5 *517:A *517:B 4.31603e-06
6 *517:A *611:A 1.98899e-06
7 *517:A *611:B 4.93729e-05
8 *517:A *642:S 7.34948e-06
9 *517:A *316:18 2.51527e-05
10 *740:A2 *525:A 0.000127548
11 *740:A2 *611:A 7.92757e-06
12 *740:A2 *611:B 0.000181104
13 *740:A2 *642:S 5.0715e-05
14 *740:A2 *740:A1 0
15 *740:A2 *985:A 2.02035e-05
16 *740:A2 *311:20 3.74593e-05
17 *740:A2 *315:10 4.20184e-06
18 *740:A2 *316:18 0
19 *740:A2 *419:31 1.29211e-05
20 *740:A2 *434:8 0
21 *938:A *740:A2 0.00014763
22 *1023:A *740:A2 0
23 *167:16 *740:A2 1.07248e-05
24 *168:16 *740:A2 4.19013e-06
25 *239:8 *740:A2 0.000414329
26 *239:10 *740:A2 0.000140217
*RES
1 *611:Y *240:4 9.24915 
2 *240:4 *517:A 11.1059 
3 *240:4 *740:A2 38.6294 
*END

*D_NET *239 0.0145048
*CONN
*I *938:A I *D sky130_fd_sc_hd__buf_4
*I *520:A I *D sky130_fd_sc_hd__nor2_4
*I *744:B I *D sky130_fd_sc_hd__nor4_4
*I *609:B I *D sky130_fd_sc_hd__nor2_2
*I *519:A I *D sky130_fd_sc_hd__nor3_4
*I *610:Y O *D sky130_fd_sc_hd__xnor2_4
*CAP
1 *938:A 0.000114786
2 *520:A 0.00206365
3 *744:B 7.52198e-06
4 *609:B 0
5 *519:A 0.00143358
6 *610:Y 0
7 *239:38 0.00347206
8 *239:10 0.00161335
9 *239:8 0.00178039
10 *239:6 0.000314527
11 *519:A *606:A 0.000187482
12 *519:A *305:18 1.91391e-05
13 *519:A *459:65 5.83451e-05
14 *520:A *516:A2 1.66454e-06
15 *520:A *617:B 0
16 *520:A *744:D 2.22357e-05
17 *520:A *761:A 2.02035e-05
18 *520:A *763:A1 2.09449e-06
19 *520:A *776:A2 0.000185433
20 *520:A *289:20 1.31877e-05
21 *520:A *319:36 0.00030449
22 *520:A *384:18 2.42801e-06
23 *520:A *478:26 2.96189e-05
24 *744:B *284:33 2.02035e-05
25 *744:B *476:22 2.02035e-05
26 *938:A *521:A 2.30636e-05
27 *938:A *521:B 0.00011818
28 *938:A *740:A1 3.21593e-05
29 *938:A *740:A2 0.00014763
30 *239:8 *740:A1 9.31754e-05
31 *239:8 *740:A2 0.000414329
32 *239:10 *740:A2 0.000140217
33 *239:10 *305:18 0.000147013
34 *239:10 *311:20 2.25583e-07
35 *239:38 *522:B2 0.000111706
36 *239:38 *744:D 0.000308967
37 *239:38 *763:A1 3.70027e-06
38 *239:38 *384:18 0.000170841
39 *239:38 *503:18 2.22654e-05
40 *605:B *519:A 9.03154e-06
41 *903:A *519:A 5.57228e-05
42 *954:A *519:A 0.000144702
43 *1032:A *520:A 5.96157e-05
44 *167:16 *519:A 0.000190652
45 *167:16 *239:10 2.26579e-05
46 *168:16 *938:A 6.27782e-05
47 *178:70 *520:A 0.000107019
48 *233:12 *519:A 1.91391e-05
49 *233:12 *239:8 6.7566e-05
50 *233:12 *239:10 0.000345889
*RES
1 *610:Y *239:6 13.7491 
2 *239:6 *239:8 7.85315 
3 *239:8 *239:10 6.6074 
4 *239:10 *519:A 26.7685 
5 *239:10 *609:B 13.7491 
6 *239:8 *239:38 6.63126 
7 *239:38 *744:B 17.4965 
8 *239:38 *520:A 22.4806 
9 *239:6 *938:A 18.1049 
*END

*D_NET *237 0.00704958
*CONN
*I *600:A1 I *D sky130_fd_sc_hd__a21oi_4
*I *926:A I *D sky130_fd_sc_hd__buf_4
*I *762:A I *D sky130_fd_sc_hd__nand4_1
*I *597:A I *D sky130_fd_sc_hd__nand2_2
*I *609:Y O *D sky130_fd_sc_hd__nor2_2
*CAP
1 *600:A1 5.31817e-05
2 *926:A 0.000340338
3 *762:A 0
4 *597:A 0.000521475
5 *609:Y 0.00025953
6 *237:10 0.000695807
7 *237:8 0.000514671
8 *237:6 0.000312711
9 *597:A *1051:A 0.000313822
10 *597:A *251:8 0.000213657
11 *597:A *340:16 7.26606e-05
12 *597:A *367:10 0.000159946
13 *597:A *483:16 7.14746e-05
14 *600:A1 *516:B1 0.000107496
15 *926:A *251:8 0.000131716
16 *926:A *324:18 7.13972e-05
17 *926:A *340:16 0.000307693
18 *926:A *341:16 0
19 *926:A *375:20 6.08467e-05
20 *926:A *391:34 6.75845e-06
21 *237:6 *516:B1 0.00107917
22 *237:6 *1010:A 6.27718e-05
23 *237:6 *311:20 0.000283055
24 *237:6 *311:44 5.75337e-05
25 *237:6 *501:24 0.000216458
26 *237:10 *251:8 0.000351429
27 *237:10 *340:16 0.000339719
28 *577:A1 *597:A 0.000362816
29 *600:B1 *600:A1 3.31745e-05
30 *600:B1 *237:6 3.82228e-05
31 *755:B *926:A 2.1203e-06
32 *221:14 *237:6 7.92757e-06
*RES
1 *609:Y *237:6 21.6192 
2 *237:6 *237:8 4.5 
3 *237:8 *237:10 6.81502 
4 *237:10 *597:A 28.6499 
5 *237:10 *762:A 13.7491 
6 *237:8 *926:A 22.5361 
7 *237:6 *600:A1 11.1059 
*END

*D_NET *235 0.00307257
*CONN
*I *604:B I *D sky130_fd_sc_hd__xnor2_4
*I *911:A I *D sky130_fd_sc_hd__buf_4
*I *608:X O *D sky130_fd_sc_hd__xor2_2
*CAP
1 *604:B 0.000135668
2 *911:A 0.000349615
3 *608:X 8.16706e-05
4 *235:6 0.000566953
5 *911:A *607:B 1.22289e-05
6 *911:A *996:A 2.65831e-05
7 *911:A *445:12 0.00016553
8 *604:A *604:B 0.000424998
9 *604:A *235:6 9.25028e-05
10 *109:16 *911:A 0.000140826
11 *228:10 *604:B 9.93882e-05
12 *228:10 *911:A 0.000115668
13 *233:12 *911:A 0.000860933
*RES
1 *608:X *235:6 11.6364 
2 *235:6 *911:A 31.6661 
3 *235:6 *604:B 15.1569 
*END

*D_NET *233 0.00575309
*CONN
*I *603:B1 I *D sky130_fd_sc_hd__o21ai_2
*I *607:Y O *D sky130_fd_sc_hd__nand2_1
*CAP
1 *603:B1 0.00027133
2 *607:Y 0.000863584
3 *233:12 0.00113491
4 *603:B1 *522:B1 0.000238117
5 *603:B1 *531:B 2.8182e-06
6 *603:B1 *1011:A 0.000111045
7 *603:B1 *452:31 3.16904e-05
8 *233:12 *519:A 1.91391e-05
9 *233:12 *522:B1 0.000301178
10 *233:12 *522:C1 2.61147e-05
11 *233:12 *607:A 5.0715e-05
12 *233:12 *607:B 0.00116303
13 *233:12 *740:A1 2.073e-05
14 *233:12 *911:A 0.000860933
15 *233:12 *1010:A 3.35532e-05
16 *233:12 *239:8 6.7566e-05
17 *233:12 *239:10 0.000345889
18 *233:12 *305:18 9.08566e-05
19 *233:12 *311:20 7.98425e-06
20 *983:A *603:B1 2.65667e-05
21 *1023:A *233:12 8.53355e-05
*RES
1 *607:Y *233:12 45.5273 
2 *233:12 *603:B1 20.6916 
*END

*D_NET *231 0.00400649
*CONN
*I *605:B I *D sky130_fd_sc_hd__nand2_1
*I *606:X O *D sky130_fd_sc_hd__xor2_1
*CAP
1 *605:B 0.000888323
2 *606:X 0.000888323
3 *605:B *519:A 9.03154e-06
4 *605:B *519:B 0.000748284
5 *605:B *598:A 6.67255e-05
6 *605:B *606:A 0.000971854
7 *605:B *690:A 0.000227491
8 *605:B *314:22 3.27606e-06
9 *529:B1 *605:B 2.87136e-06
10 *633:A1 *605:B 0.000169093
11 *16:12 *605:B 0
12 *52:12 *605:B 3.1218e-05
13 *55:12 *605:B 0
14 *220:12 *605:B 0
*RES
1 *606:X *605:B 49.0303 
*END

*D_NET *229 0.00505308
*CONN
*I *529:B1 I *D sky130_fd_sc_hd__o21ai_2
*I *603:A1 I *D sky130_fd_sc_hd__o21ai_2
*I *605:Y O *D sky130_fd_sc_hd__nand2_1
*CAP
1 *529:B1 0.000733375
2 *603:A1 0.000168769
3 *605:Y 0.000603803
4 *229:10 0.00150595
5 *529:B1 *519:B 1.35449e-05
6 *529:B1 *598:A 1.91246e-05
7 *529:B1 *605:B 2.87136e-06
8 *529:B1 *606:A 1.5714e-05
9 *529:B1 *691:A 1.67245e-05
10 *529:B1 *388:22 0.000110306
11 *529:B1 *455:12 7.70232e-06
12 *529:B1 *460:20 4.44048e-05
13 *529:B1 *514:10 2.64657e-05
14 *603:A1 *531:B 0.000605831
15 *603:A1 *972:A 7.76105e-06
16 *603:A1 *1037:A 0.000108054
17 *603:A1 *470:28 6.08467e-05
18 *229:10 *599:B 4.97617e-05
19 *229:10 *605:A 8.62406e-05
20 *229:10 *259:286 6.55124e-05
21 *229:10 *304:18 0
22 *229:10 *455:12 3.80794e-05
23 *529:A2 *529:B1 0
24 *599:A *529:B1 7.65861e-05
25 *599:A *229:10 0.000194937
26 *603:A2 *603:A1 7.92757e-06
27 *691:C *529:B1 0.000110306
28 *30:10 *529:B1 0.000128076
29 *166:18 *229:10 2.8212e-05
30 *220:35 *229:10 0.000216196
31 *228:10 *529:B1 0
32 *228:12 *529:B1 0
33 *228:14 *529:B1 0
*RES
1 *605:Y *229:10 29.6066 
2 *229:10 *603:A1 21.1519 
3 *229:10 *529:B1 30.0495 
*END

*D_NET *228 0.00496922
*CONN
*I *1012:A I *D sky130_fd_sc_hd__buf_4
*I *1014:A I *D sky130_fd_sc_hd__buf_6
*I *1015:A I *D sky130_fd_sc_hd__buf_6
*I *603:A2 I *D sky130_fd_sc_hd__o21ai_2
*I *604:Y O *D sky130_fd_sc_hd__xnor2_4
*CAP
1 *1012:A 1.15099e-05
2 *1014:A 2.52019e-05
3 *1015:A 2.40881e-05
4 *603:A2 0.000246937
5 *604:Y 0.00126146
6 *228:14 0.000403446
7 *228:12 0.00031151
8 *228:10 0.00142686
9 *603:A2 *526:C 0
10 *603:A2 *531:B 1.19751e-05
11 *603:A2 *603:A1 7.92757e-06
12 *603:A2 *1037:A 0.000171273
13 *603:A2 *304:18 0.000153729
14 *1012:A *937:A 6.27718e-05
15 *1012:A *314:22 6.27718e-05
16 *1014:A *304:18 2.41274e-06
17 *1015:A *519:B 6.3657e-05
18 *228:10 *529:B1 0
19 *228:10 *604:B 9.93882e-05
20 *228:10 *607:B 7.04109e-05
21 *228:10 *911:A 0.000115668
22 *228:10 *316:18 8.61738e-05
23 *228:10 *320:22 1.61667e-05
24 *228:12 *529:B1 0
25 *228:14 *529:B1 0
26 *228:14 *304:18 0.00012796
27 *228:14 *460:20 5.27944e-05
28 *604:A *228:10 2.89405e-05
29 *1023:A *228:10 0
30 *1023:A *228:12 0
31 *109:16 *228:10 6.14128e-05
32 *219:14 *1014:A 6.27718e-05
*RES
1 *604:Y *228:10 36.535 
2 *228:10 *228:12 3.07775 
3 *228:12 *228:14 3.90826 
4 *228:14 *603:A2 20.4868 
5 *228:14 *1015:A 14.4725 
6 *228:12 *1014:A 14.4725 
7 *228:10 *1012:A 14.4725 
*END

*D_NET *227 0.00300097
*CONN
*I *925:A I *D sky130_fd_sc_hd__buf_6
*I *1023:A I *D sky130_fd_sc_hd__buf_4
*I *603:Y O *D sky130_fd_sc_hd__o21ai_2
*CAP
1 *925:A 3.72207e-05
2 *1023:A 0.000437859
3 *603:Y 0.000173804
4 *227:10 0.000648884
5 *1023:A *522:C1 6.08467e-05
6 *1023:A *525:B 0.000353452
7 *1023:A *740:A2 0
8 *1023:A *228:10 0
9 *1023:A *228:12 0
10 *1023:A *233:12 8.53355e-05
11 *1023:A *311:20 5.36397e-05
12 *1023:A *316:18 0.000231133
13 *227:10 *525:B 0.000422431
14 *227:10 *305:18 0.000278412
15 *219:14 *925:A 0.000110458
16 *219:14 *1023:A 0.000107496
*RES
1 *603:Y *227:10 25.8947 
2 *227:10 *1023:A 31.6361 
3 *227:10 *925:A 10.5271 
*END

*D_NET *224 0.00308556
*CONN
*I *748:A2 I *D sky130_fd_sc_hd__a21boi_0
*I *601:B I *D sky130_fd_sc_hd__nand2_1
*I *602:Y O *D sky130_fd_sc_hd__o211ai_1
*CAP
1 *748:A2 3.37046e-05
2 *601:B 0.000207949
3 *602:Y 0.000263514
4 *224:10 0.000505168
5 *601:B *516:B1 4.24629e-05
6 *601:B *334:14 0.000344195
7 *601:B *440:25 0.000337381
8 *748:A2 *748:B1_N 0.000158371
9 *224:10 *562:B 6.36477e-05
10 *224:10 *754:B 6.97116e-05
11 *224:10 *755:A 7.28994e-06
12 *224:10 *755:B 1.43698e-05
13 *224:10 *238:10 8.70662e-06
14 *224:10 *334:14 0.000420352
15 *224:10 *440:25 7.24909e-05
16 *224:10 *440:44 0.000242365
17 *600:B1 *601:B 0.000111352
18 *601:A *748:A2 6.50727e-05
19 *754:A *224:10 9.95542e-06
20 *223:10 *748:A2 0.000107496
*RES
1 *602:Y *224:10 23.6453 
2 *224:10 *601:B 21.8422 
3 *224:10 *748:A2 15.5817 
*END

*D_NET *222 0.00123929
*CONN
*I *600:B1 I *D sky130_fd_sc_hd__a21oi_4
*I *601:Y O *D sky130_fd_sc_hd__nand2_1
*CAP
1 *600:B1 0.00018375
2 *601:Y 0.00018375
3 *600:B1 *516:B1 4.53159e-05
4 *600:B1 *600:A1 3.31745e-05
5 *600:B1 *600:A2 6.08467e-05
6 *600:B1 *601:B 0.000111352
7 *600:B1 *237:6 3.82228e-05
8 *221:14 *600:B1 0.000582873
*RES
1 *601:Y *600:B1 25.901 
*END

*D_NET *221 0.00419429
*CONN
*I *577:B1 I *D sky130_fd_sc_hd__o21ai_2
*I *1021:A I *D sky130_fd_sc_hd__buf_4
*I *600:Y O *D sky130_fd_sc_hd__a21oi_4
*CAP
1 *577:B1 0
2 *1021:A 0.00016686
3 *600:Y 0.000950583
4 *221:14 0.00111744
5 *1021:A *250:24 7.07553e-05
6 *1021:A *440:12 0.000180692
7 *221:14 *540:A1 1.94224e-05
8 *221:14 *600:B1 0.000582873
9 *221:14 *601:A 2.41274e-06
10 *221:14 *746:B 9.79248e-06
11 *221:14 *771:A2 2.32176e-05
12 *221:14 *775:B1 0.000179322
13 *221:14 *780:A1 0.000141373
14 *221:14 *780:A2 1.85244e-05
15 *221:14 *780:C1 0.000265298
16 *221:14 *916:A 8.37087e-05
17 *221:14 *237:6 7.92757e-06
18 *221:14 *250:24 0.000101223
19 *221:14 *334:20 0.000163738
20 *221:14 *440:12 6.78212e-05
21 *221:14 *476:22 9.80242e-07
22 *762:C *221:14 1.85244e-05
23 *1056:A *1021:A 2.18026e-05
*RES
1 *600:Y *221:14 40.6435 
2 *221:14 *1021:A 14.6264 
3 *221:14 *577:B1 9.24915 
*END

*D_NET *220 0.00421047
*CONN
*I *1047:A I *D sky130_fd_sc_hd__buf_4
*I *530:B I *D sky130_fd_sc_hd__or2_4
*I *1048:A I *D sky130_fd_sc_hd__buf_6
*I *1009:A I *D sky130_fd_sc_hd__buf_6
*I *599:X O *D sky130_fd_sc_hd__xnor3_2
*CAP
1 *1047:A 0.000157965
2 *530:B 0
3 *1048:A 0.000150245
4 *1009:A 0
5 *599:X 0.000114312
6 *220:35 0.000402052
7 *220:23 0.000583978
8 *220:12 0.000288518
9 *1047:A *448:10 0.000111722
10 *1047:A *483:16 5.04829e-06
11 *1047:A *493:14 0.000183517
12 *1048:A *527:B1 0.000160383
13 *1048:A *528:A 0.000163165
14 *220:12 *605:B 0
15 *220:12 *448:10 0.000154145
16 *220:23 *448:10 0.000132809
17 *220:23 *455:12 6.08467e-05
18 *220:23 *493:14 0.000212104
19 *220:35 *527:A2 0.000183736
20 *220:35 *229:10 0.000216196
21 *530:A *1048:A 4.77855e-05
22 *1002:A *1048:A 0
23 *1002:A *220:35 0.000364586
24 *16:12 *220:12 0.000122083
25 *52:12 *220:12 7.86847e-05
26 *55:12 *220:12 5.04829e-06
27 *209:23 *220:35 0.00020459
28 *214:8 *220:12 2.137e-05
29 *214:8 *220:23 8.55826e-05
*RES
1 *599:X *220:12 22.329 
2 *220:12 *1009:A 9.24915 
3 *220:12 *220:23 6.31766 
4 *220:23 *220:35 19.5043 
5 *220:35 *1048:A 22.7442 
6 *220:35 *530:B 9.24915 
7 *220:23 *1047:A 14.4094 
*END

*D_NET *219 0.00445388
*CONN
*I *522:A2 I *D sky130_fd_sc_hd__a221oi_4
*I *924:A I *D sky130_fd_sc_hd__buf_6
*I *598:Y O *D sky130_fd_sc_hd__nor2_4
*CAP
1 *522:A2 0.000299804
2 *924:A 0.000124832
3 *598:Y 0.000775465
4 *219:14 0.0012001
5 *522:A2 *522:B2 1.72594e-05
6 *522:A2 *522:A1 9.39505e-05
7 *522:A2 *515:A 0.000273725
8 *522:A2 *515:B 9.61086e-05
9 *522:A2 *324:18 0.000426405
10 *924:A *515:B 0.000213661
11 *924:A *324:18 0.000230501
12 *924:A *452:31 1.51989e-05
13 *924:A *461:44 3.09131e-05
14 *924:A *503:18 8.70662e-06
15 *219:14 *600:A2 1.58551e-05
16 *219:14 *606:A 0.000113928
17 *219:14 *606:B 4.79321e-06
18 *219:14 *515:B 6.08467e-05
19 *219:14 *925:A 0.000110458
20 *219:14 *1014:A 6.27718e-05
21 *219:14 *1023:A 0.000107496
22 *219:14 *304:18 4.95985e-05
23 *219:14 *460:20 8.16204e-05
24 *169:14 *522:A2 3.98854e-05
*RES
1 *598:Y *219:14 26.9965 
2 *219:14 *924:A 23.5734 
3 *219:14 *522:A2 28.8337 
*END

*D_NET *218 0.00194136
*CONN
*I *577:A1 I *D sky130_fd_sc_hd__o21ai_2
*I *597:Y O *D sky130_fd_sc_hd__nand2_2
*CAP
1 *577:A1 0.000506872
2 *597:Y 0.000506872
3 *577:A1 *597:A 0.000362816
4 *577:A1 *1051:A 0.000212745
5 *577:A1 *334:20 0.000124916
6 *577:A1 *341:16 4.80844e-05
7 *577:A1 *367:14 7.28567e-06
8 *577:A1 *432:79 1.97552e-05
9 *577:A1 *432:117 1.03328e-05
10 *577:A1 *440:12 7.25424e-05
11 *578:A2 *577:A1 4.29314e-06
12 *1032:A *577:A1 4.96778e-05
13 *190:14 *577:A1 1.51658e-05
*RES
1 *597:Y *577:A1 47.0311 
*END

*D_NET *216 0.00193369
*CONN
*I *595:B I *D sky130_fd_sc_hd__nand2_1
*I *596:X O *D sky130_fd_sc_hd__xor2_1
*CAP
1 *595:B 0.000536372
2 *596:X 0.000536372
3 *595:B *595:A 8.66963e-05
4 *595:B *596:A 4.87301e-05
5 *595:B *633:S 2.22315e-05
6 *595:B *673:S 3.93341e-05
7 *595:B *429:16 0.000117376
8 *594:C *595:B 9.48557e-05
9 *902:A *595:B 0
10 *1007:A *595:B 0.000188598
11 *55:12 *595:B 0.000263126
*RES
1 *596:X *595:B 43.2644 
*END

*D_NET *214 0.00625095
*CONN
*I *529:A2 I *D sky130_fd_sc_hd__o21ai_2
*I *579:B1 I *D sky130_fd_sc_hd__o21ai_4
*I *595:Y O *D sky130_fd_sc_hd__nand2_1
*CAP
1 *529:A2 0.000555546
2 *579:B1 0.000260759
3 *595:Y 0.000804902
4 *214:8 0.00162121
5 *529:A2 *519:B 0.000109119
6 *529:A2 *529:B1 0
7 *529:A2 *598:A 1.81863e-06
8 *529:A2 *259:305 8.03699e-06
9 *529:A2 *388:22 6.39593e-05
10 *529:A2 *455:12 0.000136827
11 *529:A2 *460:20 2.14624e-05
12 *529:A2 *493:14 0.000806022
13 *529:A2 *514:10 0.000152995
14 *579:B1 *527:A2 4.24488e-05
15 *579:B1 *259:280 0.000203716
16 *579:B1 *259:286 9.11425e-05
17 *579:B1 *388:22 5.06814e-05
18 *579:B1 *455:12 7.14746e-05
19 *579:B1 *493:14 2.95757e-05
20 *214:8 *220:12 2.137e-05
21 *214:8 *220:23 8.55826e-05
22 *214:8 *493:14 6.08467e-05
23 *691:C *529:A2 0.000164829
24 *1002:A *579:B1 6.59997e-05
25 *55:12 *214:8 0.000713135
26 *209:23 *579:B1 0.000107496
*RES
1 *595:Y *214:8 26.6738 
2 *214:8 *579:B1 23.0879 
3 *214:8 *529:A2 31.5323 
*END

*D_NET *213 0.0101307
*CONN
*I *1007:A I *D sky130_fd_sc_hd__buf_6
*I *530:A I *D sky130_fd_sc_hd__or2_4
*I *1008:A I *D sky130_fd_sc_hd__buf_6
*I *594:X O *D sky130_fd_sc_hd__xnor3_2
*CAP
1 *1007:A 0.00149783
2 *530:A 0.000244022
3 *1008:A 7.71054e-05
4 *594:X 0.000258414
5 *213:16 0.00128117
6 *213:10 0.00271628
7 *530:A *528:A 2.61693e-05
8 *530:A *1048:A 4.77855e-05
9 *530:A *259:280 0
10 *1007:A *595:B 0.000188598
11 *1007:A *633:S 0.000116971
12 *1007:A *690:A 5.30055e-05
13 *1007:A *406:12 0.000140911
14 *1007:A *406:23 0.000514698
15 *1008:A *528:A 2.39519e-05
16 *1008:A *990:A 0.000122378
17 *1008:A *259:280 0
18 *213:10 *259:228 7.64978e-05
19 *213:10 *406:12 0.000181333
20 *213:16 *583:A 1.03403e-05
21 *213:16 *990:A 1.96227e-05
22 *213:16 *429:16 0.000404561
23 *583:B *213:16 2.01858e-05
24 *594:C *1007:A 0.000179126
25 *594:C *213:10 0.000184946
26 *901:A *213:16 0.000154145
27 *92:16 *1007:A 0.00137051
28 *165:14 *213:16 0.000220183
29 *209:23 *530:A 0
*RES
1 *594:X *213:10 20.184 
2 *213:10 *213:16 24.1431 
3 *213:16 *1008:A 16.4439 
4 *213:16 *530:A 19.3184 
5 *213:10 *1007:A 47.7686 
*END

*D_NET *211 0.00341127
*CONN
*I *1053:A I *D sky130_fd_sc_hd__buf_4
*I *590:A I *D sky130_fd_sc_hd__xnor2_2
*I *593:X O *D sky130_fd_sc_hd__xor2_4
*CAP
1 *1053:A 0
2 *590:A 0.000320234
3 *593:X 0.000482304
4 *211:10 0.000802538
5 *590:A *435:16 0.000705745
6 *590:A *436:8 4.65669e-05
7 *211:10 *630:S 0.000182178
8 *211:10 *707:DE 0.000173912
9 *211:10 *958:A 0.000208621
10 *211:10 *1054:A 8.43875e-05
11 *211:10 *413:22 0
12 *211:10 *436:8 9.84424e-06
13 *211:10 *444:47 8.19163e-05
14 resp_msg[12] *211:10 0.000141792
15 *631:A *211:10 4.61732e-05
16 *159:12 *590:A 4.90388e-05
17 *207:12 *590:A 7.60173e-05
*RES
1 *593:X *211:10 24.431 
2 *211:10 *590:A 29.4236 
3 *211:10 *1053:A 9.24915 
*END

*D_NET *209 0.00679163
*CONN
*I *579:A2 I *D sky130_fd_sc_hd__o21ai_4
*I *527:A1 I *D sky130_fd_sc_hd__a21oi_4
*I *533:C1 I *D sky130_fd_sc_hd__o211ai_1
*I *592:Y O *D sky130_fd_sc_hd__nand2_2
*CAP
1 *579:A2 2.18957e-05
2 *527:A1 0.000146326
3 *533:C1 0.000511085
4 *592:Y 0.000208183
5 *209:23 0.000498937
6 *209:8 0.00104998
7 *527:A1 *526:B 0.000554496
8 *527:A1 *527:A2 6.61278e-05
9 *527:A1 *579:A1 0.000109288
10 *533:C1 *528:A 0.000515614
11 *533:C1 *533:B1 0.00028675
12 *533:C1 *928:A 1.28326e-05
13 *533:C1 *990:A 5.65074e-05
14 *533:C1 *1006:A 0.00088184
15 *533:C1 *1037:A 0.0001261
16 *209:8 *532:B 0.000302956
17 *209:23 *526:B 0.000167609
18 *209:23 *527:A2 8.69975e-05
19 *209:23 *528:A 4.19841e-05
20 *209:23 *530:A 0
21 *209:23 *579:B1 0.000107496
22 *209:23 *1029:A 1.41976e-05
23 *209:23 *1037:A 0.000244981
24 *209:23 *220:35 0.00020459
25 *587:B *533:C1 1.2693e-05
26 *191:6 *209:23 0.000562163
*RES
1 *592:Y *209:8 17.2456 
2 *209:8 *533:C1 35.9285 
3 *209:8 *209:23 17.7266 
4 *209:23 *527:A1 16.0973 
5 *209:23 *579:A2 9.82786 
*END

*D_NET *208 0.00209899
*CONN
*I *534:B I *D sky130_fd_sc_hd__nand3_2
*I *535:B I *D sky130_fd_sc_hd__nand2_2
*I *591:X O *D sky130_fd_sc_hd__xor3_1
*CAP
1 *534:B 0.00017689
2 *535:B 0.000249317
3 *591:X 0
4 *208:6 0.000426207
5 *534:B *533:B1 0.00026493
6 *534:B *689:C 0.000107643
7 *534:B *300:6 4.2372e-05
8 *534:B *435:16 0.000110297
9 *535:B *533:B1 0.000219636
10 *535:B *689:C 0.000256522
11 *535:B *878:A 6.50727e-05
12 *535:A *535:B 7.01509e-05
13 *204:10 *534:B 0.000109951
*RES
1 *591:X *208:6 13.7491 
2 *208:6 *535:B 22.2871 
3 *208:6 *534:B 20.7599 
*END

*D_NET *207 0.00233044
*CONN
*I *936:A I *D sky130_fd_sc_hd__buf_4
*I *1018:A I *D sky130_fd_sc_hd__buf_4
*I *590:Y O *D sky130_fd_sc_hd__xnor2_2
*CAP
1 *936:A 0
2 *1018:A 4.61467e-05
3 *590:Y 0.000254625
4 *207:12 0.000300772
5 *1018:A *524:A 0.000161234
6 *1018:A *454:36 0.000314044
7 *1018:A *461:48 6.88361e-05
8 *207:12 *536:A 0.000534064
9 *207:12 *589:A 2.03171e-05
10 *207:12 *590:A 7.60173e-05
11 *986:A *207:12 0.000554381
*RES
1 *590:Y *207:12 30.2188 
2 *207:12 *1018:A 12.7456 
3 *207:12 *936:A 9.24915 
*END

*D_NET *206 0.00225003
*CONN
*I *578:A2 I *D sky130_fd_sc_hd__a21oi_4
*I *589:Y O *D sky130_fd_sc_hd__nor2_4
*CAP
1 *578:A2 0.000518082
2 *589:Y 0.000518082
3 *578:A2 *522:B2 0
4 *578:A2 *577:A1 4.29314e-06
5 *578:A2 *767:A 4.28656e-05
6 *578:A2 *771:A2 9.29777e-05
7 *578:A2 *771:B1 1.48344e-05
8 *578:A2 *250:24 5.62568e-05
9 *578:A2 *284:18 0
10 *578:A2 *341:16 0
11 *578:A2 *343:27 0
12 *578:A2 *361:24 0.000321432
13 *578:A2 *367:14 0.00060082
14 *578:A2 *432:117 0
15 *578:A2 *444:14 0
16 *578:A2 *478:26 2.87136e-06
17 *578:A2 *494:16 7.75163e-05
*RES
1 *589:Y *578:A2 44.2076 
*END

*D_NET *204 0.00397708
*CONN
*I *587:B I *D sky130_fd_sc_hd__nand2_1
*I *583:B I *D sky130_fd_sc_hd__nor2_1
*I *534:C I *D sky130_fd_sc_hd__nand3_2
*I *588:X O *D sky130_fd_sc_hd__xor2_2
*CAP
1 *587:B 0.000367924
2 *583:B 0.000525275
3 *534:C 0
4 *588:X 2.43749e-05
5 *204:10 0.00063108
6 *204:6 0.000498103
7 *583:B *528:A 7.45478e-05
8 *583:B *533:B1 1.41205e-05
9 *583:B *583:A 6.08467e-05
10 *583:B *990:A 0.000114584
11 *583:B *1040:A 0
12 *583:B *213:16 2.01858e-05
13 *587:B *533:C1 1.2693e-05
14 *587:B *588:B 0.000297054
15 *587:B *689:C 2.81262e-05
16 *587:B *878:A 2.64915e-05
17 *587:B *958:A 0.000247305
18 *587:B *1006:A 0.000551477
19 *587:B *433:88 0
20 *587:B *510:16 0
21 *204:6 *588:B 0.000114584
22 *204:6 *689:C 5.04829e-06
23 *204:6 *406:12 2.54243e-05
24 *204:10 *533:B1 1.07549e-05
25 *204:10 *534:B 0.000109951
26 *581:A2 *583:B 6.08467e-05
27 *671:A1 *587:B 0.000148994
28 *957:A *587:B 7.28994e-06
29 *202:12 *583:B 0
*RES
1 *588:X *204:6 10.5271 
2 *204:6 *204:10 7.1625 
3 *204:10 *534:C 13.7491 
4 *204:10 *583:B 25.6655 
5 *204:6 *587:B 32.7131 
*END

*D_NET *202 0.00317743
*CONN
*I *581:B1 I *D sky130_fd_sc_hd__o21ai_4
*I *587:Y O *D sky130_fd_sc_hd__nand2_1
*CAP
1 *581:B1 0
2 *587:Y 0.000950148
3 *202:12 0.000950148
4 *202:12 *533:A1 9.96342e-05
5 *202:12 *533:B1 2.65831e-05
6 *202:12 *583:B 0
7 *202:12 *587:A 4.1307e-05
8 *202:12 *689:C 0
9 *202:12 *1040:A 0.000787691
10 *533:A2 *202:12 0.000321918
*RES
1 *587:Y *202:12 41.0238 
2 *202:12 *581:B1 9.24915 
*END

*D_NET *200 0.0027743
*CONN
*I *1060:A I *D sky130_fd_sc_hd__buf_4
*I *584:C I *D sky130_fd_sc_hd__maj3_2
*I *586:Y O *D sky130_fd_sc_hd__xnor2_2
*CAP
1 *1060:A 0.000130883
2 *584:C 2.91078e-05
3 *586:Y 0.000644714
4 *200:8 0.000804705
5 *584:C *585:B 1.87469e-05
6 *1060:A *585:B 3.32644e-05
7 *200:8 *624:A0 0.000484903
8 *200:8 *433:65 3.36439e-05
9 *200:8 *482:22 0.000103123
10 *975:A *1060:A 0.000259225
11 *199:12 *584:C 5.41227e-05
12 *199:12 *1060:A 0.000177862
*RES
1 *586:Y *200:8 24.4554 
2 *200:8 *584:C 14.7506 
3 *200:8 *1060:A 18.9382 
*END

*D_NET *198 0.00196588
*CONN
*I *538:B I *D sky130_fd_sc_hd__xnor2_2
*I *585:Y O *D sky130_fd_sc_hd__xnor2_4
*CAP
1 *538:B 0.000399066
2 *585:Y 0.000399066
3 *538:B *523:A 0.000180515
4 *538:B *585:A 4.00689e-05
5 *538:B *585:B 0.000191544
6 *538:B *624:A1 0.000200475
7 *538:B *945:A 2.84682e-05
8 *538:B *433:65 2.77625e-06
9 *919:A *538:B 2.82201e-05
10 *194:10 *538:B 0.00049568
*RES
1 *585:Y *538:B 41.0036 
*END

*D_NET *196 0.0052537
*CONN
*I *992:A I *D sky130_fd_sc_hd__buf_4
*I *581:A1 I *D sky130_fd_sc_hd__o21ai_4
*I *1058:A I *D sky130_fd_sc_hd__buf_6
*I *533:A2 I *D sky130_fd_sc_hd__o211ai_1
*I *584:X O *D sky130_fd_sc_hd__maj3_2
*CAP
1 *992:A 0.000226184
2 *581:A1 0
3 *1058:A 0
4 *533:A2 0.000162535
5 *584:X 7.18112e-05
6 *196:36 0.000725442
7 *196:23 0.000622606
8 *196:8 0.000357694
9 *533:A2 *523:A 5.04829e-06
10 *533:A2 *533:A1 0.000261
11 *533:A2 *587:A 4.5731e-05
12 *533:A2 *202:12 0.000321918
13 *992:A *527:B1 0.000258216
14 *992:A *532:B 0.000111672
15 *992:A *259:280 9.63996e-05
16 *992:A *388:22 0.000372149
17 *196:8 *689:A 0.000409725
18 *196:8 *689:C 0.000167076
19 *196:8 *892:A 0.000266832
20 *196:8 *415:12 1.41976e-05
21 *196:23 *533:A1 8.62625e-06
22 *196:23 *587:A 8.21849e-06
23 *196:23 *689:B 7.1448e-05
24 *196:23 *1040:A 0.000204365
25 *196:36 *583:A 0
26 *196:36 *1040:A 0
27 *196:36 *1041:A 1.82304e-05
28 *196:36 *388:22 5.92342e-05
29 *196:36 *424:8 4.47179e-05
30 *196:36 *424:27 8.9803e-05
31 *196:36 *424:52 2.80058e-05
32 *535:A *196:8 2.18695e-05
33 *581:A2 *992:A 0
34 *581:A2 *196:36 0
35 *107:10 *196:36 0.000202943
*RES
1 *584:X *196:8 18.9094 
2 *196:8 *533:A2 20.602 
3 *196:8 *196:23 8.40826 
4 *196:23 *1058:A 9.24915 
5 *196:23 *196:36 18.1576 
6 *196:36 *581:A1 13.7491 
7 *196:36 *992:A 23.506 
*END

*D_NET *195 0.00047401
*CONN
*I *581:A2 I *D sky130_fd_sc_hd__o21ai_4
*I *583:Y O *D sky130_fd_sc_hd__nor2_1
*CAP
1 *581:A2 9.24255e-05
2 *583:Y 9.24255e-05
3 *581:A2 *583:A 0.000127164
4 *581:A2 *583:B 6.08467e-05
5 *581:A2 *992:A 0
6 *581:A2 *196:36 0
7 *581:A2 *259:280 0.000101148
*RES
1 *583:Y *581:A2 30.4689 
*END

*D_NET *194 0.00577958
*CONN
*I *1039:A I *D sky130_fd_sc_hd__buf_4
*I *535:A I *D sky130_fd_sc_hd__nand2_2
*I *582:X O *D sky130_fd_sc_hd__xor3_1
*CAP
1 *1039:A 5.1755e-05
2 *535:A 0.000211106
3 *582:X 0.00137833
4 *194:10 0.00164119
5 *535:A *535:B 7.01509e-05
6 *535:A *689:A 0.000163928
7 *535:A *689:C 3.31745e-05
8 *535:A *196:8 2.18695e-05
9 *1039:A *689:D 5.68225e-06
10 *1039:A *260:10 0.000136545
11 *194:10 *538:B 0.00049568
12 *194:10 *587:A 0
13 *194:10 *689:D 9.34396e-06
14 *194:10 *945:A 5.58323e-05
15 *194:10 *260:10 0.000160384
16 *194:10 *433:65 4.47675e-06
17 *625:A *194:10 1.88014e-05
18 *626:B1 *194:10 0.00102957
19 *107:8 *535:A 0.000169041
20 *107:10 *1039:A 0.000122708
*RES
1 *582:X *194:10 38.0706 
2 *194:10 *535:A 21.2001 
3 *194:10 *1039:A 16.4116 
*END

*D_NET *193 0.0031963
*CONN
*I *1059:A I *D sky130_fd_sc_hd__buf_6
*I *923:A I *D sky130_fd_sc_hd__buf_6
*I *581:Y O *D sky130_fd_sc_hd__o21ai_4
*CAP
1 *1059:A 0.000312859
2 *923:A 0
3 *581:Y 0.000301131
4 *193:8 0.00061399
5 *1059:A *578:A1 0.000413135
6 *1059:A *592:A 0
7 *1059:A *259:10 6.3657e-05
8 *1059:A *372:12 3.0902e-05
9 *1059:A *388:10 0.000169317
10 *1059:A *499:14 0.000193468
11 *1059:A *505:18 0.000122641
12 *1059:A *510:16 0.000114594
13 *193:8 *1006:A 0.000260374
14 *193:8 *388:10 3.30962e-05
15 *193:8 *452:14 0.000355657
16 *193:8 *499:14 0.000211478
17 *986:A *1059:A 0
*RES
1 *581:Y *193:8 18.8703 
2 *193:8 *923:A 9.24915 
3 *193:8 *1059:A 31.0927 
*END

*D_NET *199 0.00235451
*CONN
*I *584:A I *D sky130_fd_sc_hd__maj3_2
*I *945:A I *D sky130_fd_sc_hd__buf_4
*I *580:Y O *D sky130_fd_sc_hd__clkinv_1
*CAP
1 *584:A 0
2 *945:A 0.000217628
3 *580:Y 0.000369374
4 *199:12 0.000587002
5 *945:A *585:A 0.00021569
6 *945:A *585:B 0.000223944
7 *945:A *624:A0 5.07314e-05
8 *945:A *892:A 2.15348e-05
9 *945:A *433:65 6.38506e-05
10 *199:12 *584:C 5.41227e-05
11 *199:12 *1060:A 0.000177862
12 *199:12 *389:45 2.68034e-05
13 *538:B *945:A 2.84682e-05
14 *584:B *199:12 5.22654e-06
15 *919:A *945:A 0.000226463
16 *975:A *199:12 2.99747e-05
17 *194:10 *945:A 5.58323e-05
*RES
1 *580:Y *199:12 25.102 
2 *199:12 *945:A 27.6499 
3 *199:12 *584:A 9.24915 
*END

*D_NET *191 0.00279652
*CONN
*I *922:A I *D sky130_fd_sc_hd__buf_6
*I *1057:A I *D sky130_fd_sc_hd__buf_6
*I *579:Y O *D sky130_fd_sc_hd__o21ai_4
*CAP
1 *922:A 0.000186389
2 *1057:A 8.91391e-05
3 *579:Y 0.000398689
4 *191:6 0.000674217
5 *922:A *527:A2 3.99086e-06
6 *1057:A *592:A 8.36586e-06
7 *1057:A *306:10 8.51933e-05
8 *1057:A *503:18 0.000218636
9 *191:6 *526:B 0.000365716
10 *191:6 *527:A2 1.95066e-05
11 *191:6 *928:A 0.000147102
12 *191:6 *1029:A 3.74146e-05
13 *191:6 *209:23 0.000562163
*RES
1 *579:Y *191:6 22.1738 
2 *191:6 *1057:A 22.1574 
3 *191:6 *922:A 13.1796 
*END

*D_NET *190 0.00366017
*CONN
*I *577:A2 I *D sky130_fd_sc_hd__o21ai_2
*I *1016:A I *D sky130_fd_sc_hd__buf_6
*I *578:Y O *D sky130_fd_sc_hd__a21oi_4
*CAP
1 *577:A2 0.000142385
2 *1016:A 0.000288345
3 *578:Y 0.000398466
4 *190:14 0.000829195
5 *577:A2 *539:B1 4.87574e-06
6 *577:A2 *440:12 0.000107496
7 *1016:A *539:B1 6.06019e-05
8 *1016:A *437:18 0.000201582
9 *1016:A *483:16 0.000317635
10 *190:14 *577:A1 1.51658e-05
11 *190:14 *578:A1 0.000115934
12 *190:14 *589:A 0
13 *190:14 *1051:A 2.69902e-05
14 *190:14 *341:16 0.000615078
15 *190:14 *436:8 0.000339879
16 *539:A1 *577:A2 0.00017664
17 *539:A1 *1016:A 0
18 *33:24 *1016:A 1.98996e-05
*RES
1 *578:Y *190:14 31.9039 
2 *190:14 *1016:A 19.5937 
3 *190:14 *577:A2 13.3243 
*END

*D_NET *189 0.0036234
*CONN
*I *1056:A I *D sky130_fd_sc_hd__buf_6
*I *539:A1 I *D sky130_fd_sc_hd__a21o_4
*I *577:Y O *D sky130_fd_sc_hd__o21ai_2
*CAP
1 *1056:A 0.000994555
2 *539:A1 0.000162777
3 *577:Y 0.00115733
4 *539:A1 *539:B1 4.29266e-05
5 *539:A1 *577:A2 0.00017664
6 *539:A1 *1016:A 0
7 *1056:A *1021:A 2.18026e-05
8 *1056:A *246:10 0.000144531
9 *1056:A *246:23 8.62625e-06
10 *1056:A *250:24 0.000296893
11 *1056:A *253:25 0.000148144
12 *560:A *1056:A 0.00046917
*RES
1 *577:Y *539:A1 23.8394 
2 *577:Y *1056:A 44.7493 
*END

*D_NET *187 0.00280174
*CONN
*I *575:B I *D sky130_fd_sc_hd__nand2_1
*I *574:B I *D sky130_fd_sc_hd__xnor2_2
*I *576:X O *D sky130_fd_sc_hd__xor2_2
*CAP
1 *575:B 0.000423824
2 *574:B 0
3 *576:X 0.000161724
4 *187:10 0.000585548
5 *575:B *575:A 0.000259623
6 *575:B *681:S 4.8236e-05
7 *575:B *761:B 0.000111802
8 *575:B *771:C1 0.000241054
9 *575:B *254:10 3.88655e-05
10 *575:B *283:10 5.02496e-05
11 *575:B *343:8 0.000258142
12 *575:B *343:19 1.92172e-05
13 *187:10 *559:B 9.28161e-05
14 *187:10 *681:S 0.000181586
15 *574:A *575:B 3.45866e-05
16 *574:A *187:10 5.03545e-06
17 *576:B *187:10 0.000153395
18 *932:A *575:B 1.959e-05
19 *977:A *575:B 7.30804e-05
20 *124:16 *187:10 4.33618e-05
*RES
1 *576:X *187:10 19.6294 
2 *187:10 *574:B 13.7491 
3 *187:10 *575:B 36.1734 
*END

*D_NET *185 0.00443183
*CONN
*I *543:B1 I *D sky130_fd_sc_hd__o21ai_1
*I *765:A1 I *D sky130_fd_sc_hd__o21ai_0
*I *575:Y O *D sky130_fd_sc_hd__nand2_1
*CAP
1 *543:B1 0.000731881
2 *765:A1 0.000171252
3 *575:Y 0
4 *185:6 0.000903134
5 *543:B1 *520:B 0.000271968
6 *543:B1 *542:A2 8.86032e-05
7 *543:B1 *614:A3 0.000351001
8 *543:B1 *616:A1 0.000248376
9 *543:B1 *743:A 0
10 *543:B1 *758:B 0.000107496
11 *543:B1 *776:A1 1.41976e-05
12 *543:B1 *251:31 3.38973e-05
13 *543:B1 *283:10 6.32836e-05
14 *543:B1 *284:20 0
15 *543:B1 *290:8 2.81262e-05
16 *543:B1 *361:24 0.000305878
17 *543:B1 *444:8 0
18 *543:B1 *466:30 4.88764e-06
19 *765:A1 *283:10 0.000220509
20 *765:A1 *283:16 0.00019364
21 *550:A *543:B1 0.000137114
22 *550:A *765:A1 0.000403187
23 *184:44 *543:B1 0.000153398
*RES
1 *575:Y *185:6 13.7491 
2 *185:6 *765:A1 21.3947 
3 *185:6 *543:B1 35.9635 
*END

*D_NET *184 0.00704077
*CONN
*I *570:A I *D sky130_fd_sc_hd__nor2_4
*I *543:A1 I *D sky130_fd_sc_hd__o21ai_1
*I *766:A I *D sky130_fd_sc_hd__nor2_1
*I *932:A I *D sky130_fd_sc_hd__buf_4
*I *574:Y O *D sky130_fd_sc_hd__xnor2_2
*CAP
1 *570:A 0.000234374
2 *543:A1 0
3 *766:A 1.81917e-05
4 *932:A 0.000296385
5 *574:Y 0.000384381
6 *184:44 0.000902324
7 *184:16 0.000340525
8 *184:14 0.00107828
9 *570:A *542:A2 3.23076e-06
10 *570:A *614:A1 6.69227e-05
11 *570:A *614:A3 3.44695e-05
12 *570:A *614:B1 5.42061e-05
13 *570:A *769:A1 9.12416e-06
14 *570:A *776:A1 1.00971e-05
15 *570:A *776:A2 3.39641e-05
16 *570:A *780:A2 8.60425e-05
17 *570:A *920:A 4.99151e-05
18 *570:A *335:10 0.000116444
19 *570:A *336:16 3.92776e-05
20 *570:A *336:18 2.72352e-05
21 *766:A *343:8 0
22 *932:A *575:A 0.000112275
23 *932:A *575:B 1.959e-05
24 *932:A *688:B 4.45999e-05
25 *932:A *343:8 2.16355e-05
26 *932:A *444:14 5.33053e-05
27 *184:14 *769:B1 9.55447e-05
28 *184:14 *771:C1 3.68684e-05
29 *184:14 *772:B 0.000217587
30 *184:14 *282:37 6.01996e-05
31 *184:14 *343:8 1.41853e-05
32 *184:14 *343:19 6.08467e-05
33 *184:14 *428:8 0.000300565
34 *184:16 *769:B1 1.61631e-05
35 *184:16 *343:8 1.41853e-05
36 *184:44 *520:B 0.000263552
37 *184:44 *543:B1 0.000153398
38 *184:44 *614:A3 0.000143595
39 *184:44 *769:A1 0.000681247
40 *184:44 *251:31 3.73224e-05
41 *184:44 *280:16 0.000283152
42 *543:A2 *570:A 2.23419e-05
43 *550:A *184:44 0.00030589
44 *574:A *184:14 2.22198e-05
45 *965:A *184:14 0.000118166
46 *977:A *932:A 0.000156946
*RES
1 *574:Y *184:14 30.2594 
2 *184:14 *184:16 0.723396 
3 *184:16 *932:A 25.6861 
4 *184:16 *766:A 9.82786 
5 *184:14 *184:44 27.2581 
6 *184:44 *543:A1 13.7491 
7 *184:44 *570:A 24.9218 
*END

*D_NET *182 0.00333638
*CONN
*I *571:B I *D sky130_fd_sc_hd__xnor2_2
*I *572:B I *D sky130_fd_sc_hd__nand2_1
*I *573:X O *D sky130_fd_sc_hd__xor2_2
*CAP
1 *571:B 9.17084e-05
2 *572:B 0.000343083
3 *573:X 0.000121045
4 *182:8 0.000555836
5 *571:B *259:369 7.84038e-05
6 *571:B *383:117 0.000218518
7 *571:B *392:16 3.89332e-06
8 *572:B *687:C 0.000151397
9 *572:B *687:D 5.03545e-06
10 *572:B *289:10 1.41976e-05
11 *572:B *383:117 3.60268e-05
12 *572:B *384:18 0.000317924
13 *572:B *390:180 3.90689e-06
14 *572:B *392:16 1.2693e-05
15 *572:B *401:28 0.000195229
16 *182:8 *573:B 5.79739e-05
17 *182:8 *259:369 0.000253275
18 *182:8 *384:18 0.0006083
19 *544:B1 *572:B 7.19887e-05
20 *572:A *572:B 4.62432e-06
21 *573:A *182:8 0.000100615
22 *757:A2 *572:B 4.2664e-06
23 *174:14 *572:B 1.81863e-06
24 *180:10 *572:B 8.4616e-05
*RES
1 *573:X *182:8 20.5732 
2 *182:8 *572:B 26.7894 
3 *182:8 *571:B 17.6574 
*END

*D_NET *180 0.00353269
*CONN
*I *757:B1 I *D sky130_fd_sc_hd__o21ai_0
*I *543:A2 I *D sky130_fd_sc_hd__o21ai_1
*I *572:Y O *D sky130_fd_sc_hd__nand2_1
*CAP
1 *757:B1 0
2 *543:A2 0.000672837
3 *572:Y 0.000228667
4 *180:10 0.000901504
5 *543:A2 *546:B 0.000457996
6 *543:A2 *570:A 2.23419e-05
7 *543:A2 *614:A3 0.000253345
8 *543:A2 *739:A 7.97332e-05
9 *543:A2 *774:C1 0.000189724
10 *543:A2 *920:A 6.85329e-05
11 *543:A2 *335:10 4.34747e-06
12 *543:A2 *336:16 0.000170869
13 *180:10 *572:B 8.4616e-05
14 *180:10 *687:A 6.64671e-06
15 *180:10 *687:C 1.19705e-05
16 *180:10 *774:C1 8.88192e-05
17 *757:A2 *180:10 0.000112046
18 *774:B1 *543:A2 2.57465e-06
19 *178:8 *543:A2 7.12632e-06
20 *178:58 *543:A2 0.000102788
21 *179:14 *180:10 5.12239e-06
22 *179:16 *543:A2 6.10798e-05
*RES
1 *572:Y *180:10 18.7989 
2 *180:10 *543:A2 32.2263 
3 *180:10 *757:B1 13.7491 
*END

*D_NET *179 0.00928467
*CONN
*I *754:A I *D sky130_fd_sc_hd__nor2_1
*I *757:A1 I *D sky130_fd_sc_hd__o21ai_0
*I *756:B1 I *D sky130_fd_sc_hd__a211oi_1
*I *753:B I *D sky130_fd_sc_hd__xnor2_1
*I *570:B I *D sky130_fd_sc_hd__nor2_4
*I *571:Y O *D sky130_fd_sc_hd__xnor2_2
*CAP
1 *754:A 0.00113392
2 *757:A1 0
3 *756:B1 8.21709e-05
4 *753:B 0.000245453
5 *570:B 0.000123565
6 *571:Y 0.000263009
7 *179:50 0.000254045
8 *179:16 0.000668602
9 *179:14 0.000642054
10 *179:8 0.00156753
11 *570:B *546:B 0.000221911
12 *570:B *246:23 0.000221911
13 *753:B *516:A2 5.7022e-05
14 *753:B *711:CLK 0.00036633
15 *753:B *739:A 0.000365188
16 *753:B *753:A 2.2279e-05
17 *753:B *779:A 3.52699e-05
18 *753:B *253:25 4.03939e-05
19 *753:B *349:24 7.67208e-05
20 *753:B *350:26 7.22263e-05
21 *754:A *562:B 3.30668e-05
22 *754:A *687:D 0.000302474
23 *754:A *617:B 2.42256e-05
24 *754:A *754:B 0.000171701
25 *754:A *755:A 7.6276e-06
26 *754:A *773:D 5.77851e-05
27 *754:A *774:C1 9.98142e-05
28 *754:A *224:10 9.95542e-06
29 *754:A *358:72 0.000370032
30 *754:A *384:18 3.36165e-06
31 *754:A *390:180 1.40599e-05
32 *754:A *420:64 5.65765e-05
33 *756:B1 *751:A 1.43698e-05
34 *756:B1 *335:10 1.03403e-05
35 *179:8 *687:C 0.000296333
36 *179:8 *390:180 0
37 *179:14 *687:A 3.63738e-05
38 *179:14 *687:C 1.66771e-05
39 *179:14 *727:CLK 1.32605e-05
40 *179:14 *774:C1 3.16343e-05
41 *179:14 *180:10 5.12239e-06
42 *179:14 *446:27 4.31083e-05
43 *179:16 *543:A2 6.10798e-05
44 *179:16 *546:B 0.000113366
45 *179:16 *711:CLK 5.20719e-05
46 *179:16 *727:CLK 1.94472e-05
47 *179:16 *774:C1 0.000236549
48 *179:16 *246:23 0.000120462
49 *179:16 *466:30 6.42805e-05
50 *179:50 *727:CLK 5.04829e-06
51 *563:B *754:A 2.89667e-05
52 *757:A2 *179:50 6.27718e-05
53 *170:16 *754:A 0
54 *174:14 *179:8 0.000435066
55 *174:14 *179:14 8.05972e-06
*RES
1 *571:Y *179:8 23.2633 
2 *179:8 *179:14 4.18916 
3 *179:14 *179:16 9.51416 
4 *179:16 *570:B 18.2803 
5 *179:16 *753:B 24.1515 
6 *179:14 *179:50 8.02053 
7 *179:50 *756:B1 11.0817 
8 *179:50 *757:A1 9.24915 
9 *179:8 *754:A 25.5531 
*END

*D_NET *178 0.0103655
*CONN
*I *774:B1 I *D sky130_fd_sc_hd__o211ai_1
*I *562:A I *D sky130_fd_sc_hd__nand2_2
*I *773:B I *D sky130_fd_sc_hd__nand4_1
*I *542:A1 I *D sky130_fd_sc_hd__a21oi_1
*I *762:C I *D sky130_fd_sc_hd__nand4_1
*I *570:Y O *D sky130_fd_sc_hd__nor2_4
*CAP
1 *774:B1 5.71815e-05
2 *562:A 0.000110357
3 *773:B 0
4 *542:A1 0
5 *762:C 0.00103889
6 *570:Y 1.16656e-05
7 *178:70 0.000951605
8 *178:58 0.00116615
9 *178:20 0.00140961
10 *178:8 0.000650107
11 *562:A *562:B 3.41459e-05
12 *562:A *754:B 1.40834e-05
13 *562:A *773:A 4.31603e-06
14 *562:A *773:C 0.000206696
15 *562:A *267:10 6.55124e-05
16 *762:C *614:B1 0.000285345
17 *762:C *747:A 0.000163327
18 *762:C *762:B 6.29446e-05
19 *762:C *776:A1 2.36084e-05
20 *762:C *780:A1 0.000110189
21 *762:C *780:A2 1.11073e-05
22 *762:C *916:A 1.5714e-05
23 *762:C *221:14 1.85244e-05
24 *762:C *284:20 7.13655e-06
25 *762:C *290:8 0.000114584
26 *762:C *311:44 0.000625318
27 *762:C *462:33 4.31452e-05
28 *762:C *466:30 6.83426e-05
29 *774:B1 *543:A2 2.57465e-06
30 *774:B1 *752:A2 1.03403e-05
31 *774:B1 *753:A 6.08467e-05
32 *774:B1 *335:10 5.30622e-05
33 *774:B1 *336:16 4.79289e-05
34 *178:8 *543:A2 7.12632e-06
35 *178:8 *335:10 1.91246e-05
36 *178:20 *540:B1 0.000138121
37 *178:20 *711:DE 0.000138121
38 *178:20 *769:A1 4.15661e-05
39 *178:20 *780:A1 4.15661e-05
40 *178:20 *290:8 0.000200794
41 *178:20 *335:10 0.000230194
42 *178:20 *336:16 0.000198908
43 *178:20 *336:18 3.29488e-05
44 *178:58 *543:A2 0.000102788
45 *178:58 *739:A 7.97332e-05
46 *178:58 *335:10 0.000349153
47 *178:70 *516:A2 2.01765e-05
48 *178:70 *520:A 0.000107019
49 *178:70 *744:D 2.05055e-05
50 *178:70 *749:B 8.54149e-06
51 *178:70 *753:A 3.63738e-05
52 *178:70 *754:B 1.56049e-05
53 *178:70 *756:C1 0
54 *178:70 *773:A 0.00031332
55 *178:70 *289:20 0.000354166
56 *178:70 *319:36 1.49216e-05
57 *178:70 *321:16 0.000105398
58 *178:70 *349:24 0.000202353
59 *178:70 *350:26 8.65132e-05
60 *1031:A *178:70 5.61389e-05
*RES
1 *570:Y *178:8 14.1278 
2 *178:8 *178:20 19.6045 
3 *178:20 *762:C 39.4834 
4 *178:20 *542:A1 9.24915 
5 *178:8 *178:58 7.64553 
6 *178:58 *178:70 25.1915 
7 *178:70 *773:B 9.24915 
8 *178:70 *562:A 13.3484 
9 *178:58 *774:B1 15.6817 
*END

*D_NET *176 0.00238244
*CONN
*I *568:B I *D sky130_fd_sc_hd__nand2_1
*I *569:X O *D sky130_fd_sc_hd__xor2_1
*CAP
1 *568:B 0
2 *569:X 0.000957891
3 *176:16 0.000957891
4 *176:16 req_rdy 1.8078e-05
5 *176:16 *568:A 0.00016051
6 *176:16 *569:A 4.31539e-05
7 *176:16 *651:S 3.18357e-05
8 *176:16 *678:A0 7.30217e-05
9 *176:16 *887:A 0
10 *176:16 *446:97 0
11 *25:10 *176:16 0.000140062
*RES
1 *569:X *176:16 41.3616 
2 *176:16 *568:B 9.24915 
*END

*D_NET *174 0.0029706
*CONN
*I *544:B1 I *D sky130_fd_sc_hd__o21ai_1
*I *757:A2 I *D sky130_fd_sc_hd__o21ai_0
*I *568:Y O *D sky130_fd_sc_hd__nand2_1
*CAP
1 *544:B1 6.75237e-05
2 *757:A2 0.000159025
3 *568:Y 0.0007176
4 *174:14 0.000944149
5 *544:B1 *572:B 7.19887e-05
6 *544:B1 *289:10 7.92757e-06
7 *544:B1 *401:28 0.000112361
8 *757:A2 *572:B 4.2664e-06
9 *757:A2 *687:A 4.2664e-06
10 *757:A2 *687:D 1.91391e-05
11 *757:A2 *179:50 6.27718e-05
12 *757:A2 *180:10 0.000112046
13 *757:A2 *289:10 2.54662e-05
14 *174:14 *572:B 1.81863e-06
15 *174:14 *617:B 3.77568e-05
16 *174:14 *179:8 0.000435066
17 *174:14 *179:14 8.05972e-06
18 *174:14 *390:180 6.64949e-05
19 *174:14 *401:28 0
20 *571:A *174:14 0.000112868
*RES
1 *568:Y *174:14 29.2735 
2 *174:14 *757:A2 17.9655 
3 *174:14 *544:B1 16.1364 
*END

*D_NET *1 0.00519497
*CONN
*I *944:A I *D sky130_fd_sc_hd__buf_4
*I *563:B I *D sky130_fd_sc_hd__nor2_2
*I *544:A1 I *D sky130_fd_sc_hd__o21ai_1
*I *1031:A I *D sky130_fd_sc_hd__buf_4
*I *567:X O *D sky130_fd_sc_hd__xnor3_2
*CAP
1 *944:A 0.000140041
2 *563:B 0.000562485
3 *544:A1 0
4 *1031:A 8.28819e-05
5 *567:X 0.000761336
6 *1:14 0.000190389
7 *1:10 0.00129129
8 *563:B *563:A 7.18816e-06
9 *563:B *565:B 1.91246e-05
10 *563:B *754:A 2.89667e-05
11 *563:B *1030:A 0.000122084
12 *563:B *420:64 0.000304095
13 *944:A *652:A 5.03545e-06
14 *944:A *687:C 8.61152e-06
15 *944:A *747:B 4.9509e-05
16 *944:A *390:180 3.60077e-05
17 *944:A *434:62 2.58616e-05
18 *1031:A *754:B 0.000117376
19 *1031:A *756:C1 0.000192399
20 *1031:A *773:A 6.36477e-05
21 *1031:A *178:70 5.61389e-05
22 *1:10 *651:A0 6.54872e-06
23 *1:10 *651:S 0.000204129
24 *1:10 *653:A2 3.03926e-05
25 *1:10 *741:A2 0
26 *1:10 *741:C1 0.000324676
27 *1:10 *1030:A 2.02035e-05
28 *1:10 *259:369 4.3116e-06
29 *1:10 *321:16 5.61673e-05
30 *1:10 *383:117 0
31 *1:10 *392:16 0.00011747
32 *1:14 *264:10 6.23012e-05
33 *1:14 *264:16 7.14714e-05
34 *1:14 *321:16 0.000210809
35 *1:14 *384:18 1.48977e-05
36 *1:14 *392:16 7.12632e-06
*RES
1 *567:X *1:10 28.1476 
2 *1:10 *1:14 8.61588 
3 *1:14 *1031:A 12.7456 
4 *1:14 *544:A1 9.24915 
5 *1:10 *563:B 21.9861 
6 *567:X *944:A 31.2994 
*END

*D_NET *262 0.00306079
*CONN
*I *741:A2 I *D sky130_fd_sc_hd__o211ai_1
*I *565:B I *D sky130_fd_sc_hd__nand2_1
*I *566:X O *D sky130_fd_sc_hd__xor2_1
*CAP
1 *741:A2 0.0003906
2 *565:B 4.89364e-05
3 *566:X 0.000341835
4 *262:12 0.000781372
5 *565:B *563:A 0
6 *565:B *677:A0 1.7781e-05
7 *565:B *401:28 6.3657e-05
8 *565:B *446:10 6.64392e-05
9 *741:A2 *741:A1 0.00010515
10 *741:A2 *741:C1 2.14842e-06
11 *741:A2 *321:16 2.64517e-05
12 *741:A2 *401:28 0.000451935
13 *262:12 *563:A 2.82537e-05
14 *262:12 *677:A0 0.000435305
15 *262:12 *265:10 4.58006e-05
16 *262:12 *491:26 5.41377e-05
17 *563:B *565:B 1.91246e-05
18 *566:B *262:12 6.27718e-05
19 *649:A *262:12 2.58616e-05
20 *741:B1 *262:12 4.42033e-05
21 *886:A *262:12 4.90235e-05
22 *1:10 *741:A2 0
*RES
1 *566:X *262:12 25.0737 
2 *262:12 *565:B 15.474 
3 *262:12 *741:A2 30.1566 
*END

*D_NET *264 0.0025797
*CONN
*I *544:A2 I *D sky130_fd_sc_hd__o21ai_1
*I *756:A1 I *D sky130_fd_sc_hd__a211oi_1
*I *742:A I *D sky130_fd_sc_hd__nand2_1
*I *565:Y O *D sky130_fd_sc_hd__nand2_1
*CAP
1 *544:A2 0
2 *756:A1 0
3 *742:A 0.000167985
4 *565:Y 0.0004456
5 *264:16 0.000314881
6 *264:10 0.000592496
7 *742:A *742:B 8.63306e-05
8 *742:A *349:24 1.00766e-05
9 *264:10 *384:18 2.8322e-05
10 *264:10 *446:10 6.27718e-05
11 *264:10 *446:23 0.000533276
12 *264:16 *751:A 3.01368e-06
13 *264:16 *756:C1 0.000137328
14 *264:16 *321:16 4.50722e-05
15 *264:16 *384:18 1.87732e-05
16 *1:14 *264:10 6.23012e-05
17 *1:14 *264:16 7.14714e-05
*RES
1 *565:Y *264:10 21.9899 
2 *264:10 *264:16 8.7164 
3 *264:16 *742:A 13.3484 
4 *264:16 *756:A1 9.24915 
5 *264:10 *544:A2 13.7491 
*END

*D_NET *265 0.00328591
*CONN
*I *1030:A I *D sky130_fd_sc_hd__buf_4
*I *563:A I *D sky130_fd_sc_hd__nor2_2
*I *564:X O *D sky130_fd_sc_hd__xnor3_2
*CAP
1 *1030:A 0.000488878
2 *563:A 7.90482e-05
3 *564:X 0.000198895
4 *265:10 0.000766821
5 *563:A *358:72 1.16596e-05
6 *1030:A *392:16 1.66626e-05
7 *1030:A *420:64 4.86974e-06
8 *1030:A *476:16 2.16355e-05
9 *265:10 *358:72 8.72537e-06
10 *265:10 *392:16 0.000158357
11 *265:10 *491:26 8.62625e-06
12 *563:B *563:A 7.18816e-06
13 *563:B *1030:A 0.000122084
14 *565:B *563:A 0
15 *741:B1 *563:A 3.91685e-05
16 *741:B1 *265:10 1.5714e-05
17 *886:A *265:10 0.00011557
18 *1:10 *1030:A 2.02035e-05
19 *170:16 *1030:A 0.00100567
20 *238:10 *563:A 0.000122083
21 *262:12 *563:A 2.82537e-05
22 *262:12 *265:10 4.58006e-05
*RES
1 *564:X *265:10 18.4519 
2 *265:10 *563:A 16.6193 
3 *265:10 *1030:A 23.0154 
*END

*D_NET *266 0.00542056
*CONN
*I *748:B1_N I *D sky130_fd_sc_hd__a21boi_0
*I *991:A I *D sky130_fd_sc_hd__buf_4
*I *563:Y O *D sky130_fd_sc_hd__nor2_2
*CAP
1 *748:B1_N 0.000133337
2 *991:A 0.000552751
3 *563:Y 0.000383384
4 *266:10 0.00106947
5 *748:B1_N *328:6 0.00040678
6 *991:A *746:B 6.62968e-05
7 *991:A *771:A2 0.000136823
8 *991:A *916:A 3.75258e-05
9 *991:A *291:14 0.000123773
10 *991:A *322:12 0.0010324
11 *991:A *358:72 0.000470947
12 *991:A *462:33 0.000131152
13 *266:10 *1000:A 5.75555e-05
14 *266:10 *267:10 1.04624e-05
15 *266:10 *322:12 0.000115668
16 *266:10 *358:72 0.000300814
17 *266:10 *420:64 1.05272e-06
18 *266:10 *446:10 0.000113713
19 *266:10 *462:33 3.52987e-05
20 *266:10 *476:16 2.30295e-05
21 *601:A *748:B1_N 4.33655e-05
22 *748:A2 *748:B1_N 0.000158371
23 *223:10 *748:B1_N 1.65872e-05
24 *238:10 *266:10 0
*RES
1 *563:Y *266:10 24.3337 
2 *266:10 *991:A 34.2675 
3 *266:10 *748:B1_N 18.9094 
*END

*D_NET *267 0.00424802
*CONN
*I *763:A2 I *D sky130_fd_sc_hd__o221ai_4
*I *916:A I *D sky130_fd_sc_hd__buf_4
*I *562:Y O *D sky130_fd_sc_hd__nand2_2
*CAP
1 *763:A2 0
2 *916:A 0.00066659
3 *562:Y 0.000157325
4 *267:10 0.000823915
5 *916:A *547:A 0.000111722
6 *916:A *547:B 0.000111722
7 *916:A *746:B 7.09666e-06
8 *916:A *759:B 0.000165455
9 *916:A *775:B1 0.000194778
10 *916:A *780:A2 1.5714e-05
11 *916:A *285:6 0.000199608
12 *916:A *291:14 0.000127184
13 *916:A *334:14 1.41689e-05
14 *916:A *358:72 0.000662323
15 *916:A *440:25 0
16 *916:A *462:33 0.000141178
17 *267:10 *754:B 7.19887e-05
18 *267:10 *773:D 9.52341e-05
19 *267:10 *358:72 0.000134512
20 *562:A *267:10 6.55124e-05
21 *601:A *916:A 0.000332761
22 *762:C *916:A 1.5714e-05
23 *780:C1 *916:A 1.81863e-06
24 *991:A *916:A 3.75258e-05
25 *221:14 *916:A 8.37087e-05
26 *238:10 *916:A 0
27 *238:10 *267:10 0
28 *266:10 *267:10 1.04624e-05
*RES
1 *562:Y *267:10 19.0748 
2 *267:10 *916:A 37.3487 
3 *267:10 *763:A2 13.7491 
*END

*D_NET *269 0.00591808
*CONN
*I *541:A2 I *D sky130_fd_sc_hd__a221oi_2
*I *560:B I *D sky130_fd_sc_hd__xnor2_1
*I *561:X O *D sky130_fd_sc_hd__xor2_2
*CAP
1 *541:A2 0
2 *560:B 0.000561516
3 *561:X 0.000248333
4 *269:10 0.000809849
5 *560:B *613:B 0.000384436
6 *560:B *390:192 0.000583593
7 *560:B *478:26 6.11872e-05
8 *269:10 *613:B 0.000272929
9 *269:10 *621:S 0.000117097
10 *269:10 *390:182 0.000180258
11 *269:10 *390:192 0.000144929
12 *560:A *560:B 0.000696309
13 *777:A *560:B 4.96534e-05
14 *910:A *560:B 0.000311303
15 *915:A *560:B 0.000413073
16 *931:A *269:10 0.000357898
17 *1032:A *560:B 0.000220183
18 *1049:A *560:B 0.000366667
19 *246:10 *560:B 5.51483e-06
20 *258:23 *560:B 1.92172e-05
21 *259:137 *560:B 7.17686e-05
22 *259:137 *269:10 3.16391e-05
23 *259:162 *269:10 1.07248e-05
*RES
1 *561:X *269:10 24.1999 
2 *269:10 *560:B 40.4626 
3 *269:10 *541:A2 13.7491 
*END

*D_NET *246 0.00560446
*CONN
*I *931:A I *D sky130_fd_sc_hd__buf_4
*I *546:A I *D sky130_fd_sc_hd__nor2_1
*I *556:A I *D sky130_fd_sc_hd__nor2_1
*I *560:Y O *D sky130_fd_sc_hd__xnor2_1
*CAP
1 *931:A 0.000494819
2 *546:A 0
3 *556:A 9.36721e-06
4 *560:Y 0.000281868
5 *246:23 0.000868104
6 *246:10 0.00066452
7 *556:A *548:A 6.50586e-05
8 *556:A *556:B 6.50586e-05
9 *931:A *541:C1 0.000251803
10 *931:A *613:B 0.000523029
11 *931:A *621:A0 3.11767e-05
12 *931:A *621:S 0.000185286
13 *931:A *752:B1 1.71154e-05
14 *931:A *269:10 0.000357898
15 *931:A *319:36 0.00020502
16 *246:10 *546:B 9.25196e-05
17 *246:10 *560:B 5.51483e-06
18 *246:10 *253:25 4.37999e-05
19 *246:10 *478:26 9.04224e-05
20 *246:23 *546:B 6.36292e-05
21 *246:23 *614:A1 0.000167769
22 *246:23 *253:25 6.57356e-05
23 *246:23 *466:30 0.000508704
24 *570:B *246:23 0.000221911
25 *1032:A *246:10 5.0715e-05
26 *1056:A *246:10 0.000144531
27 *1056:A *246:23 8.62625e-06
28 *179:16 *246:23 0.000120462
*RES
1 *560:Y *246:10 20.8751 
2 *246:10 *556:A 14.4725 
3 *246:10 *246:23 17.9591 
4 *246:23 *546:A 9.24915 
5 *246:23 *931:A 27.0929 
*END

*D_NET *272 0.00101064
*CONN
*I *557:B I *D sky130_fd_sc_hd__xnor2_2
*I *1065:A I *D sky130_fd_sc_hd__buf_4
*I *559:X O *D sky130_fd_sc_hd__xor2_2
*CAP
1 *557:B 0.000100683
2 *1065:A 0
3 *559:X 0.000131116
4 *272:14 0.000231799
5 *557:B *688:C 0.000170778
6 *557:B *492:90 0.000156001
7 *272:14 *688:A 0.000101987
8 *272:14 *688:C 0
9 *272:14 *278:19 2.55661e-06
10 *272:14 *492:90 5.26446e-05
11 *259:110 *272:14 6.30748e-05
*RES
1 *559:X *272:14 21.7985 
2 *272:14 *1065:A 9.24915 
3 *272:14 *557:B 13.8548 
*END

*D_NET *256 0.00419353
*CONN
*I *546:B I *D sky130_fd_sc_hd__nor2_1
*I *616:B1 I *D sky130_fd_sc_hd__o21ai_0
*I *558:Y O *D sky130_fd_sc_hd__nand2_1
*CAP
1 *546:B 0.000783556
2 *616:B1 0.000166508
3 *558:Y 9.28486e-05
4 *256:8 0.00104291
5 *546:B *760:B1 3.00711e-05
6 *546:B *761:A 0
7 *546:B *769:A1 0
8 *546:B *335:10 0
9 *546:B *466:30 8.56518e-05
10 *546:B *478:26 0.000311681
11 *616:B1 *549:B 1.43832e-05
12 *616:B1 *616:A2 6.46815e-05
13 *616:B1 *771:C1 0.00019246
14 *616:B1 *772:B 1.94827e-05
15 *256:8 *666:A0 4.24488e-05
16 *256:8 *772:B 1.03403e-05
17 *543:A2 *546:B 0.000457996
18 *570:B *546:B 0.000221911
19 *614:A1 *546:B 0.000167769
20 *614:C1 *256:8 0.000107451
21 *615:A2 *546:B 1.27831e-06
22 *615:A2 *616:B1 0
23 *615:B1 *616:B1 0.00011059
24 *179:16 *546:B 0.000113366
25 *246:10 *546:B 9.25196e-05
26 *246:23 *546:B 6.36292e-05
*RES
1 *558:Y *256:8 16.691 
2 *256:8 *616:B1 19.1136 
3 *256:8 *546:B 37.1743 
*END

*D_NET *258 0.00589086
*CONN
*I *556:B I *D sky130_fd_sc_hd__nor2_1
*I *777:A I *D sky130_fd_sc_hd__xnor2_1
*I *1066:A I *D sky130_fd_sc_hd__buf_4
*I *557:Y O *D sky130_fd_sc_hd__xnor2_2
*CAP
1 *556:B 0.000403126
2 *777:A 7.66206e-05
3 *1066:A 0
4 *557:Y 0.000317259
5 *258:23 0.000728942
6 *258:10 0.000566455
7 *556:B *545:A1 0.000302686
8 *556:B *548:A 9.05137e-05
9 *556:B *259:137 4.55844e-05
10 *556:B *274:14 0.000451291
11 *556:B *492:90 5.44627e-05
12 *777:A *560:B 4.96534e-05
13 *258:10 *390:192 2.57465e-06
14 *258:10 *436:50 0.000352713
15 *258:10 *492:90 2.41274e-06
16 *258:23 *560:B 1.92172e-05
17 *258:23 *894:A 6.50586e-05
18 *258:23 *390:192 0.000161942
19 *258:23 *436:50 0.000390466
20 *545:B1 *556:B 3.38808e-05
21 *556:A *556:B 6.50586e-05
22 *558:A *258:10 0.000226519
23 *560:A *777:A 0.000309159
24 *560:A *258:23 0.000408929
25 *613:A *556:B 0.000209388
26 *915:A *777:A 0.00021218
27 *915:A *258:23 0.000200894
28 *1049:A *258:23 1.777e-05
29 *20:10 *258:10 0.0001261
*RES
1 *557:Y *258:10 24.1999 
2 *258:10 *1066:A 13.7491 
3 *258:10 *258:23 16.3359 
4 *258:23 *777:A 13.3243 
5 *258:23 *556:B 32.3332 
*END

*D_NET *274 0.0045344
*CONN
*I *541:B1 I *D sky130_fd_sc_hd__a221oi_2
*I *921:A I *D sky130_fd_sc_hd__buf_4
*I *556:Y O *D sky130_fd_sc_hd__nor2_1
*CAP
1 *541:B1 0
2 *921:A 0.000394413
3 *556:Y 0.000558841
4 *274:14 0.000953253
5 *921:A *541:A1 0.000115307
6 *921:A *862:A 6.08467e-05
7 *921:A *288:18 0.000608016
8 *921:A *370:18 4.86868e-05
9 *921:A *443:82 0.000159064
10 *274:14 *541:C1 2.99273e-05
11 *274:14 *545:A1 8.62625e-06
12 *274:14 *777:B 0.000261862
13 *274:14 *920:A 0.000247443
14 *274:14 *288:18 2.29454e-05
15 *274:14 *370:18 2.07503e-05
16 *274:14 *492:74 5.44461e-05
17 *556:B *274:14 0.000451291
18 *560:A *921:A 3.20049e-05
19 *614:C1 *274:14 5.04324e-05
20 *711:D *921:A 0.000231882
21 *976:A *921:A 3.87022e-06
22 *2:10 *921:A 0.000220494
*RES
1 *556:Y *274:14 32.8903 
2 *274:14 *921:A 33.5282 
3 *274:14 *541:B1 9.24915 
*END

*D_NET *276 0.00366225
*CONN
*I *554:B I *D sky130_fd_sc_hd__nand2_1
*I *553:B I *D sky130_fd_sc_hd__xnor2_2
*I *555:X O *D sky130_fd_sc_hd__xor2_2
*CAP
1 *554:B 0.000500347
2 *553:B 0.000293956
3 *555:X 9.8603e-05
4 *276:8 0.000892907
5 *553:B *682:S 5.56367e-05
6 *553:B *278:10 3.14978e-05
7 *554:B *682:S 5.04829e-06
8 *554:B *442:144 1.00937e-05
9 *276:8 *682:S 0.00031324
10 *555:B *276:8 0.000120147
11 *554:A *554:B 0.000583269
12 *682:A0 *554:B 0.000383717
13 *1003:A *554:B 1.00981e-05
14 *6:10 *553:B 0.000175674
15 *6:10 *276:8 0.000188012
*RES
1 *555:X *276:8 19.3184 
2 *276:8 *553:B 22.1181 
3 *276:8 *554:B 27.6625 
*END

*D_NET *257 0.00748477
*CONN
*I *545:B1 I *D sky130_fd_sc_hd__o21ai_2
*I *616:A2 I *D sky130_fd_sc_hd__o21ai_0
*I *554:Y O *D sky130_fd_sc_hd__nand2_1
*CAP
1 *545:B1 0.0011574
2 *616:A2 0.000136415
3 *554:Y 0.000644811
4 *257:12 0.00193863
5 *545:B1 *545:A1 0.000158752
6 *545:B1 *556:B 3.38808e-05
7 *545:B1 *613:B 0.000114523
8 *545:B1 *666:A1 0.000199271
9 *545:B1 *710:CLK 4.69495e-06
10 *545:B1 *777:B 0.000144546
11 *545:B1 *778:B 7.49822e-05
12 *545:B1 *278:19 2.48716e-05
13 *545:B1 *288:18 0.000135038
14 *616:A2 *549:B 1.26337e-05
15 *616:A2 *710:CLK 0.000112361
16 *616:A2 *778:B 6.27782e-05
17 *616:A2 *1067:A 6.02167e-05
18 *616:A2 *284:18 0.000499749
19 *257:12 *558:B 0
20 *257:12 *666:A0 0
21 *257:12 *278:10 0.000142855
22 *257:12 *278:19 0.000131876
23 resp_msg[15] *545:B1 1.43848e-05
24 *559:A *257:12 0.000193031
25 *613:A *545:B1 0.000109814
26 *616:B1 *616:A2 6.46815e-05
27 *898:A *545:B1 2.16355e-05
28 *910:A *545:B1 0.000123582
29 *939:A *257:12 6.11074e-05
30 *1003:A *257:12 0.000947893
31 *162:10 *545:B1 0.000158357
32 *253:25 *545:B1 0
*RES
1 *554:Y *257:12 36.417 
2 *257:12 *616:A2 20.0427 
3 *257:12 *545:B1 43.6775 
*END

*D_NET *278 0.00991149
*CONN
*I *545:A1 I *D sky130_fd_sc_hd__o21ai_2
*I *549:A I *D sky130_fd_sc_hd__nor2_2
*I *1067:A I *D sky130_fd_sc_hd__buf_4
*I *930:A I *D sky130_fd_sc_hd__buf_4
*I *553:Y O *D sky130_fd_sc_hd__xnor2_2
*CAP
1 *545:A1 0.00110703
2 *549:A 0
3 *1067:A 9.80839e-05
4 *930:A 0
5 *553:Y 0.0014966
6 *278:25 0.000136412
7 *278:19 0.0015767
8 *278:10 0.00192793
9 *545:A1 *613:B 2.20457e-05
10 *545:A1 *666:A1 0.000195659
11 *545:A1 *777:B 0.000219184
12 *1067:A *549:B 0.000123493
13 *1067:A *710:CLK 0.000110458
14 *1067:A *778:B 6.08467e-05
15 *278:10 *442:144 0
16 *278:10 *449:16 0.000142795
17 *278:19 *657:A0 6.09666e-05
18 *278:19 *688:A 7.36804e-06
19 *278:19 *411:16 0.000318803
20 *278:19 *492:90 0
21 *278:25 *549:B 0.000183988
22 *278:25 *710:CLK 1.3808e-05
23 resp_msg[15] *545:A1 6.08467e-05
24 *545:B1 *545:A1 0.000158752
25 *545:B1 *278:19 2.48716e-05
26 *553:B *278:10 3.14978e-05
27 *553:A *278:10 6.05501e-05
28 *556:B *545:A1 0.000302686
29 *559:A *278:19 8.33364e-05
30 *613:A *545:A1 2.07503e-05
31 *614:C1 *545:A1 0.000538476
32 *616:A2 *1067:A 6.02167e-05
33 *664:A *278:10 2.55493e-05
34 *877:A *278:10 0
35 *898:A *545:A1 2.16355e-05
36 *915:A *545:A1 0.000165668
37 *915:A *278:19 0.000156387
38 *939:A *278:19 6.11074e-05
39 *1003:A *278:10 4.89469e-06
40 *5:12 *278:10 3.30108e-05
41 *5:12 *278:19 8.36429e-06
42 *7:18 *278:10 0
43 *21:6 *278:10 4.79713e-06
44 *21:23 *278:10 0
45 *257:12 *278:10 0.000142855
46 *257:12 *278:19 0.000131876
47 *272:14 *278:19 2.55661e-06
48 *274:14 *545:A1 8.62625e-06
*RES
1 *553:Y *278:10 44.146 
2 *278:10 *930:A 13.7491 
3 *278:10 *278:19 13.8743 
4 *278:19 *278:25 6.35672 
5 *278:25 *1067:A 13.1133 
6 *278:25 *549:A 9.24915 
7 *278:19 *545:A1 39.3184 
*END

*D_NET *280 0.00576699
*CONN
*I *551:B I *D sky130_fd_sc_hd__nand2_1
*I *550:B I *D sky130_fd_sc_hd__xnor2_1
*I *552:X O *D sky130_fd_sc_hd__xor2_1
*CAP
1 *551:B 0.000169013
2 *550:B 1.47608e-05
3 *552:X 0.00116346
4 *280:16 0.0010092
5 *550:B *616:A1 6.08467e-05
6 *550:B *284:18 6.08467e-05
7 *551:B *378:12 0.000145095
8 *551:B *413:22 0.000141497
9 *551:B *444:76 6.88361e-05
10 *280:16 *681:S 8.44601e-05
11 *280:16 *725:DE 5.53934e-05
12 *280:16 *726:DE 3.56649e-05
13 *280:16 *769:A1 0.000283152
14 *280:16 *433:88 1.26032e-05
15 *280:16 *442:144 2.2083e-05
16 *280:16 *444:76 0.000262405
17 *550:A *280:16 0.0003827
18 *552:B *551:B 0.000237867
19 *615:A1 *280:16 1.26119e-05
20 *681:A0 *280:16 0.000262053
21 *724:D *551:B 1.55025e-05
22 *22:10 *280:16 0.000370378
23 *80:18 *551:B 0.0003717
24 *80:18 *280:16 1.70077e-05
25 *124:16 *551:B 0
26 *184:44 *280:16 0.000283152
27 *254:10 *280:16 0.000224703
*RES
1 *552:X *280:16 49.6724 
2 *280:16 *550:B 9.97254 
3 *552:X *551:B 36.6472 
*END

*D_NET *282 0.00867043
*CONN
*I *545:A2 I *D sky130_fd_sc_hd__o21ai_2
*I *765:B1 I *D sky130_fd_sc_hd__o21ai_0
*I *551:Y O *D sky130_fd_sc_hd__nand2_1
*CAP
1 *545:A2 0.00083301
2 *765:B1 3.77963e-05
3 *551:Y 0.000574654
4 *282:37 0.00215006
5 *282:22 0.0019295
6 *545:A2 *682:S 2.86829e-05
7 *545:A2 *861:A 2.02035e-05
8 *545:A2 *897:A 0.000168186
9 *545:A2 *979:A 0
10 *545:A2 *383:150 0.000123414
11 *765:B1 *283:16 0
12 *282:22 *680:S 1.9898e-05
13 *282:22 *723:CLK 0.000315492
14 *282:22 *765:A2 6.08467e-05
15 *282:22 *330:27 1.13359e-05
16 *282:22 *378:12 1.29348e-05
17 *282:22 *444:20 0.000141864
18 *282:37 *680:S 2.22974e-05
19 *282:37 *682:S 6.27718e-05
20 *282:37 *979:A 0.000111672
21 *282:37 *411:16 2.42609e-05
22 *282:37 *428:8 0.0001056
23 resp_msg[11] *545:A2 0.000148623
24 resp_msg[14] *545:A2 0.000196412
25 *550:A *282:22 0.000258134
26 *559:A *282:37 0.000105182
27 *560:A *545:A2 0.000163997
28 *659:B1 *282:22 7.7517e-05
29 *723:D *282:22 0.000515315
30 *896:A *545:A2 5.71992e-05
31 *22:10 *282:22 0.000235535
32 *23:10 *282:22 3.50623e-05
33 *184:14 *282:37 6.01996e-05
34 *254:10 *282:22 1.50924e-05
35 *254:10 *282:37 4.76794e-05
*RES
1 *551:Y *282:22 47.4984 
2 *282:22 *765:B1 10.2378 
3 *282:22 *282:37 25.9366 
4 *282:37 *545:A2 38.42 
*END

*D_NET *283 0.00747798
*CONN
*I *549:B I *D sky130_fd_sc_hd__nor2_2
*I *766:B I *D sky130_fd_sc_hd__nor2_1
*I *765:A2 I *D sky130_fd_sc_hd__o21ai_0
*I *929:A I *D sky130_fd_sc_hd__buf_4
*I *550:Y O *D sky130_fd_sc_hd__xnor2_1
*CAP
1 *549:B 0.000617553
2 *766:B 0
3 *765:A2 3.04998e-05
4 *929:A 0.000757193
5 *550:Y 0.000991046
6 *283:16 0.000887309
7 *283:10 0.000473109
8 *549:B *616:A1 2.16355e-05
9 *549:B *710:CLK 0.000109421
10 *549:B *284:18 9.80242e-07
11 *765:A2 *680:S 4.89251e-05
12 *929:A *659:A2 0.000515998
13 *929:A *680:S 0.000136062
14 *929:A *858:A 0
15 *929:A *378:12 8.22191e-05
16 *929:A *442:128 0.000359579
17 *283:10 *284:18 0.000247443
18 *283:10 *444:14 0
19 *543:B1 *283:10 6.32836e-05
20 *575:B *283:10 5.02496e-05
21 *616:A2 *549:B 1.26337e-05
22 *616:B1 *549:B 1.43832e-05
23 *680:A1 *929:A 0.000850249
24 *723:D *929:A 0.000161234
25 *765:A1 *283:10 0.000220509
26 *765:A1 *283:16 0.00019364
27 *765:B1 *283:16 0
28 *977:A *283:16 0.000133878
29 *1067:A *549:B 0.000123493
30 *23:10 *283:16 5.01737e-05
31 *80:18 *929:A 5.30033e-05
32 *259:22 *929:A 2.74405e-05
33 *278:25 *549:B 0.000183988
34 *282:22 *765:A2 6.08467e-05
*RES
1 *550:Y *283:10 22.2602 
2 *283:10 *283:16 8.57172 
3 *283:16 *929:A 46.6177 
4 *283:16 *765:A2 10.5271 
5 *283:10 *766:B 13.7491 
6 *550:Y *549:B 29.2528 
*END

*D_NET *284 0.011836
*CONN
*I *548:B I *D sky130_fd_sc_hd__nand2_1
*I *774:C1 I *D sky130_fd_sc_hd__o211ai_1
*I *773:D I *D sky130_fd_sc_hd__nand4_1
*I *775:A1 I *D sky130_fd_sc_hd__a21oi_1
*I *549:Y O *D sky130_fd_sc_hd__nor2_2
*CAP
1 *548:B 3.61052e-05
2 *774:C1 0.000562047
3 *773:D 0.000280343
4 *775:A1 0.00021839
5 *549:Y 0.00135259
6 *284:33 0.00130599
7 *284:20 0.000999716
8 *284:18 0.00170643
9 *773:D *358:72 4.63385e-05
10 *773:D *384:18 0.000449883
11 *774:C1 *687:D 6.65821e-05
12 *774:C1 *752:A2 1.03403e-05
13 *774:C1 *753:A 6.50727e-05
14 *774:C1 *319:36 4.28128e-05
15 *774:C1 *384:18 0.000527009
16 *775:A1 *776:C1 0.000294093
17 *284:18 *520:B 9.63944e-05
18 *284:18 *616:A1 6.89142e-05
19 *284:18 *710:CLK 3.96696e-05
20 *284:18 *743:A 8.39014e-06
21 *284:18 *746:A 1.91246e-05
22 *284:18 *759:A 7.09666e-06
23 *284:18 *343:27 0.000180236
24 *284:18 *343:40 0.000153526
25 *284:18 *361:24 0
26 *284:18 *444:8 0.000130427
27 *284:18 *454:36 2.08509e-05
28 *284:18 *461:48 5.98993e-05
29 *284:20 *759:A 0.000427081
30 *284:20 *775:A2 1.1699e-05
31 *284:20 *909:A 0.000138585
32 *284:33 *516:A2 4.01592e-05
33 *284:33 *749:B 1.70899e-05
34 *284:33 *759:A 0.000177428
35 *284:33 *763:A1 4.12977e-05
36 *284:33 *773:A 4.54513e-05
37 *284:33 *775:A2 7.5909e-06
38 *284:33 *909:A 6.3609e-05
39 *284:33 *319:36 0.000143299
40 *284:33 *350:26 3.94064e-06
41 *284:33 *391:34 0.000120544
42 *284:33 *476:16 6.83379e-05
43 *284:33 *476:22 3.26822e-05
44 *543:A2 *774:C1 0.000189724
45 *543:B1 *284:20 0
46 *550:B *284:18 6.08467e-05
47 *549:B *284:18 9.80242e-07
48 *578:A2 *284:18 0
49 *616:A2 *284:18 0.000499749
50 *744:B *284:33 2.02035e-05
51 *754:A *773:D 5.77851e-05
52 *754:A *774:C1 9.98142e-05
53 *762:C *284:20 7.13655e-06
54 *179:14 *774:C1 3.16343e-05
55 *179:16 *774:C1 0.000236549
56 *180:10 *774:C1 8.88192e-05
57 *238:10 *773:D 1.95551e-05
58 *250:24 *284:18 9.34404e-05
59 *267:10 *773:D 9.52341e-05
60 *283:10 *284:18 0.000247443
*RES
1 *549:Y *284:18 44.1116 
2 *284:18 *284:20 8.89128 
3 *284:20 *775:A1 17.2456 
4 *284:20 *284:33 15.7897 
5 *284:33 *773:D 19.8194 
6 *284:33 *774:C1 24.0614 
7 *284:18 *548:B 14.4819 
*END

*D_NET *285 0.00266655
*CONN
*I *540:A1 I *D sky130_fd_sc_hd__o21ai_1
*I *547:B I *D sky130_fd_sc_hd__nor2_2
*I *548:Y O *D sky130_fd_sc_hd__nand2_1
*CAP
1 *540:A1 0.000140379
2 *547:B 7.29373e-05
3 *548:Y 0.000234379
4 *285:6 0.000447696
5 *540:A1 *780:A1 0.000135352
6 *540:A1 *440:12 0.000182178
7 *540:A1 *440:25 0.000162422
8 *547:B *547:A 3.79808e-05
9 *547:B *462:33 0.000200794
10 *285:6 *746:B 6.08467e-05
11 *285:6 *759:A 6.08467e-05
12 *285:6 *759:B 6.35148e-05
13 *285:6 *462:33 0.000255976
14 *614:A2 *285:6 0.000114594
15 *780:C1 *540:A1 0.000165899
16 *916:A *547:B 0.000111722
17 *916:A *285:6 0.000199608
18 *221:14 *540:A1 1.94224e-05
*RES
1 *548:Y *285:6 16.6278 
2 *285:6 *547:B 12.2151 
3 *285:6 *540:A1 24.6489 
*END

*D_NET *286 0.000723015
*CONN
*I *539:A2 I *D sky130_fd_sc_hd__a21o_4
*I *547:Y O *D sky130_fd_sc_hd__nor2_2
*CAP
1 *539:A2 0.000147172
2 *547:Y 0.000147172
3 *539:A2 *547:A 0.000111802
4 *539:A2 *325:14 0.000111802
5 *539:A2 *341:16 5.74772e-05
6 *913:A *539:A2 0.000116742
7 *1032:A *539:A2 1.5714e-05
8 *1051:A *539:A2 1.51325e-05
*RES
1 *547:Y *539:A2 31.854 
*END

*D_NET *287 0.00177317
*CONN
*I *541:C1 I *D sky130_fd_sc_hd__a221oi_2
*I *546:Y O *D sky130_fd_sc_hd__nor2_1
*CAP
1 *541:C1 0.000605819
2 *546:Y 0.000605819
3 *541:C1 *540:B1 3.85446e-05
4 *541:C1 *711:CLK 0
5 *541:C1 *319:36 6.3623e-05
6 *541:C1 *370:18 0
7 *541:C1 *492:74 0.000106158
8 *621:A1 *541:C1 7.14746e-05
9 *931:A *541:C1 0.000251803
10 *253:25 *541:C1 0
11 *274:14 *541:C1 2.99273e-05
*RES
1 *546:Y *541:C1 39.1976 
*END

*D_NET *288 0.00581776
*CONN
*I *541:B2 I *D sky130_fd_sc_hd__a221oi_2
*I *920:A I *D sky130_fd_sc_hd__buf_4
*I *545:Y O *D sky130_fd_sc_hd__o21ai_2
*CAP
1 *541:B2 0
2 *920:A 0.000750699
3 *545:Y 0.000632787
4 *288:18 0.00138349
5 *920:A *540:B1 0.000161688
6 *920:A *775:B1 5.54018e-05
7 *920:A *776:A1 2.91008e-06
8 *920:A *776:A2 0.000111802
9 *920:A *776:B1 0.000293753
10 *920:A *776:C1 5.99529e-06
11 *920:A *777:B 0.000211216
12 *920:A *335:10 8.6297e-06
13 *920:A *370:18 0.000445822
14 *920:A *436:64 5.23435e-05
15 *288:18 *383:150 0.000239041
16 *288:18 *443:82 9.57245e-05
17 resp_msg[15] *288:18 0.000173104
18 *543:A2 *920:A 6.85329e-05
19 *545:B1 *288:18 0.000135038
20 *560:A *288:18 6.14642e-05
21 *570:A *920:A 4.99151e-05
22 *921:A *288:18 0.000608016
23 *274:14 *920:A 0.000247443
24 *274:14 *288:18 2.29454e-05
*RES
1 *545:Y *288:18 36.4027 
2 *288:18 *920:A 48.3551 
3 *288:18 *541:B2 9.24915 
*END

*D_NET *289 0.00442475
*CONN
*I *774:A1 I *D sky130_fd_sc_hd__o211ai_1
*I *542:A2 I *D sky130_fd_sc_hd__a21oi_1
*I *749:A I *D sky130_fd_sc_hd__nor2_1
*I *544:Y O *D sky130_fd_sc_hd__o21ai_1
*CAP
1 *774:A1 0
2 *542:A2 0.000645747
3 *749:A 0
4 *544:Y 0.00026219
5 *289:20 0.000911923
6 *289:10 0.000528366
7 *542:A2 *739:A 1.77894e-05
8 *542:A2 *753:A 9.89388e-06
9 *542:A2 *775:A2 0.000139397
10 *542:A2 *776:A1 0.000160774
11 *542:A2 *776:C1 6.32875e-06
12 *542:A2 *780:A2 6.13864e-06
13 *542:A2 *290:8 0.000110297
14 *542:A2 *349:24 8.12445e-05
15 *542:A2 *350:26 4.43797e-05
16 *542:A2 *358:16 4.11568e-05
17 *289:10 *751:A 0.000116143
18 *289:10 *756:C1 1.27227e-05
19 *289:10 *335:10 0.000126868
20 *289:10 *384:18 9.9669e-05
21 *289:20 *516:A2 5.87964e-05
22 *289:20 *739:B 0.000200771
23 *289:20 *744:D 4.52855e-05
24 *289:20 *749:B 4.31485e-06
25 *289:20 *751:A 1.07248e-05
26 *289:20 *753:A 2.17372e-05
27 *289:20 *335:10 9.46283e-05
28 *289:20 *336:16 5.01835e-05
29 *289:20 *350:26 1.40709e-05
30 *520:A *289:20 1.31877e-05
31 *543:B1 *542:A2 8.86032e-05
32 *544:B1 *289:10 7.92757e-06
33 *570:A *542:A2 3.23076e-06
34 *572:B *289:10 1.41976e-05
35 *614:A1 *542:A2 7.34603e-05
36 *614:A3 *542:A2 6.14756e-06
37 *757:A2 *289:10 2.54662e-05
38 *780:C1 *542:A2 1.68253e-05
39 *178:70 *289:20 0.000354166
*RES
1 *544:Y *289:10 20.4571 
2 *289:10 *289:20 10.5716 
3 *289:20 *749:A 13.7491 
4 *289:20 *542:A2 32.7449 
5 *289:10 *774:A1 13.7491 
*END

*D_NET *290 0.00308951
*CONN
*I *542:B1 I *D sky130_fd_sc_hd__a21oi_1
*I *775:A2 I *D sky130_fd_sc_hd__a21oi_1
*I *543:Y O *D sky130_fd_sc_hd__o21ai_1
*CAP
1 *542:B1 0
2 *775:A2 0.000695954
3 *543:Y 0.000116048
4 *290:8 0.000812002
5 *775:A2 *776:C1 7.828e-05
6 *775:A2 *909:A 0.000309568
7 *775:A2 *350:26 0.000215763
8 *775:A2 *476:22 0.000118234
9 *290:8 *758:B 0.000107496
10 *290:8 *776:A1 2.36781e-05
11 *542:A2 *775:A2 0.000139397
12 *542:A2 *290:8 0.000110297
13 *543:B1 *290:8 2.81262e-05
14 *601:A *775:A2 0
15 *762:C *290:8 0.000114584
16 *178:20 *290:8 0.000200794
17 *284:20 *775:A2 1.1699e-05
18 *284:33 *775:A2 7.5909e-06
*RES
1 *543:Y *290:8 13.8789 
2 *290:8 *775:A2 34.4568 
3 *290:8 *542:B1 9.24915 
*END

*D_NET *291 0.00190626
*CONN
*I *1022:A I *D sky130_fd_sc_hd__buf_4
*I *540:A2 I *D sky130_fd_sc_hd__o21ai_1
*I *542:Y O *D sky130_fd_sc_hd__a21oi_1
*CAP
1 *1022:A 0
2 *540:A2 5.14669e-05
3 *542:Y 0.000506723
4 *291:14 0.00055819
5 *540:A2 *539:B1 1.03403e-05
6 *540:A2 *540:B1 6.08467e-05
7 *540:A2 *468:22 0.000154145
8 *291:14 *540:B1 4.66492e-05
9 *291:14 *776:A1 0.000128202
10 *291:14 *780:B1 7.78924e-05
11 *291:14 *468:22 6.08467e-05
12 *916:A *291:14 0.000127184
13 *991:A *291:14 0.000123773
*RES
1 *542:Y *291:14 27.9045 
2 *291:14 *540:A2 11.0817 
3 *291:14 *1022:A 9.24915 
*END

*D_NET *292 0.00347452
*CONN
*I *540:B1 I *D sky130_fd_sc_hd__o21ai_1
*I *541:Y O *D sky130_fd_sc_hd__a221oi_2
*CAP
1 *540:B1 0.000941356
2 *541:Y 0.000941356
3 *540:B1 *711:DE 0.000188414
4 *540:B1 *775:B1 0.000109879
5 *540:B1 *776:A1 6.91904e-05
6 *540:B1 *776:B1 0.000106768
7 *540:B1 *776:C1 6.36477e-05
8 *540:B1 *336:16 1.66626e-05
9 *540:B1 *466:30 7.86482e-06
10 *540:B1 *468:22 3.31745e-05
11 *540:B1 *492:74 3.85446e-05
12 *540:A2 *540:B1 6.08467e-05
13 *541:C1 *540:B1 3.85446e-05
14 *614:A1 *540:B1 0.000487319
15 *614:B1 *540:B1 1.46157e-05
16 *920:A *540:B1 0.000161688
17 *178:20 *540:B1 0.000138121
18 *253:25 *540:B1 9.87977e-06
19 *291:14 *540:B1 4.66492e-05
*RES
1 *541:Y *540:B1 47.5895 
*END

*D_NET *293 0.00223118
*CONN
*I *539:B1 I *D sky130_fd_sc_hd__a21o_4
*I *540:Y O *D sky130_fd_sc_hd__o21ai_1
*CAP
1 *539:B1 0.000642299
2 *540:Y 0.000642299
3 *539:B1 *334:14 0.00032313
4 *539:B1 *341:16 3.03351e-05
5 *539:B1 *440:12 0.000316594
6 *539:B1 *440:25 8.07348e-05
7 *539:B1 *468:22 1.19726e-05
8 *539:A1 *539:B1 4.29266e-05
9 *540:A2 *539:B1 1.03403e-05
10 *577:A2 *539:B1 4.87574e-06
11 *1016:A *539:B1 6.06019e-05
12 *33:24 *539:B1 6.50727e-05
*RES
1 *540:Y *539:B1 43.1788 
*END

*D_NET *299 0.00357467
*CONN
*I *1040:A I *D sky130_fd_sc_hd__buf_4
*I *533:A1 I *D sky130_fd_sc_hd__o211ai_1
*I *535:Y O *D sky130_fd_sc_hd__nand2_2
*CAP
1 *1040:A 0.000473895
2 *533:A1 0.000131884
3 *535:Y 0
4 *299:6 0.00060578
5 *533:A1 *587:A 0.000326129
6 *533:A1 *433:88 0
7 *1040:A *583:A 0.000331014
8 *1040:A *588:A 2.05342e-06
9 *1040:A *689:B 5.14254e-06
10 *1040:A *1041:A 0.00032616
11 *1040:A *424:52 4.19665e-06
12 *523:A *533:A1 7.09666e-06
13 *533:A2 *533:A1 0.000261
14 *583:B *1040:A 0
15 *196:23 *533:A1 8.62625e-06
16 *196:23 *1040:A 0.000204365
17 *196:36 *1040:A 0
18 *202:12 *533:A1 9.96342e-05
19 *202:12 *1040:A 0.000787691
*RES
1 *535:Y *299:6 13.7491 
2 *299:6 *533:A1 20.3233 
3 *299:6 *1040:A 31.6783 
*END

*D_NET *300 0.00429249
*CONN
*I *928:A I *D sky130_fd_sc_hd__buf_4
*I *533:B1 I *D sky130_fd_sc_hd__o211ai_1
*I *534:Y O *D sky130_fd_sc_hd__nand3_2
*CAP
1 *928:A 0.000645142
2 *533:B1 0.000357654
3 *534:Y 9.51517e-05
4 *300:6 0.00109795
5 *533:B1 *528:A 3.25494e-05
6 *533:B1 *587:A 3.14978e-05
7 *533:B1 *689:C 2.0139e-05
8 *533:B1 *433:88 0.000154965
9 *928:A *527:A2 0.000147102
10 *928:A *527:B1 3.52873e-06
11 *928:A *528:B 1.55462e-05
12 *928:A *528:C 0
13 *928:A *592:B 9.41902e-05
14 *928:A *990:A 0.000148144
15 *928:A *1006:A 7.20391e-05
16 *928:A *1037:A 0.000142047
17 *928:A *432:33 8.49123e-06
18 *928:A *435:16 5.60512e-05
19 *928:A *475:8 0
20 *300:6 *435:16 2.16465e-05
21 *533:C1 *533:B1 0.00028675
22 *533:C1 *928:A 1.28326e-05
23 *534:B *533:B1 0.00026493
24 *534:B *300:6 4.2372e-05
25 *535:B *533:B1 0.000219636
26 *583:B *533:B1 1.41205e-05
27 *957:A *928:A 0.000123582
28 *191:6 *928:A 0.000147102
29 *202:12 *533:B1 2.65831e-05
30 *204:10 *533:B1 1.07549e-05
*RES
1 *534:Y *300:6 11.6364 
2 *300:6 *533:B1 32.4316 
3 *300:6 *928:A 38.2858 
*END

*D_NET *301 0.00286815
*CONN
*I *1006:A I *D sky130_fd_sc_hd__buf_4
*I *533:Y O *D sky130_fd_sc_hd__o211ai_1
*CAP
1 *1006:A 0.000443397
2 *533:Y 0.000443397
3 *1006:A *990:A 8.62625e-06
4 *1006:A *388:10 6.49003e-05
5 *1006:A *452:14 0.000107496
6 *533:C1 *1006:A 0.00088184
7 *587:B *1006:A 0.000551477
8 *928:A *1006:A 7.20391e-05
9 *957:A *1006:A 3.46061e-05
10 *193:8 *1006:A 0.000260374
*RES
1 *533:Y *1006:A 46.8059 
*END

*D_NET *304 0.00415742
*CONN
*I *1029:A I *D sky130_fd_sc_hd__buf_6
*I *519:C I *D sky130_fd_sc_hd__nor3_4
*I *530:X O *D sky130_fd_sc_hd__or2_4
*CAP
1 *1029:A 5.78786e-05
2 *519:C 0
3 *530:X 0.00143127
4 *304:18 0.00137339
5 *1029:A *527:A2 4.24629e-05
6 *304:18 *519:B 2.41568e-05
7 *304:18 *526:B 0.0001195
8 *304:18 *526:C 0
9 *304:18 *598:A 0.000107496
10 *304:18 *606:A 1.19705e-05
11 *304:18 *1037:A 0
12 *304:18 *483:16 0.00024065
13 *599:A *304:18 0
14 *599:C *304:18 6.19695e-05
15 *603:A2 *304:18 0.000153729
16 *606:B *304:18 0.000301361
17 *1014:A *304:18 2.41274e-06
18 *191:6 *1029:A 3.74146e-05
19 *209:23 *1029:A 1.41976e-05
20 *219:14 *304:18 4.95985e-05
21 *228:14 *304:18 0.00012796
22 *229:10 *304:18 0
*RES
1 *530:X *304:18 47.6148 
2 *304:18 *519:C 9.24915 
3 *530:X *1029:A 20.355 
*END

*D_NET *305 0.00838808
*CONN
*I *516:A1 I *D sky130_fd_sc_hd__a221oi_4
*I *745:A1 I *D sky130_fd_sc_hd__o31ai_2
*I *526:A I *D sky130_fd_sc_hd__nor3_4
*I *529:Y O *D sky130_fd_sc_hd__o21ai_2
*CAP
1 *516:A1 0.000759813
2 *745:A1 2.52482e-05
3 *526:A 0.000329819
4 *529:Y 0.000467297
5 *305:18 0.000920584
6 *305:10 0.00179263
7 *516:A1 *516:B2 7.68538e-06
8 *516:A1 *516:C1 0.000227832
9 *516:A1 *525:A 0.000244785
10 *516:A1 *316:18 0.000146794
11 *516:A1 *320:22 6.08467e-05
12 *516:A1 *376:12 0.000107496
13 *516:A1 *391:34 0.00041957
14 *526:A *525:B 5.04734e-05
15 *526:A *526:B 3.32822e-05
16 *526:A *526:C 6.73186e-05
17 *526:A *432:27 5.33429e-05
18 *745:A1 *483:16 2.65831e-05
19 *305:10 *525:A 0.000356473
20 *305:10 *316:18 0.000253916
21 *305:10 *388:22 0.000133676
22 *305:18 *525:B 9.98457e-05
23 *305:18 *311:20 6.99554e-05
24 *305:18 *432:27 6.9239e-05
25 *305:18 *452:31 3.50289e-05
26 *519:A *305:18 1.91391e-05
27 *691:C *305:10 1.19856e-05
28 *691:D *305:10 9.87052e-06
29 *927:A *516:A1 0
30 *109:16 *305:10 2.26947e-05
31 *120:22 *305:18 1.32315e-05
32 *227:10 *305:18 0.000278412
33 *233:12 *305:18 9.08566e-05
34 *238:24 *516:A1 0.0010082
35 *238:26 *516:A1 2.71504e-05
36 *239:10 *305:18 0.000147013
*RES
1 *529:Y *305:10 21.2575 
2 *305:10 *305:18 21.7696 
3 *305:18 *526:A 20.4814 
4 *305:18 *745:A1 14.4725 
5 *305:10 *516:A1 34.134 
*END

*D_NET *306 0.0038956
*CONN
*I *1011:A I *D sky130_fd_sc_hd__buf_6
*I *745:A2 I *D sky130_fd_sc_hd__o31ai_2
*I *528:Y O *D sky130_fd_sc_hd__nor3_4
*CAP
1 *1011:A 0.000184707
2 *745:A2 0
3 *528:Y 0.000477632
4 *306:10 0.000662338
5 *1011:A *522:B1 7.47544e-05
6 *1011:A *526:C 0.000109421
7 *1011:A *745:A3 1.07248e-05
8 *1011:A *437:18 9.47963e-05
9 *1011:A *452:31 0.000367908
10 *306:10 *522:B1 3.53777e-05
11 *306:10 *528:C 5.62332e-05
12 *306:10 *532:B 0.000124377
13 *306:10 *592:A 6.83508e-05
14 *306:10 *745:A3 0.00017419
15 *306:10 *435:16 1.43698e-05
16 *306:10 *452:14 0.000165481
17 *306:10 *452:31 0.000732393
18 *306:10 *503:18 1.52497e-05
19 *306:10 *510:16 0.000331059
20 *603:B1 *1011:A 0.000111045
21 *1057:A *306:10 8.51933e-05
*RES
1 *528:Y *306:10 34.1604 
2 *306:10 *745:A2 13.7491 
3 *306:10 *1011:A 21.8422 
*END

*D_NET *307 0.00406237
*CONN
*I *745:A3 I *D sky130_fd_sc_hd__o31ai_2
*I *526:B I *D sky130_fd_sc_hd__nor3_4
*I *527:Y O *D sky130_fd_sc_hd__a21oi_4
*CAP
1 *745:A3 0.000174663
2 *526:B 0.00101087
3 *527:Y 0.000836211
4 *526:B *527:B1 7.78924e-05
5 *526:B *579:A1 7.67734e-06
6 *745:A3 *522:B1 0.00017419
7 *526:A *526:B 3.32822e-05
8 *527:A1 *526:B 0.000554496
9 *1011:A *745:A3 1.07248e-05
10 *52:12 *526:B 0.000355341
11 *191:6 *526:B 0.000365716
12 *209:23 *526:B 0.000167609
13 *304:18 *526:B 0.0001195
14 *306:10 *745:A3 0.00017419
*RES
1 *527:Y *526:B 49.1567 
2 *526:B *745:A3 32.9632 
*END

*D_NET *308 0.00286069
*CONN
*I *525:B I *D sky130_fd_sc_hd__xor2_2
*I *526:Y O *D sky130_fd_sc_hd__nor3_4
*CAP
1 *525:B 0.000538559
2 *526:Y 0.000538559
3 *525:B *526:C 0.000561832
4 *525:B *1037:A 1.96353e-05
5 *525:B *311:20 0.000221516
6 *525:B *432:27 2.1295e-05
7 *525:B *460:20 3.30938e-05
8 *526:A *525:B 5.04734e-05
9 *1023:A *525:B 0.000353452
10 *227:10 *525:B 0.000422431
11 *305:18 *525:B 9.98457e-05
*RES
1 *526:Y *525:B 39.9061 
*END

*D_NET *310 0.00714195
*CONN
*I *522:B2 I *D sky130_fd_sc_hd__a221oi_4
*I *524:Y O *D sky130_fd_sc_hd__nor4_4
*CAP
1 *522:B2 0.00242913
2 *524:Y 0.00242913
3 *522:B2 *689:D 0.00157374
4 *522:B2 *943:A 9.30883e-05
5 *522:B2 *324:18 1.91391e-05
6 *522:B2 *341:16 0
7 *522:B2 *432:79 0.0002925
8 *522:B2 *432:117 6.7026e-05
9 *522:B2 *503:18 0.000109235
10 *522:A2 *522:B2 1.72594e-05
11 *578:A2 *522:B2 0
12 *939:A *522:B2 0
13 *120:22 *522:B2 0
14 *169:14 *522:B2 0
15 *239:38 *522:B2 0.000111706
*RES
1 *524:Y *522:B2 44.1825 
*END

*D_NET *197 0.00259449
*CONN
*I *584:B I *D sky130_fd_sc_hd__maj3_2
*I *523:Y O *D sky130_fd_sc_hd__clkinv_1
*CAP
1 *584:B 0.000711172
2 *523:Y 0.000711172
3 *584:B *585:B 0
4 *584:B *624:A1 1.41291e-05
5 *584:B *671:S 0.000785643
6 *584:B *199:12 5.22654e-06
7 *584:B *389:45 0.00031198
8 *919:A *584:B 5.51672e-05
*RES
1 *523:Y *584:B 42.5253 
*END

*D_NET *311 0.00750396
*CONN
*I *1055:A I *D sky130_fd_sc_hd__buf_6
*I *776:A1 I *D sky130_fd_sc_hd__o211ai_1
*I *1020:A I *D sky130_fd_sc_hd__buf_6
*I *522:Y O *D sky130_fd_sc_hd__a221oi_4
*CAP
1 *1055:A 0
2 *776:A1 0.000446146
3 *1020:A 0
4 *522:Y 0.000447237
5 *311:44 0.00147415
6 *311:20 0.00147524
7 *776:A1 *776:A2 6.64671e-06
8 *776:A1 *776:B1 6.01917e-05
9 *776:A1 *780:B1 6.08467e-05
10 *776:A1 *336:16 1.83361e-05
11 *776:A1 *466:30 6.36477e-05
12 *311:20 *516:B1 7.66391e-06
13 *311:20 *522:C1 1.41976e-05
14 *311:20 *1010:A 6.46815e-05
15 *311:20 *314:22 4.66889e-05
16 *311:44 *762:B 0.000190391
17 *311:44 *762:D 0.000184103
18 *311:44 *780:B1 4.47134e-05
19 *311:44 *909:A 0.000156946
20 *311:44 *367:10 7.54301e-05
21 *311:44 *468:22 9.78191e-05
22 *311:44 *501:24 9.09658e-05
23 *525:B *311:20 0.000221516
24 *540:B1 *776:A1 6.91904e-05
25 *542:A2 *776:A1 0.000160774
26 *543:B1 *776:A1 1.41976e-05
27 *570:A *776:A1 1.00971e-05
28 *609:A *311:20 0.000344551
29 *614:B1 *311:44 0.000107496
30 *740:A2 *311:20 3.74593e-05
31 *762:C *776:A1 2.36084e-05
32 *762:C *311:44 0.000625318
33 *780:C1 *311:44 0.000171291
34 *920:A *776:A1 2.91008e-06
35 *1023:A *311:20 5.36397e-05
36 *167:16 *311:20 6.52404e-05
37 *233:12 *311:20 7.98425e-06
38 *237:6 *311:20 0.000283055
39 *237:6 *311:44 5.75337e-05
40 *239:10 *311:20 2.25583e-07
41 *290:8 *776:A1 2.36781e-05
42 *291:14 *776:A1 0.000128202
43 *305:18 *311:20 6.99554e-05
*RES
1 *522:Y *311:20 33.1221 
2 *311:20 *311:44 35.3401 
3 *311:44 *1020:A 9.24915 
4 *311:44 *776:A1 30.7544 
5 *311:20 *1055:A 9.24915 
*END

*D_NET *313 0.00535342
*CONN
*I *516:A2 I *D sky130_fd_sc_hd__a221oi_4
*I *520:Y O *D sky130_fd_sc_hd__nor2_4
*CAP
1 *516:A2 0.00176547
2 *520:Y 0.00176547
3 *516:A2 *711:CLK 8.83417e-06
4 *516:A2 *617:B 0.000712179
5 *516:A2 *739:A 0.000458066
6 *516:A2 *739:B 0.000202947
7 *516:A2 *744:D 0.000141371
8 *516:A2 *749:B 7.09666e-06
9 *516:A2 *779:A 9.37168e-06
10 *516:A2 *319:36 3.99961e-05
11 *516:A2 *478:26 4.57667e-05
12 *520:A *516:A2 1.66454e-06
13 *753:B *516:A2 5.7022e-05
14 *178:70 *516:A2 2.01765e-05
15 *253:25 *516:A2 1.904e-05
16 *284:33 *516:A2 4.01592e-05
17 *289:20 *516:A2 5.87964e-05
*RES
1 *520:Y *516:A2 41.4563 
*END

*D_NET *314 0.00709936
*CONN
*I *516:B1 I *D sky130_fd_sc_hd__a221oi_4
*I *519:Y O *D sky130_fd_sc_hd__nor3_4
*CAP
1 *516:B1 0.000503133
2 *519:Y 0.000751981
3 *314:22 0.00125511
4 *516:B1 *600:A2 2.16355e-05
5 *516:B1 *386:14 0.000160617
6 *516:B1 *440:25 6.07091e-05
7 *516:B1 *476:22 0.000769407
8 *516:B1 *476:28 0.000504861
9 *314:22 *519:B 7.09666e-06
10 *314:22 *598:A 4.84017e-05
11 *314:22 *690:A 0
12 *314:22 *937:A 0.00028483
13 *314:22 *1013:A 0.000591158
14 *314:22 *386:14 0.000581559
15 *314:22 *459:8 1.03403e-05
16 *314:22 *459:65 1.85244e-05
17 *600:A1 *516:B1 0.000107496
18 *600:B1 *516:B1 4.53159e-05
19 *601:A *516:B1 6.31659e-05
20 *601:B *516:B1 4.24629e-05
21 *605:B *314:22 3.27606e-06
22 *609:A *314:22 1.4106e-05
23 *903:A *314:22 0
24 *1012:A *314:22 6.27718e-05
25 *55:12 *314:22 5.78745e-05
26 *237:6 *516:B1 0.00107917
27 *311:20 *516:B1 7.66391e-06
28 *311:20 *314:22 4.66889e-05
*RES
1 *519:Y *314:22 42.5625 
2 *314:22 *516:B1 39.7976 
*END

*D_NET *315 0.00632769
*CONN
*I *740:A1 I *D sky130_fd_sc_hd__a211oi_1
*I *517:B I *D sky130_fd_sc_hd__nand2_1
*I *518:Y O *D sky130_fd_sc_hd__o211ai_1
*CAP
1 *740:A1 0.000598843
2 *517:B 0.000375134
3 *518:Y 0.000720455
4 *315:10 0.00169443
5 *517:B *985:A 0.000362774
6 *517:B *316:18 4.01696e-05
7 *740:A1 *522:B1 0.000120605
8 *740:A1 *943:A 2.09353e-05
9 *740:A1 *320:22 0.000100884
10 *315:10 *518:C1 0.000113968
11 *315:10 *642:S 5.56878e-05
12 *315:10 *645:A0 0.000162583
13 *315:10 *943:A 0
14 *315:10 *358:82 2.82885e-05
15 *315:10 *418:33 0.000563643
16 *315:10 *476:16 2.41274e-06
17 *517:A *517:B 4.31603e-06
18 *518:A2 *315:10 0.000127819
19 *647:A2 *315:10 5.03285e-05
20 *740:A2 *740:A1 0
21 *740:A2 *315:10 4.20184e-06
22 *741:B1 *315:10 0.000871001
23 *770:A *315:10 5.97576e-05
24 *938:A *740:A1 3.21593e-05
25 *28:10 *517:B 4.25398e-05
26 *233:12 *740:A1 2.073e-05
27 *238:10 *315:10 6.08467e-05
28 *239:8 *740:A1 9.31754e-05
*RES
1 *518:Y *315:10 38.0052 
2 *315:10 *517:B 23.321 
3 *315:10 *740:A1 28.9791 
*END

*D_NET *316 0.00562577
*CONN
*I *516:C1 I *D sky130_fd_sc_hd__a221oi_4
*I *517:Y O *D sky130_fd_sc_hd__nand2_1
*CAP
1 *516:C1 0.000363865
2 *517:Y 0.00103073
3 *316:18 0.00139459
4 *516:C1 *516:B2 5.04829e-06
5 *516:C1 *515:A 0.000158451
6 *516:C1 *739:A 0.000469042
7 *516:C1 *740:B1 0.000107496
8 *516:C1 *376:12 1.88014e-05
9 *516:C1 *391:34 6.36477e-05
10 *316:18 *607:B 8.09314e-05
11 *316:18 *611:A 3.48647e-05
12 *316:18 *419:10 6.65984e-05
13 *316:18 *419:31 8.94812e-05
14 *516:A1 *516:C1 0.000227832
15 *516:A1 *316:18 0.000146794
16 *517:A *316:18 2.51527e-05
17 *517:B *316:18 4.01696e-05
18 *740:A2 *316:18 0
19 *1023:A *316:18 0.000231133
20 *28:10 *316:18 5.12265e-05
21 *28:16 *316:18 0.000104194
22 *168:16 *316:18 0.000227773
23 *228:10 *316:18 8.61738e-05
24 *238:24 *516:C1 0.000193713
25 *238:26 *516:C1 0.000154145
26 *305:10 *316:18 0.000253916
*RES
1 *517:Y *316:18 44.2869 
2 *316:18 *516:C1 22.5596 
*END

*D_NET *251 0.00870701
*CONN
*I *614:A3 I *D sky130_fd_sc_hd__o311ai_2
*I *760:A2 I *D sky130_fd_sc_hd__o21ai_2
*I *1051:A I *D sky130_fd_sc_hd__buf_4
*I *516:Y O *D sky130_fd_sc_hd__a221oi_4
*CAP
1 *614:A3 0.000445432
2 *760:A2 0
3 *1051:A 0.000570028
4 *516:Y 0.000318542
5 *251:31 0.00129511
6 *251:8 0.00173824
7 *614:A3 *542:A2 6.14756e-06
8 *614:A3 *758:A 2.58616e-05
9 *614:A3 *758:B 2.08274e-05
10 *1051:A *539:A2 1.51325e-05
11 *1051:A *515:B 6.27782e-05
12 *1051:A *341:16 0
13 *1051:A *367:10 5.37199e-06
14 *1051:A *367:14 7.20028e-05
15 *1051:A *483:16 1.90191e-05
16 *1051:A *505:18 7.92757e-06
17 *251:8 *516:B2 0.000438858
18 *251:8 *909:A 1.44751e-05
19 *251:31 *763:A1 1.73063e-05
20 *251:31 *780:A1 0.000985576
21 *251:31 *909:A 0
22 *543:A2 *614:A3 0.000253345
23 *543:B1 *614:A3 0.000351001
24 *543:B1 *251:31 3.38973e-05
25 *570:A *614:A3 3.44695e-05
26 *577:A1 *1051:A 0.000212745
27 *597:A *1051:A 0.000313822
28 *597:A *251:8 0.000213657
29 *614:A2 *614:A3 5.58216e-05
30 *913:A *1051:A 0.000121807
31 *913:A *251:8 0.000196031
32 *926:A *251:8 0.000131716
33 *1005:A *614:A3 0
34 *1032:A *1051:A 1.9101e-05
35 *1032:A *251:31 0.000151623
36 *184:44 *614:A3 0.000143595
37 *184:44 *251:31 3.73224e-05
38 *190:14 *1051:A 2.69902e-05
39 *237:10 *251:8 0.000351429
*RES
1 *516:Y *251:8 27.0006 
2 *251:8 *1051:A 31.2557 
3 *251:8 *251:31 9.64656 
4 *251:31 *760:A2 13.7491 
5 *251:31 *614:A3 26.0247 
*END

*D_NET *319 0.00673901
*CONN
*I *759:A I *D sky130_fd_sc_hd__nand2_1
*I *739:Y O *D sky130_fd_sc_hd__nor2_1
*CAP
1 *759:A 0.000403383
2 *739:Y 0.00130541
3 *319:36 0.0017088
4 *759:A *779:A 0.000334
5 *759:A *343:40 0.000170684
6 *759:A *462:33 8.45896e-06
7 *759:A *476:22 9.60366e-05
8 *319:36 *621:A0 0
9 *319:36 *654:A1 0
10 *319:36 *687:A 2.58361e-05
11 *319:36 *711:CLK 3.38783e-05
12 *319:36 *739:A 0.000230615
13 *319:36 *739:B 5.04829e-06
14 *319:36 *749:B 0.000145402
15 *319:36 *752:B1 0.000316884
16 *319:36 *753:A 2.68904e-06
17 *319:36 *350:26 0.000251592
18 *319:36 *384:18 6.00511e-05
19 *319:36 *391:34 1.41976e-05
20 *516:A2 *319:36 3.99961e-05
21 *520:A *319:36 0.00030449
22 *541:C1 *319:36 6.3623e-05
23 *774:C1 *319:36 4.28128e-05
24 *931:A *319:36 0.00020502
25 *157:20 *319:36 0.000139435
26 *178:70 *319:36 1.49216e-05
27 *284:18 *759:A 7.09666e-06
28 *284:20 *759:A 0.000427081
29 *284:33 *759:A 0.000177428
30 *284:33 *319:36 0.000143299
31 *285:6 *759:A 6.08467e-05
*RES
1 *739:Y *319:36 46.2118 
2 *319:36 *759:A 31.6011 
*END

*D_NET *320 0.00184966
*CONN
*I *918:A I *D sky130_fd_sc_hd__buf_4
*I *740:Y O *D sky130_fd_sc_hd__a211oi_1
*CAP
1 *918:A 0
2 *740:Y 0.00053193
3 *320:22 0.00053193
4 *320:22 *522:B1 0
5 *320:22 *602:B1 2.16355e-05
6 *320:22 *943:A 0.000389122
7 *516:A1 *320:22 6.08467e-05
8 *518:A2 *320:22 6.08467e-05
9 *740:A1 *320:22 0.000100884
10 *169:14 *320:22 0.000114659
11 *228:10 *320:22 1.61667e-05
12 *238:26 *320:22 2.16355e-05
*RES
1 *740:Y *320:22 41.1153 
2 *320:22 *918:A 9.24915 
*END

*D_NET *321 0.00193777
*CONN
*I *756:A2 I *D sky130_fd_sc_hd__a211oi_1
*I *742:B I *D sky130_fd_sc_hd__nand2_1
*I *741:Y O *D sky130_fd_sc_hd__o211ai_1
*CAP
1 *756:A2 0
2 *742:B 0.000123948
3 *741:Y 0.00041764
4 *321:16 0.000541588
5 *742:B *751:A 3.50187e-05
6 *742:B *349:24 0.000109427
7 *742:B *375:20 0.000111802
8 *321:16 *741:A1 0
9 *321:16 *756:C1 7.75133e-06
10 *321:16 *349:24 3.81849e-05
11 *321:16 *476:16 7.98425e-06
12 *741:A2 *321:16 2.64517e-05
13 *741:B1 *321:16 1.41976e-05
14 *742:A *742:B 8.63306e-05
15 *1:10 *321:16 5.61673e-05
16 *1:14 *321:16 0.000210809
17 *178:70 *321:16 0.000105398
18 *264:16 *321:16 4.50722e-05
*RES
1 *741:Y *321:16 28.7676 
2 *321:16 *742:B 13.903 
3 *321:16 *756:A2 9.24915 
*END

*D_NET *322 0.0053166
*CONN
*I *989:A I *D sky130_fd_sc_hd__buf_4
*I *768:A2 I *D sky130_fd_sc_hd__o211ai_1
*I *742:Y O *D sky130_fd_sc_hd__nand2_1
*CAP
1 *989:A 0.000191173
2 *768:A2 0
3 *742:Y 0.000869973
4 *322:12 0.00106115
5 *989:A *616:A1 5.04829e-06
6 *989:A *743:A 9.47325e-05
7 *989:A *743:B 0.000167576
8 *989:A *768:A1 0
9 *989:A *768:B1 0.000107496
10 *989:A *771:B1 2.58757e-05
11 *989:A *361:24 4.07172e-05
12 *322:12 *746:A 0.000349728
13 *322:12 *747:A 1.91246e-05
14 *322:12 *771:A2 0.000125936
15 *322:12 *779:A 4.5435e-07
16 *322:12 *343:40 3.42854e-05
17 *322:12 *375:20 0.000253773
18 *322:12 *462:33 0.000783867
19 *614:B1 *322:12 3.76286e-05
20 *991:A *322:12 0.0010324
21 *266:10 *322:12 0.000115668
*RES
1 *742:Y *322:12 46.6923 
2 *322:12 *768:A2 9.24915 
3 *322:12 *989:A 16.2902 
*END

*D_NET *323 0.00154276
*CONN
*I *746:A I *D sky130_fd_sc_hd__nand2_1
*I *743:Y O *D sky130_fd_sc_hd__nor2_1
*CAP
1 *746:A 0.000365562
2 *743:Y 0.000365562
3 *746:A *743:A 7.12632e-06
4 *746:A *768:B1 5.13902e-05
5 *746:A *771:A2 1.84813e-05
6 *746:A *343:27 3.58315e-06
7 *746:A *343:40 0.000300955
8 *746:A *478:26 3.89593e-05
9 *1032:A *746:A 2.22933e-05
10 *284:18 *746:A 1.91246e-05
11 *322:12 *746:A 0.000349728
*RES
1 *743:Y *746:A 42.4082 
*END

*D_NET *324 0.00519998
*CONN
*I *745:B1 I *D sky130_fd_sc_hd__o31ai_2
*I *744:Y O *D sky130_fd_sc_hd__nor4_4
*CAP
1 *745:B1 1.19282e-05
2 *744:Y 0.00162081
3 *324:18 0.00163274
4 *745:B1 *437:18 2.65667e-05
5 *745:B1 *483:16 3.07133e-05
6 *324:18 *515:A 1.80303e-05
7 *324:18 *515:B 0.000222408
8 *324:18 *755:A 3.14978e-05
9 *324:18 *943:A 1.23455e-05
10 *324:18 *325:14 6.87503e-05
11 *324:18 *375:20 1.19856e-05
12 *324:18 *461:44 5.2474e-05
13 *324:18 *503:18 0.00035686
14 *522:B2 *324:18 1.91391e-05
15 *522:A2 *324:18 0.000426405
16 *601:A *324:18 0.000152878
17 *924:A *324:18 0.000230501
18 *926:A *324:18 7.13972e-05
19 *223:10 *324:18 0.000202546
*RES
1 *744:Y *324:18 49.4178 
2 *324:18 *745:B1 14.4725 
*END

*D_NET *325 0.00597254
*CONN
*I *746:B I *D sky130_fd_sc_hd__nand2_1
*I *771:A2 I *D sky130_fd_sc_hd__o211ai_1
*I *745:Y O *D sky130_fd_sc_hd__o31ai_2
*CAP
1 *746:B 6.63458e-05
2 *771:A2 0.000742741
3 *745:Y 0.00115971
4 *325:14 0.0019688
5 *746:B *759:B 6.08467e-05
6 *771:A2 *767:A 0.000656951
7 *771:A2 *771:B1 9.29919e-05
8 *771:A2 *341:16 0
9 *771:A2 *361:24 5.05252e-05
10 *325:14 *547:A 1.41853e-05
11 *325:14 *515:B 7.21753e-05
12 *325:14 *759:B 7.90842e-05
13 *325:14 *334:14 0.000211478
14 *325:14 *462:33 2.6064e-05
15 *539:A2 *325:14 0.000111802
16 *578:A2 *771:A2 9.29777e-05
17 *746:A *771:A2 1.84813e-05
18 *916:A *746:B 7.09666e-06
19 *991:A *746:B 6.62968e-05
20 *991:A *771:A2 0.000136823
21 *221:14 *746:B 9.79248e-06
22 *221:14 *771:A2 2.32176e-05
23 *250:24 *771:A2 4.86165e-05
24 *285:6 *746:B 6.08467e-05
25 *322:12 *771:A2 0.000125936
26 *324:18 *325:14 6.87503e-05
*RES
1 *745:Y *325:14 40.4182 
2 *325:14 *771:A2 30.0923 
3 *325:14 *746:B 15.8893 
*END

*D_NET *326 0.00553936
*CONN
*I *747:A I *D sky130_fd_sc_hd__xnor2_2
*I *746:Y O *D sky130_fd_sc_hd__nand2_1
*CAP
1 *747:A 0.00217247
2 *746:Y 0.00217247
3 *747:A *763:A1 0.000394314
4 *747:A *780:A1 0.000170471
5 *747:A *343:40 1.91246e-05
6 *747:A *358:22 0.000369946
7 *747:A *432:95 3.89726e-05
8 *677:A1 *747:A 1.91391e-05
9 *762:C *747:A 0.000163327
10 *322:12 *747:A 1.91246e-05
*RES
1 *746:Y *747:A 40.9268 
*END

*D_NET *328 0.00305103
*CONN
*I *774:A2 I *D sky130_fd_sc_hd__o211ai_1
*I *749:B I *D sky130_fd_sc_hd__nor2_1
*I *748:Y O *D sky130_fd_sc_hd__a21boi_0
*CAP
1 *774:A2 0.000155549
2 *749:B 0.000119225
3 *748:Y 0.000194657
4 *328:6 0.000469432
5 *749:B *744:D 0.000142067
6 *774:A2 *739:B 1.15478e-05
7 *774:A2 *744:D 2.57986e-05
8 *774:A2 *751:B 0.000307698
9 *774:A2 *752:A2 0.000158357
10 *774:A2 *753:A 6.24083e-05
11 *328:6 *739:B 7.98171e-06
12 *328:6 *744:C 0.000111802
13 *328:6 *751:B 0.000695287
14 *516:A2 *749:B 7.09666e-06
15 *748:B1_N *328:6 0.00040678
16 *178:70 *749:B 8.54149e-06
17 *284:33 *749:B 1.70899e-05
18 *289:20 *749:B 4.31485e-06
19 *319:36 *749:B 0.000145402
*RES
1 *748:Y *328:6 17.737 
2 *328:6 *749:B 22.1574 
3 *328:6 *774:A2 14.964 
*END

*D_NET *329 0.00223601
*CONN
*I *752:B1 I *D sky130_fd_sc_hd__o21ai_2
*I *749:Y O *D sky130_fd_sc_hd__nor2_1
*CAP
1 *752:B1 0.000873955
2 *749:Y 0.000873955
3 *752:B1 *621:A0 4.61705e-05
4 *752:B1 *739:A 2.7518e-05
5 *752:B1 *739:B 3.78939e-05
6 *752:B1 *753:A 4.25193e-05
7 *752:B1 *492:74 0
8 *931:A *752:B1 1.71154e-05
9 *319:36 *752:B1 0.000316884
*RES
1 *749:Y *752:B1 41.1458 
*END

*D_NET *225 0.00478281
*CONN
*I *741:B1 I *D sky130_fd_sc_hd__o211ai_1
*I *770:B I *D sky130_fd_sc_hd__xnor2_2
*I *755:B I *D sky130_fd_sc_hd__nand2_1
*I *602:A2 I *D sky130_fd_sc_hd__o211ai_1
*I *750:X O *D sky130_fd_sc_hd__xor2_2
*CAP
1 *741:B1 0.000604302
2 *770:B 0.000690856
3 *755:B 0.0003342
4 *602:A2 0
5 *750:X 4.98145e-05
6 *225:14 0.000385571
7 *225:10 0.00018774
8 *741:B1 *518:A2 0.000143875
9 *741:B1 *563:A 3.91685e-05
10 *741:B1 *262:12 4.42033e-05
11 *741:B1 *265:10 1.5714e-05
12 *741:B1 *315:10 0.000871001
13 *741:B1 *321:16 1.41976e-05
14 *741:B1 *476:16 3.85534e-05
15 *755:B *518:A2 6.27718e-05
16 *755:B *602:B1 8.23171e-06
17 *755:B *602:C1 0.000170849
18 *755:B *755:A 0.000270856
19 *755:B *926:A 2.1203e-06
20 *755:B *340:16 1.04031e-05
21 *755:B *367:10 0
22 *755:B *375:20 0.000122518
23 *770:B *518:A2 0.00020993
24 *225:10 *420:64 5.25754e-05
25 *225:14 *518:A2 0.000114659
26 *602:A1 *770:B 0.000206332
27 *602:A1 *225:14 0.000118002
28 *224:10 *755:B 1.43698e-05
*RES
1 *750:X *225:10 15.0513 
2 *225:10 *225:14 6.74725 
3 *225:14 *602:A2 9.24915 
4 *225:14 *755:B 28.8365 
5 *225:10 *770:B 17.6574 
6 *770:B *741:B1 41.8103 
*END

*D_NET *331 0.0011427
*CONN
*I *752:A2 I *D sky130_fd_sc_hd__o21ai_2
*I *751:Y O *D sky130_fd_sc_hd__nand2_1
*CAP
1 *752:A2 0.000422905
2 *751:Y 0.000422905
3 *752:A2 *753:A 5.27924e-05
4 *752:A2 *466:30 6.50586e-05
5 *774:A2 *752:A2 0.000158357
6 *774:B1 *752:A2 1.03403e-05
7 *774:C1 *752:A2 1.03403e-05
8 *893:A *752:A2 0
*RES
1 *751:Y *752:A2 26.5039 
*END

*D_NET *332 0.00200476
*CONN
*I *753:A I *D sky130_fd_sc_hd__xnor2_1
*I *752:Y O *D sky130_fd_sc_hd__o21ai_2
*CAP
1 *753:A 0.00050528
2 *752:Y 0.00050528
3 *753:A *739:A 2.46285e-06
4 *753:A *739:B 0.000110208
5 *753:A *744:D 5.38909e-06
6 *753:A *336:16 0.000200794
7 *753:A *349:24 0.000121953
8 *753:A *466:30 6.50586e-05
9 *542:A2 *753:A 9.89388e-06
10 *752:A2 *753:A 5.27924e-05
11 *752:B1 *753:A 4.25193e-05
12 *753:B *753:A 2.2279e-05
13 *774:A2 *753:A 6.24083e-05
14 *774:B1 *753:A 6.08467e-05
15 *774:C1 *753:A 6.50727e-05
16 *157:20 *753:A 0.000111722
17 *178:70 *753:A 3.63738e-05
18 *289:20 *753:A 2.17372e-05
19 *319:36 *753:A 2.68904e-06
*RES
1 *752:Y *753:A 41.5663 
*END

*D_NET *334 0.0068626
*CONN
*I *759:B I *D sky130_fd_sc_hd__nand2_1
*I *768:B1 I *D sky130_fd_sc_hd__o211ai_1
*I *917:A I *D sky130_fd_sc_hd__buf_4
*I *754:Y O *D sky130_fd_sc_hd__nor2_1
*CAP
1 *759:B 0.000189944
2 *768:B1 0.000149345
3 *917:A 1.00495e-05
4 *754:Y 0.000722147
5 *334:20 0.000377717
6 *334:14 0.00113041
7 *768:B1 *743:A 3.99086e-06
8 *768:B1 *343:27 9.12416e-06
9 *768:B1 *343:40 4.2266e-05
10 *768:B1 *361:24 0.00039473
11 *768:B1 *367:14 3.99086e-06
12 *917:A *361:24 6.46815e-05
13 *334:14 *547:A 0.000158371
14 *334:14 *755:A 0.000120121
15 *334:14 *341:16 0.00103395
16 *334:14 *440:25 8.56999e-05
17 *334:20 *341:16 0
18 *334:20 *440:12 5.11824e-05
19 *539:B1 *334:14 0.00032313
20 *577:A1 *334:20 0.000124916
21 *601:B *334:14 0.000344195
22 *746:A *768:B1 5.13902e-05
23 *746:B *759:B 6.08467e-05
24 *916:A *759:B 0.000165455
25 *916:A *334:14 1.41689e-05
26 *989:A *768:B1 0.000107496
27 *221:14 *334:20 0.000163738
28 *224:10 *334:14 0.000420352
29 *250:24 *768:B1 0.000127108
30 *250:24 *917:A 2.15184e-05
31 *250:24 *334:20 3.64929e-05
32 *285:6 *759:B 6.35148e-05
33 *325:14 *759:B 7.90842e-05
34 *325:14 *334:14 0.000211478
*RES
1 *754:Y *334:14 44.9242 
2 *334:14 *334:20 14.9845 
3 *334:20 *917:A 9.97254 
4 *334:20 *768:B1 24.435 
5 *334:14 *759:B 15.0122 
*END

*D_NET *223 0.00209906
*CONN
*I *601:A I *D sky130_fd_sc_hd__nand2_1
*I *748:A1 I *D sky130_fd_sc_hd__a21boi_0
*I *755:Y O *D sky130_fd_sc_hd__nand2_1
*CAP
1 *601:A 0.000316339
2 *748:A1 0
3 *755:Y 0.000208865
4 *223:10 0.000525204
5 *601:A *516:B1 6.31659e-05
6 *601:A *748:A2 6.50727e-05
7 *601:A *748:B1_N 4.33655e-05
8 *601:A *775:A2 0
9 *601:A *916:A 0.000332761
10 *601:A *238:10 1.05272e-06
11 *601:A *238:24 2.03531e-05
12 *601:A *324:18 0.000152878
13 *601:A *440:25 0
14 *601:A *476:22 2.65667e-05
15 *223:10 *748:A2 0.000107496
16 *223:10 *748:B1_N 1.65872e-05
17 *223:10 *755:A 1.43983e-05
18 *223:10 *324:18 0.000202546
19 *221:14 *601:A 2.41274e-06
*RES
1 *755:Y *223:10 14.7228 
2 *223:10 *748:A1 9.24915 
3 *223:10 *601:A 28.3623 
*END

*D_NET *335 0.0060284
*CONN
*I *758:A I *D sky130_fd_sc_hd__nor2_1
*I *780:A1 I *D sky130_fd_sc_hd__o211ai_1
*I *756:Y O *D sky130_fd_sc_hd__a211oi_1
*CAP
1 *758:A 7.83874e-05
2 *780:A1 0.000728458
3 *756:Y 0.000582243
4 *335:10 0.00138909
5 *780:A1 *760:B1 5.94319e-06
6 *780:A1 *769:A1 3.26428e-05
7 *780:A1 *909:A 0
8 *780:A1 *440:12 3.88655e-06
9 *780:A1 *466:30 0.00016273
10 *335:10 *711:DE 3.77568e-05
11 *335:10 *711:CLK 2.02035e-05
12 *335:10 *739:B 1.66771e-05
13 *335:10 *336:16 0.000101649
14 *335:10 *350:26 1.66626e-05
15 *335:10 *466:30 6.49043e-06
16 *540:A1 *780:A1 0.000135352
17 *543:A2 *335:10 4.34747e-06
18 *546:B *335:10 0
19 *570:A *335:10 0.000116444
20 *614:A2 *758:A 6.27718e-05
21 *614:A2 *780:A1 6.85778e-05
22 *614:A3 *758:A 2.58616e-05
23 *614:B1 *780:A1 1.00952e-05
24 *747:A *780:A1 0.000170471
25 *756:B1 *335:10 1.03403e-05
26 *762:C *780:A1 0.000110189
27 *774:B1 *335:10 5.30622e-05
28 *920:A *335:10 8.6297e-06
29 *1032:A *780:A1 1.87309e-05
30 *157:20 *335:10 6.22259e-05
31 *178:8 *335:10 1.91246e-05
32 *178:20 *780:A1 4.15661e-05
33 *178:20 *335:10 0.000230194
34 *178:58 *335:10 0.000349153
35 *221:14 *780:A1 0.000141373
36 *251:31 *780:A1 0.000985576
37 *289:10 *335:10 0.000126868
38 *289:20 *335:10 9.46283e-05
*RES
1 *756:Y *335:10 30.4231 
2 *335:10 *780:A1 27.9596 
3 *335:10 *758:A 15.7672 
*END

*D_NET *336 0.00901166
*CONN
*I *780:A2 I *D sky130_fd_sc_hd__o211ai_1
*I *758:B I *D sky130_fd_sc_hd__nor2_1
*I *769:A1 I *D sky130_fd_sc_hd__a21oi_1
*I *757:Y O *D sky130_fd_sc_hd__o21ai_0
*CAP
1 *780:A2 0.000686841
2 *758:B 4.38781e-05
3 *769:A1 0.000657355
4 *757:Y 0.00071783
5 *336:18 0.000728223
6 *336:16 0.00143166
7 *769:A1 *761:A 0.000826133
8 *769:A1 *343:19 1.49011e-05
9 *780:A2 *776:A2 8.36534e-06
10 *780:A2 *909:A 0.000108812
11 *780:A2 *462:33 0.000188011
12 *336:16 *711:DE 4.49257e-05
13 *336:16 *711:CLK 2.26985e-05
14 *336:16 *739:B 2.02035e-05
15 *336:16 *776:A2 1.5714e-05
16 *336:16 *776:C1 2.57465e-06
17 *336:16 *779:A 5.38612e-06
18 *336:16 *349:24 8.95194e-06
19 *336:16 *350:26 0.000244811
20 *540:B1 *336:16 1.66626e-05
21 *542:A2 *780:A2 6.13864e-06
22 *543:A2 *336:16 0.000170869
23 *543:B1 *758:B 0.000107496
24 *546:B *769:A1 0
25 *570:A *769:A1 9.12416e-06
26 *570:A *780:A2 8.60425e-05
27 *570:A *336:16 3.92776e-05
28 *570:A *336:18 2.72352e-05
29 *614:A1 *780:A2 9.39162e-06
30 *614:A1 *336:16 7.57672e-05
31 *614:A2 *758:B 1.50924e-05
32 *614:A3 *758:B 2.08274e-05
33 *614:B1 *780:A2 0.000636655
34 *615:A1 *769:A1 7.21868e-05
35 *753:A *336:16 0.000200794
36 *762:C *780:A2 1.11073e-05
37 *774:B1 *336:16 4.79289e-05
38 *776:A1 *336:16 1.83361e-05
39 *779:B *336:16 7.86825e-06
40 *780:A1 *769:A1 3.26428e-05
41 *780:C1 *780:A2 2.59156e-05
42 *916:A *780:A2 1.5714e-05
43 *157:20 *336:16 6.56365e-05
44 *178:20 *769:A1 4.15661e-05
45 *178:20 *336:16 0.000198908
46 *178:20 *336:18 3.29488e-05
47 *184:44 *769:A1 0.000681247
48 *221:14 *780:A2 1.85244e-05
49 *280:16 *769:A1 0.000283152
50 *289:20 *336:16 5.01835e-05
51 *290:8 *758:B 0.000107496
52 *335:10 *336:16 0.000101649
*RES
1 *757:Y *336:16 40.635 
2 *336:16 *336:18 0.793864 
3 *336:18 *769:A1 36.8323 
4 *336:18 *758:B 15.5817 
5 *336:16 *780:A2 23.2283 
*END

*D_NET *337 0.000421372
*CONN
*I *760:B1 I *D sky130_fd_sc_hd__o21ai_2
*I *758:Y O *D sky130_fd_sc_hd__nor2_1
*CAP
1 *760:B1 8.84612e-05
2 *758:Y 8.84612e-05
3 *760:B1 *548:A 5.56461e-05
4 *760:B1 *466:30 1.91391e-05
5 *546:B *760:B1 3.00711e-05
6 *614:A2 *760:B1 0.00013365
7 *780:A1 *760:B1 5.94319e-06
*RES
1 *758:Y *760:B1 30.6083 
*END

*D_NET *250 0.00414841
*CONN
*I *614:A2 I *D sky130_fd_sc_hd__o311ai_2
*I *912:A I *D sky130_fd_sc_hd__buf_4
*I *759:Y O *D sky130_fd_sc_hd__nand2_1
*CAP
1 *614:A2 0.000706787
2 *912:A 0
3 *759:Y 0.00126007
4 *250:24 0.000553283
5 *614:A2 *548:A 0.000140218
6 *614:A2 *614:A3 5.58216e-05
7 *614:A2 *758:A 6.27718e-05
8 *614:A2 *758:B 1.50924e-05
9 *614:A2 *760:B1 0.00013365
10 *614:A2 *780:A1 6.85778e-05
11 *614:A2 *285:6 0.000114594
12 *250:24 *768:B1 0.000127108
13 *250:24 *771:A2 4.86165e-05
14 *250:24 *917:A 2.15184e-05
15 *250:24 *284:18 9.34404e-05
16 *250:24 *334:20 3.64929e-05
17 *250:24 *343:40 9.34404e-05
18 *250:24 *361:24 9.18011e-05
19 *578:A2 *250:24 5.62568e-05
20 *1021:A *250:24 7.07553e-05
21 *1056:A *250:24 0.000296893
22 *221:14 *250:24 0.000101223
*RES
1 *759:Y *250:24 42.5276 
2 *250:24 *912:A 9.24915 
3 *759:Y *614:A2 40.9475 
*END

*D_NET *338 0.0022681
*CONN
*I *761:A I *D sky130_fd_sc_hd__xnor2_2
*I *760:Y O *D sky130_fd_sc_hd__o21ai_2
*CAP
1 *761:A 0.000526223
2 *760:Y 0.000526223
3 *761:A *767:B 1.10793e-05
4 *761:A *771:C1 6.14756e-06
5 *761:A *343:19 0.000331887
6 *520:A *761:A 2.02035e-05
7 *546:B *761:A 0
8 *769:A1 *761:A 0.000826133
9 *1032:A *761:A 2.02035e-05
*RES
1 *760:Y *761:A 44.3526 
*END

*D_NET *340 0.00347102
*CONN
*I *763:B2 I *D sky130_fd_sc_hd__o221ai_4
*I *762:Y O *D sky130_fd_sc_hd__nand4_1
*CAP
1 *763:B2 0
2 *762:Y 0.000674266
3 *340:16 0.000674266
4 *340:16 *755:A 0.000112367
5 *340:16 *763:B1 3.15947e-05
6 *340:16 *341:8 0.000110458
7 *340:16 *367:10 0.000884101
8 *340:16 *375:20 0.000238403
9 *340:16 *468:22 1.50924e-05
10 *597:A *340:16 7.26606e-05
11 *755:B *340:16 1.04031e-05
12 *926:A *340:16 0.000307693
13 *237:10 *340:16 0.000339719
*RES
1 *762:Y *340:16 42.3177 
2 *340:16 *763:B2 9.24915 
*END

*D_NET *341 0.00569667
*CONN
*I *764:B I *D sky130_fd_sc_hd__xnor2_2
*I *763:Y O *D sky130_fd_sc_hd__o221ai_4
*CAP
1 *764:B 0
2 *763:Y 2.10786e-05
3 *341:16 0.001385
4 *341:8 0.00140608
5 *341:8 *375:20 0.000110458
6 *341:16 *516:B2 3.04911e-05
7 *341:16 *600:A2 0.000200635
8 *341:16 *688:B 0
9 *341:16 *755:A 6.43294e-05
10 *341:16 *762:B 7.28994e-06
11 *341:16 *767:A 0
12 *341:16 *909:A 0.000126788
13 *341:16 *378:12 6.92705e-05
14 *341:16 *391:34 1.32841e-05
15 *341:16 *432:117 5.25732e-05
16 *341:16 *436:8 6.25268e-05
17 *341:16 *440:12 1.51468e-05
18 *341:16 *499:14 8.01687e-05
19 *522:B2 *341:16 0
20 *539:A2 *341:16 5.74772e-05
21 *539:B1 *341:16 3.03351e-05
22 *577:A1 *341:16 4.80844e-05
23 *578:A2 *341:16 0
24 *771:A2 *341:16 0
25 *913:A *341:16 4.73106e-05
26 *926:A *341:16 0
27 *939:A *341:16 1.97947e-05
28 *1032:A *341:16 1.97943e-05
29 *1051:A *341:16 0
30 *159:12 *341:16 6.92705e-05
31 *190:14 *341:16 0.000615078
32 *334:14 *341:16 0.00103395
33 *334:20 *341:16 0
34 *340:16 *341:8 0.000110458
*RES
1 *763:Y *341:8 15.0271 
2 *341:8 *341:16 45.5761 
3 *341:16 *764:B 9.24915 
*END

*D_NET *254 0.0030426
*CONN
*I *615:A1 I *D sky130_fd_sc_hd__a21oi_1
*I *769:B1 I *D sky130_fd_sc_hd__a21oi_1
*I *765:Y O *D sky130_fd_sc_hd__o21ai_0
*CAP
1 *615:A1 0.00049684
2 *769:B1 2.06838e-05
3 *765:Y 0.000181637
4 *254:10 0.000699161
5 *615:A1 *666:A0 0.000330763
6 *615:A1 *688:B 0.000107114
7 *615:A1 *769:A1 7.21868e-05
8 *615:A1 *772:B 0.000353559
9 *615:A1 *280:16 1.26119e-05
10 *615:A1 *343:19 0.000110844
11 *769:B1 *343:8 0.000111708
12 *254:10 *681:S 0.000100594
13 *254:10 *771:C1 6.84784e-06
14 *254:10 *280:16 0.000224703
15 *254:10 *282:22 1.50924e-05
16 *254:10 *282:37 4.76794e-05
17 *575:B *254:10 3.88655e-05
18 *1003:A *615:A1 0
19 *184:14 *769:B1 9.55447e-05
20 *184:16 *769:B1 1.61631e-05
*RES
1 *765:Y *254:10 19.2113 
2 *254:10 *769:B1 15.0271 
3 *254:10 *615:A1 36.0406 
*END

*D_NET *343 0.00958535
*CONN
*I *767:B I *D sky130_fd_sc_hd__nand2_1
*I *779:A I *D sky130_fd_sc_hd__nand2_1
*I *780:B1 I *D sky130_fd_sc_hd__o211ai_1
*I *768:C1 I *D sky130_fd_sc_hd__o211ai_1
*I *769:A2 I *D sky130_fd_sc_hd__a21oi_1
*I *766:Y O *D sky130_fd_sc_hd__nor2_1
*CAP
1 *767:B 6.65294e-06
2 *779:A 0.000692724
3 *780:B1 9.19596e-05
4 *768:C1 0
5 *769:A2 0
6 *766:Y 8.03328e-05
7 *343:40 0.00117475
8 *343:27 0.000773404
9 *343:19 0.000676907
10 *343:8 0.00036725
11 *767:B *771:C1 1.91391e-05
12 *779:A *739:A 2.95801e-05
13 *779:A *744:D 9.63467e-06
14 *779:A *776:C1 1.21461e-06
15 *779:A *349:24 2.02035e-05
16 *779:A *350:26 6.50727e-05
17 *779:A *462:33 0.00034001
18 *343:8 *414:10 0
19 *343:19 *771:C1 0.000477584
20 *343:27 *666:S 0.000758831
21 *343:27 *771:B1 2.25928e-05
22 *343:27 *478:26 0.00077247
23 *516:A2 *779:A 9.37168e-06
24 *575:B *343:8 0.000258142
25 *575:B *343:19 1.92172e-05
26 *578:A2 *343:27 0
27 *614:B1 *343:40 3.29488e-05
28 *615:A1 *343:19 0.000110844
29 *746:A *343:27 3.58315e-06
30 *746:A *343:40 0.000300955
31 *747:A *343:40 1.91246e-05
32 *753:B *779:A 3.52699e-05
33 *759:A *779:A 0.000334
34 *759:A *343:40 0.000170684
35 *761:A *767:B 1.10793e-05
36 *761:A *343:19 0.000331887
37 *766:A *343:8 0
38 *768:B1 *343:27 9.12416e-06
39 *768:B1 *343:40 4.2266e-05
40 *769:A1 *343:19 1.49011e-05
41 *769:B1 *343:8 0.000111708
42 *776:A1 *780:B1 6.08467e-05
43 *780:C1 *779:A 0.000530476
44 *780:C1 *780:B1 6.06077e-05
45 *932:A *343:8 2.16355e-05
46 *184:14 *343:8 1.41853e-05
47 *184:14 *343:19 6.08467e-05
48 *184:16 *343:8 1.41853e-05
49 *250:24 *343:40 9.34404e-05
50 *253:25 *779:A 3.7214e-05
51 *284:18 *343:27 0.000180236
52 *284:18 *343:40 0.000153526
53 *291:14 *780:B1 7.78924e-05
54 *311:44 *780:B1 4.47134e-05
55 *322:12 *779:A 4.5435e-07
56 *322:12 *343:40 3.42854e-05
57 *336:16 *779:A 5.38612e-06
*RES
1 *766:Y *343:8 12.7697 
2 *343:8 *769:A2 9.24915 
3 *343:8 *343:19 14.7376 
4 *343:19 *343:27 11.5589 
5 *343:27 *768:C1 13.7491 
6 *343:27 *343:40 11.4561 
7 *343:40 *780:B1 16.691 
8 *343:40 *779:A 30.9694 
9 *343:19 *767:B 14.1278 
*END

*D_NET *344 0.000640018
*CONN
*I *771:A1 I *D sky130_fd_sc_hd__o211ai_1
*I *767:Y O *D sky130_fd_sc_hd__nand2_1
*CAP
1 *771:A1 0.000184459
2 *767:Y 0.000184459
3 *771:A1 *767:A 7.66391e-06
4 *771:A1 *771:B1 0.00010113
5 *771:A1 *771:C1 5.481e-05
6 *771:A1 *772:B 0.000107496
*RES
1 *767:Y *771:A1 23.4897 
*END

*D_NET *345 0.00169146
*CONN
*I *771:B1 I *D sky130_fd_sc_hd__o211ai_1
*I *768:Y O *D sky130_fd_sc_hd__o211ai_1
*CAP
1 *771:B1 0.000337343
2 *768:Y 0.000337343
3 *771:B1 *743:A 6.27782e-05
4 *771:B1 *767:A 0.000696575
5 *578:A2 *771:B1 1.48344e-05
6 *771:A1 *771:B1 0.00010113
7 *771:A2 *771:B1 9.29919e-05
8 *989:A *771:B1 2.58757e-05
9 *343:27 *771:B1 2.25928e-05
*RES
1 *768:Y *771:B1 38.8174 
*END

*D_NET *346 0.00244354
*CONN
*I *771:C1 I *D sky130_fd_sc_hd__o211ai_1
*I *769:Y O *D sky130_fd_sc_hd__a21oi_1
*CAP
1 *771:C1 0.000594265
2 *769:Y 0.000594265
3 *771:C1 *767:A 0.000157107
4 *771:C1 *772:B 6.29897e-05
5 *575:B *771:C1 0.000241054
6 *616:B1 *771:C1 0.00019246
7 *761:A *771:C1 6.14756e-06
8 *767:B *771:C1 1.91391e-05
9 *771:A1 *771:C1 5.481e-05
10 *184:14 *771:C1 3.68684e-05
11 *254:10 *771:C1 6.84784e-06
12 *343:19 *771:C1 0.000477584
*RES
1 *769:Y *771:C1 43.6555 
*END

*D_NET *238 0.00716829
*CONN
*I *744:A I *D sky130_fd_sc_hd__nor4_4
*I *927:A I *D sky130_fd_sc_hd__buf_4
*I *740:C1 I *D sky130_fd_sc_hd__a211oi_1
*I *609:A I *D sky130_fd_sc_hd__nor2_2
*I *770:Y O *D sky130_fd_sc_hd__xnor2_2
*CAP
1 *744:A 9.46271e-05
2 *927:A 2.34279e-05
3 *740:C1 0
4 *609:A 0.000465204
5 *770:Y 0.000497297
6 *238:26 0.0005175
7 *238:24 0.000898811
8 *238:10 0.00141501
9 *609:A *522:B1 7.28994e-06
10 *609:A *525:A 0.000204564
11 *609:A *943:A 4.18989e-05
12 *609:A *311:20 0.000344551
13 *609:A *314:22 1.4106e-05
14 *609:A *476:28 7.50722e-05
15 *609:A *503:18 4.39171e-05
16 *927:A *516:A1 0
17 *238:10 *518:C1 0
18 *238:10 *563:A 0.000122083
19 *238:10 *773:D 1.95551e-05
20 *238:10 *916:A 0
21 *238:10 *266:10 0
22 *238:10 *267:10 0
23 *238:10 *315:10 6.08467e-05
24 *238:10 *358:72 0.00032238
25 *238:10 *420:64 3.52873e-06
26 *238:10 *440:25 6.17817e-05
27 *238:10 *440:44 0.000241159
28 *238:24 *516:A1 0.0010082
29 *238:24 *516:C1 0.000193713
30 *238:24 *376:12 8.68041e-05
31 *238:24 *440:25 0.000107052
32 *238:24 *501:24 0
33 *238:26 *516:A1 2.71504e-05
34 *238:26 *516:C1 0.000154145
35 *238:26 *320:22 2.16355e-05
36 *601:A *238:10 1.05272e-06
37 *601:A *238:24 2.03531e-05
38 *169:14 *238:24 6.48631e-05
39 *224:10 *238:10 8.70662e-06
*RES
1 *770:Y *238:10 27.1011 
2 *238:10 *238:24 30.2575 
3 *238:24 *238:26 1.8326 
4 *238:26 *609:A 28.7215 
5 *238:26 *740:C1 9.24915 
6 *238:24 *927:A 9.82786 
7 *238:10 *744:A 15.0438 
*END

*D_NET *347 0.00290501
*CONN
*I *772:B I *D sky130_fd_sc_hd__xnor2_1
*I *771:Y O *D sky130_fd_sc_hd__o211ai_1
*CAP
1 *772:B 0.000759292
2 *771:Y 0.000759292
3 *772:B *767:A 3.99086e-06
4 *559:B *772:B 4.66889e-05
5 *574:A *772:B 8.53106e-06
6 *576:B *772:B 6.08467e-05
7 *615:A1 *772:B 0.000353559
8 *615:B1 *772:B 8.77364e-05
9 *616:B1 *772:B 1.94827e-05
10 *771:A1 *772:B 0.000107496
11 *771:C1 *772:B 6.29897e-05
12 *965:A *772:B 0.000360247
13 *1003:A *772:B 0
14 *8:10 *772:B 2.65331e-05
15 *76:8 *772:B 1.19705e-05
16 *124:16 *772:B 8.42554e-06
17 *184:14 *772:B 0.000217587
18 *256:8 *772:B 1.03403e-05
*RES
1 *771:Y *772:B 48.5725 
*END

*D_NET *349 0.00465029
*CONN
*I *776:A2 I *D sky130_fd_sc_hd__o211ai_1
*I *773:Y O *D sky130_fd_sc_hd__nand4_1
*CAP
1 *776:A2 0.000324771
2 *773:Y 0.00100935
3 *349:24 0.00133412
4 *349:24 *739:A 1.5714e-05
5 *349:24 *739:B 9.4244e-05
6 *349:24 *751:A 0.000169053
7 *349:24 *751:B 6.71354e-05
8 *349:24 *754:B 0.000173957
9 *349:24 *756:C1 2.57847e-05
10 *349:24 *773:A 5.77112e-05
11 *349:24 *776:C1 1.5714e-05
12 *349:24 *350:26 2.93871e-05
13 *349:24 *476:16 0
14 *520:A *776:A2 0.000185433
15 *542:A2 *349:24 8.12445e-05
16 *570:A *776:A2 3.39641e-05
17 *614:A1 *776:A2 5.69065e-05
18 *614:A1 *349:24 0.000118188
19 *742:A *349:24 1.00766e-05
20 *742:B *349:24 0.000109427
21 *753:A *349:24 0.000121953
22 *753:B *349:24 7.67208e-05
23 *776:A1 *776:A2 6.64671e-06
24 *779:A *349:24 2.02035e-05
25 *779:B *349:24 2.02035e-05
26 *780:A2 *776:A2 8.36534e-06
27 *780:C1 *349:24 8.26818e-05
28 *920:A *776:A2 0.000111802
29 *178:70 *349:24 0.000202353
30 *253:25 *349:24 2.43368e-05
31 *321:16 *349:24 3.81849e-05
32 *336:16 *776:A2 1.5714e-05
33 *336:16 *349:24 8.95194e-06
*RES
1 *773:Y *349:24 49.5659 
2 *349:24 *776:A2 19.747 
*END

*D_NET *350 0.0033234
*CONN
*I *776:B1 I *D sky130_fd_sc_hd__o211ai_1
*I *774:Y O *D sky130_fd_sc_hd__o211ai_1
*CAP
1 *776:B1 7.12559e-05
2 *774:Y 0.000723665
3 *350:26 0.000794921
4 *350:26 *739:B 8.94611e-05
5 *350:26 *751:A 4.40272e-05
6 *350:26 *751:B 4.87445e-05
7 *350:26 *776:C1 8.03652e-06
8 *350:26 *358:16 3.81542e-05
9 *540:B1 *776:B1 0.000106768
10 *542:A2 *350:26 4.43797e-05
11 *753:B *350:26 7.22263e-05
12 *775:A2 *350:26 0.000215763
13 *776:A1 *776:B1 6.01917e-05
14 *779:A *350:26 6.50727e-05
15 *920:A *776:B1 0.000293753
16 *178:70 *350:26 8.65132e-05
17 *284:33 *350:26 3.94064e-06
18 *289:20 *350:26 1.40709e-05
19 *319:36 *350:26 0.000251592
20 *335:10 *350:26 1.66626e-05
21 *336:16 *350:26 0.000244811
22 *349:24 *350:26 2.93871e-05
*RES
1 *774:Y *350:26 49.1485 
2 *350:26 *776:B1 13.3846 
*END

*D_NET *351 0.00196331
*CONN
*I *776:C1 I *D sky130_fd_sc_hd__o211ai_1
*I *775:Y O *D sky130_fd_sc_hd__a21oi_1
*CAP
1 *776:C1 0.000656933
2 *775:Y 0.000656933
3 *776:C1 *909:A 5.481e-05
4 *776:C1 *358:16 6.08467e-05
5 *776:C1 *476:22 7.72144e-06
6 *540:B1 *776:C1 6.36477e-05
7 *542:A2 *776:C1 6.32875e-06
8 *614:A1 *776:C1 5.01835e-05
9 *775:A1 *776:C1 0.000294093
10 *775:A2 *776:C1 7.828e-05
11 *779:A *776:C1 1.21461e-06
12 *920:A *776:C1 5.99529e-06
13 *336:16 *776:C1 2.57465e-06
14 *349:24 *776:C1 1.5714e-05
15 *350:26 *776:C1 8.03652e-06
*RES
1 *775:Y *776:C1 40.9596 
*END

*D_NET *352 0.00245853
*CONN
*I *777:B I *D sky130_fd_sc_hd__xnor2_1
*I *776:Y O *D sky130_fd_sc_hd__o211ai_1
*CAP
1 *777:B 0.000764328
2 *776:Y 0.000764328
3 *777:B *617:B 1.32553e-05
4 *777:B *370:18 5.961e-05
5 *545:B1 *777:B 0.000144546
6 *545:A1 *777:B 0.000219184
7 *614:B1 *777:B 2.02035e-05
8 *920:A *777:B 0.000211216
9 *253:25 *777:B 0
10 *274:14 *777:B 0.000261862
*RES
1 *776:Y *777:B 44.672 
*END

*D_NET *253 0.00899395
*CONN
*I *779:B I *D sky130_fd_sc_hd__nand2_1
*I *780:C1 I *D sky130_fd_sc_hd__o211ai_1
*I *615:A2 I *D sky130_fd_sc_hd__a21oi_1
*I *778:Y O *D sky130_fd_sc_hd__nor2_1
*CAP
1 *779:B 9.81557e-06
2 *780:C1 0.000789893
3 *615:A2 0.000107796
4 *778:Y 0.000153525
5 *253:25 0.00155379
6 *253:8 0.0010154
7 *615:A2 *546:B 1.27831e-06
8 *615:A2 *558:B 1.03594e-05
9 *615:A2 *616:B1 0
10 *615:A2 *778:B 5.43261e-05
11 *615:A2 *478:26 4.74572e-05
12 *779:B *336:16 7.86825e-06
13 *779:B *349:24 2.02035e-05
14 *780:C1 *540:A1 0.000165899
15 *780:C1 *542:A2 1.68253e-05
16 *780:C1 *744:D 1.93392e-05
17 *780:C1 *775:B1 5.79479e-06
18 *780:C1 *779:A 0.000530476
19 *780:C1 *780:A2 2.59156e-05
20 *780:C1 *780:B1 6.06077e-05
21 *780:C1 *909:A 9.43145e-06
22 *780:C1 *916:A 1.81863e-06
23 *780:C1 *311:44 0.000171291
24 *780:C1 *349:24 8.26818e-05
25 *780:C1 *358:16 0.000527604
26 *780:C1 *358:22 1.9415e-05
27 *780:C1 *440:25 5.36829e-05
28 *253:8 *616:A1 0.000640885
29 *253:8 *778:B 0.00039981
30 *253:25 *516:A2 1.904e-05
31 *253:25 *540:B1 9.87977e-06
32 *253:25 *541:C1 0
33 *253:25 *545:B1 0
34 *253:25 *711:DE 0.00049771
35 *253:25 *711:CLK 0.000497812
36 *253:25 *777:B 0
37 *253:25 *778:B 3.20407e-05
38 *253:25 *779:A 3.7214e-05
39 *253:25 *349:24 2.43368e-05
40 *253:25 *370:18 0.000424569
41 *253:25 *466:30 0.00030781
42 *253:25 *478:26 2.94788e-05
43 *614:A1 *253:25 8.41266e-06
44 *753:B *253:25 4.03939e-05
45 *910:A *253:25 3.90891e-05
46 *1056:A *253:25 0.000148144
47 *221:14 *780:C1 0.000265298
48 *246:10 *253:25 4.37999e-05
49 *246:23 *253:25 6.57356e-05
*RES
1 *778:Y *253:8 21.1278 
2 *253:8 *615:A2 16.8269 
3 *253:8 *253:25 22.0581 
4 *253:25 *780:C1 28.5896 
5 *253:25 *779:B 17.4965 
*END

*D_NET *249 0.00232951
*CONN
*I *614:A1 I *D sky130_fd_sc_hd__o311ai_2
*I *779:Y O *D sky130_fd_sc_hd__nand2_1
*CAP
1 *614:A1 0.000508312
2 *779:Y 0.000508312
3 *614:A1 *540:B1 0.000487319
4 *614:A1 *542:A2 7.34603e-05
5 *614:A1 *546:B 0.000167769
6 *614:A1 *776:A2 5.69065e-05
7 *614:A1 *776:C1 5.01835e-05
8 *614:A1 *780:A2 9.39162e-06
9 *614:A1 *253:25 8.41266e-06
10 *614:A1 *336:16 7.57672e-05
11 *614:A1 *349:24 0.000118188
12 *614:A1 *466:30 1.93399e-05
13 *570:A *614:A1 6.69227e-05
14 *614:B1 *614:A1 1.1459e-05
15 *246:23 *614:A1 0.000167769
*RES
1 *779:Y *614:A1 40.4393 
*END

*D_NET *248 0.00368437
*CONN
*I *614:B1 I *D sky130_fd_sc_hd__o311ai_2
*I *780:Y O *D sky130_fd_sc_hd__o211ai_1
*CAP
1 *614:B1 0.000783289
2 *780:Y 0.000783289
3 *614:B1 *540:B1 1.46157e-05
4 *614:B1 *614:A1 1.1459e-05
5 *614:B1 *617:B 1.51017e-05
6 *614:B1 *777:B 2.02035e-05
7 *614:B1 *780:A1 1.00952e-05
8 *614:B1 *780:A2 0.000636655
9 *614:B1 *311:44 0.000107496
10 *614:B1 *322:12 3.76286e-05
11 *614:B1 *343:40 3.29488e-05
12 *614:B1 *370:18 7.86825e-06
13 *614:B1 *462:33 3.39641e-05
14 *614:B1 *466:30 0.000850208
15 *570:A *614:B1 5.42061e-05
16 *762:C *614:B1 0.000285345
*RES
1 *780:Y *614:B1 38.725 
*END

*D_NET *361 0.0029726
*CONN
*I *760:A1 I *D sky130_fd_sc_hd__o21ai_2
*I *912:X O *D sky130_fd_sc_hd__buf_4
*CAP
1 *760:A1 0
2 *912:X 0.000722071
3 *361:24 0.000722071
4 *361:24 *743:B 0.000242195
5 *361:24 *763:A1 1.64979e-05
6 *361:24 *768:A1 0
7 *543:B1 *361:24 0.000305878
8 *578:A2 *361:24 0.000321432
9 *768:B1 *361:24 0.00039473
10 *771:A2 *361:24 5.05252e-05
11 *917:A *361:24 6.46815e-05
12 *989:A *361:24 4.07172e-05
13 *250:24 *361:24 9.18011e-05
14 *284:18 *361:24 0
*RES
1 *912:X *361:24 45.9971 
2 *361:24 *760:A1 9.24915 
*END

*D_NET *365 0.000645933
*CONN
*I *547:A I *D sky130_fd_sc_hd__nor2_2
*I *916:X O *D sky130_fd_sc_hd__buf_4
*CAP
1 *547:A 9.30899e-05
2 *916:X 9.30899e-05
3 *547:A *462:33 2.56919e-05
4 *539:A2 *547:A 0.000111802
5 *547:B *547:A 3.79808e-05
6 *916:A *547:A 0.000111722
7 *325:14 *547:A 1.41853e-05
8 *334:14 *547:A 0.000158371
*RES
1 *916:X *547:A 22.5734 
*END

*D_NET *437 0.00489222
*CONN
*I *531:B I *D sky130_fd_sc_hd__xor2_2
*I *988:X O *D sky130_fd_sc_hd__buf_6
*CAP
1 *531:B 0.00127613
2 *988:X 0.000507403
3 *437:18 0.00178353
4 *531:B *470:28 0.000156191
5 *437:18 *522:B1 9.12137e-05
6 *437:18 *483:16 2.48831e-05
7 *603:A1 *531:B 0.000605831
8 *603:A2 *531:B 1.19751e-05
9 *603:B1 *531:B 2.8182e-06
10 *745:B1 *437:18 2.65667e-05
11 *983:A *531:B 2.44829e-05
12 *1011:A *437:18 9.47963e-05
13 *1016:A *437:18 0.000201582
14 *166:18 *531:B 2.16355e-05
15 *367:10 *437:18 6.31809e-05
*RES
1 *988:X *437:18 40.2315 
2 *437:18 *531:B 19.7849 
*END

*D_NET *366 0.00260823
*CONN
*I *767:A I *D sky130_fd_sc_hd__nand2_1
*I *917:X O *D sky130_fd_sc_hd__buf_4
*CAP
1 *767:A 0.000519452
2 *917:X 0.000519452
3 *767:A *995:A 4.17531e-06
4 *767:A *432:117 0
5 *558:A *767:A 0
6 *578:A2 *767:A 4.28656e-05
7 *771:A1 *767:A 7.66391e-06
8 *771:A2 *767:A 0.000656951
9 *771:B1 *767:A 0.000696575
10 *771:C1 *767:A 0.000157107
11 *772:B *767:A 3.99086e-06
12 *341:16 *767:A 0
*RES
1 *917:X *767:A 44.0741 
*END

*D_NET *438 0.000776053
*CONN
*I *743:B I *D sky130_fd_sc_hd__nor2_1
*I *989:X O *D sky130_fd_sc_hd__buf_4
*CAP
1 *743:B 0.000147366
2 *989:X 0.000147366
3 *743:B *520:B 6.08467e-05
4 *743:B *616:A1 1.07038e-05
5 *989:A *743:B 0.000167576
6 *361:24 *743:B 0.000242195
*RES
1 *989:X *743:B 24.5989 
*END

*D_NET *367 0.00742746
*CONN
*I *743:A I *D sky130_fd_sc_hd__nor2_1
*I *768:A1 I *D sky130_fd_sc_hd__o211ai_1
*I *918:X O *D sky130_fd_sc_hd__buf_4
*CAP
1 *743:A 0.000362373
2 *768:A1 5.11e-05
3 *918:X 0.000986686
4 *367:14 0.000984492
5 *367:10 0.00155771
6 *743:A *616:A1 1.05272e-06
7 *367:10 *589:A 8.15628e-05
8 *367:10 *602:B1 0.000307215
9 *367:10 *762:B 1.27074e-05
10 *367:10 *437:18 6.31809e-05
11 *367:10 *462:33 0
12 *367:10 *468:22 0.000685157
13 *367:10 *483:16 0.000116971
14 *367:10 *501:24 4.30985e-05
15 *518:A2 *367:10 0.00013662
16 *543:B1 *743:A 0
17 *577:A1 *367:14 7.28567e-06
18 *578:A2 *367:14 0.00060082
19 *597:A *367:10 0.000159946
20 *746:A *743:A 7.12632e-06
21 *755:B *367:10 0
22 *768:B1 *743:A 3.99086e-06
23 *768:B1 *367:14 3.99086e-06
24 *771:B1 *743:A 6.27782e-05
25 *986:A *367:10 5.1573e-05
26 *989:A *743:A 9.47325e-05
27 *989:A *768:A1 0
28 *1051:A *367:10 5.37199e-06
29 *1051:A *367:14 7.20028e-05
30 *284:18 *743:A 8.39014e-06
31 *311:44 *367:10 7.54301e-05
32 *340:16 *367:10 0.000884101
33 *361:24 *768:A1 0
*RES
1 *918:X *367:10 47.73 
2 *367:10 *367:14 14.0971 
3 *367:14 *768:A1 10.6477 
4 *367:14 *743:A 24.2715 
*END

*D_NET *369 0.00153845
*CONN
*I *775:B1 I *D sky130_fd_sc_hd__a21oi_1
*I *920:X O *D sky130_fd_sc_hd__buf_4
*CAP
1 *775:B1 0.000496638
2 *920:X 0.000496638
3 *540:B1 *775:B1 0.000109879
4 *780:C1 *775:B1 5.79479e-06
5 *916:A *775:B1 0.000194778
6 *920:A *775:B1 5.54018e-05
7 *221:14 *775:B1 0.000179322
*RES
1 *920:X *775:B1 37.5554 
*END

*D_NET *370 0.00447268
*CONN
*I *548:A I *D sky130_fd_sc_hd__nand2_1
*I *921:X O *D sky130_fd_sc_hd__buf_4
*CAP
1 *548:A 0.000414111
2 *921:X 0.000929302
3 *370:18 0.00134341
4 *370:18 *541:A1 0.000202726
5 *370:18 *699:A0 9.29919e-05
6 *370:18 *617:B 4.04447e-05
7 *370:18 *390:192 9.0951e-05
8 *541:C1 *370:18 0
9 *556:A *548:A 6.50586e-05
10 *556:B *548:A 9.05137e-05
11 *614:A2 *548:A 0.000140218
12 *614:B1 *370:18 7.86825e-06
13 *760:B1 *548:A 5.56461e-05
14 *777:B *370:18 5.961e-05
15 *920:A *370:18 0.000445822
16 *921:A *370:18 4.86868e-05
17 *253:25 *370:18 0.000424569
18 *274:14 *370:18 2.07503e-05
*RES
1 *921:X *370:18 47.2936 
2 *370:18 *548:A 20.1483 
*END

*D_NET *371 0.00174379
*CONN
*I *578:B1 I *D sky130_fd_sc_hd__a21oi_4
*I *922:X O *D sky130_fd_sc_hd__buf_6
*CAP
1 *578:B1 0.000517598
2 *922:X 0.000517598
3 *578:B1 *536:A 0
4 *578:B1 *578:A1 0.000160617
5 *578:B1 *589:A 0
6 *578:B1 *436:8 0.000338345
7 *578:B1 *478:26 0.000209636
*RES
1 *922:X *578:B1 40.8909 
*END

*D_NET *372 0.00219548
*CONN
*I *578:A1 I *D sky130_fd_sc_hd__a21oi_4
*I *1064:A I *D sky130_fd_sc_hd__buf_6
*I *923:X O *D sky130_fd_sc_hd__buf_6
*CAP
1 *578:A1 0.000488349
2 *1064:A 0
3 *923:X 0.000130266
4 *372:12 0.000618614
5 *578:A1 *688:B 6.50727e-05
6 *578:A1 *505:18 4.81714e-05
7 *578:A1 *510:16 3.71168e-05
8 *372:12 *592:A 0
9 *372:12 *505:18 2.22342e-05
10 *372:12 *510:16 6.50727e-05
11 *578:B1 *578:A1 0.000160617
12 *1059:A *578:A1 0.000413135
13 *1059:A *372:12 3.0902e-05
14 *190:14 *578:A1 0.000115934
*RES
1 *923:X *372:12 21.635 
2 *372:12 *1064:A 9.24915 
3 *372:12 *578:A1 23.8859 
*END

*D_NET *373 0.00258316
*CONN
*I *1033:A I *D sky130_fd_sc_hd__buf_6
*I *597:B I *D sky130_fd_sc_hd__nand2_2
*I *924:X O *D sky130_fd_sc_hd__buf_6
*CAP
1 *1033:A 0.000309328
2 *597:B 0.000271971
3 *924:X 5.61773e-05
4 *373:8 0.000637477
5 *597:B *461:44 0.000498541
6 *597:B *462:8 8.01807e-05
7 *597:B *462:33 2.39943e-05
8 *1033:A *600:A2 0.000505107
9 *1033:A *515:A 5.03545e-06
10 *1033:A *468:22 5.9036e-05
11 *373:8 *452:31 1.87271e-05
12 *169:14 *1033:A 0.00011758
*RES
1 *924:X *373:8 15.0271 
2 *373:8 *597:B 23.0557 
3 *373:8 *1033:A 23.9509 
*END

*D_NET *374 0.00263798
*CONN
*I *600:A2 I *D sky130_fd_sc_hd__a21oi_4
*I *925:X O *D sky130_fd_sc_hd__buf_6
*CAP
1 *600:A2 0.000602431
2 *925:X 0.000602431
3 *600:A2 *516:B2 7.30217e-05
4 *600:A2 *515:B 7.84267e-05
5 *600:A2 *762:B 0.000422393
6 *600:A2 *468:22 4.34951e-05
7 *516:B1 *600:A2 2.16355e-05
8 *600:B1 *600:A2 6.08467e-05
9 *1033:A *600:A2 0.000505107
10 *169:14 *600:A2 1.17054e-05
11 *219:14 *600:A2 1.58551e-05
12 *341:16 *600:A2 0.000200635
*RES
1 *925:X *600:A2 45.0787 
*END

*D_NET *375 0.00466848
*CONN
*I *751:A I *D sky130_fd_sc_hd__nand2_1
*I *773:A I *D sky130_fd_sc_hd__nand4_1
*I *926:X O *D sky130_fd_sc_hd__buf_4
*CAP
1 *751:A 0.00038392
2 *773:A 0.000275036
3 *926:X 0.000678649
4 *375:20 0.00133761
5 *751:A *751:B 9.82202e-06
6 *773:A *754:B 0.000108703
7 *773:A *476:16 0
8 *375:20 *763:B1 8.81614e-05
9 *562:A *773:A 4.31603e-06
10 *742:B *751:A 3.50187e-05
11 *742:B *375:20 0.000111802
12 *755:B *375:20 0.000122518
13 *756:B1 *751:A 1.43698e-05
14 *926:A *375:20 6.08467e-05
15 *1031:A *773:A 6.36477e-05
16 *178:70 *773:A 0.00031332
17 *264:16 *751:A 3.01368e-06
18 *284:33 *773:A 4.54513e-05
19 *289:10 *751:A 0.000116143
20 *289:20 *751:A 1.07248e-05
21 *322:12 *375:20 0.000253773
22 *324:18 *375:20 1.19856e-05
23 *340:16 *375:20 0.000238403
24 *341:8 *375:20 0.000110458
25 *349:24 *751:A 0.000169053
26 *349:24 *773:A 5.77112e-05
27 *350:26 *751:A 4.40272e-05
*RES
1 *926:X *375:20 34.9161 
2 *375:20 *773:A 26.2325 
3 *375:20 *751:A 25.5173 
*END

*D_NET *376 0.00684185
*CONN
*I *739:A I *D sky130_fd_sc_hd__nor2_1
*I *515:A I *D sky130_fd_sc_hd__xor2_2
*I *927:X O *D sky130_fd_sc_hd__buf_4
*CAP
1 *739:A 0.00146268
2 *515:A 0.000276359
3 *927:X 8.36502e-05
4 *376:12 0.00182269
5 *739:A *516:B2 0.00026193
6 *739:A *391:34 0.000186066
7 *376:12 *942:A 1.5562e-05
8 *516:A1 *376:12 0.000107496
9 *516:A2 *739:A 0.000458066
10 *516:C1 *515:A 0.000158451
11 *516:C1 *739:A 0.000469042
12 *516:C1 *376:12 1.88014e-05
13 *522:A2 *515:A 0.000273725
14 *542:A2 *739:A 1.77894e-05
15 *543:A2 *739:A 7.97332e-05
16 *752:B1 *739:A 2.7518e-05
17 *753:A *739:A 2.46285e-06
18 *753:B *739:A 0.000365188
19 *779:A *739:A 2.95801e-05
20 *1033:A *515:A 5.03545e-06
21 *169:14 *515:A 0.00027359
22 *169:14 *376:12 1.55462e-05
23 *178:58 *739:A 7.97332e-05
24 *238:24 *376:12 8.68041e-05
25 *319:36 *739:A 0.000230615
26 *324:18 *515:A 1.80303e-05
27 *349:24 *739:A 1.5714e-05
*RES
1 *927:X *376:12 20.9439 
2 *376:12 *515:A 26.7991 
3 *376:12 *739:A 47.9548 
*END

*D_NET *377 0.00343908
*CONN
*I *527:A2 I *D sky130_fd_sc_hd__a21oi_4
*I *928:X O *D sky130_fd_sc_hd__buf_4
*CAP
1 *527:A2 0.00134246
2 *928:X 0.00134246
3 *527:A2 *579:A1 0.000109427
4 *527:A1 *527:A2 6.61278e-05
5 *579:B1 *527:A2 4.24488e-05
6 *922:A *527:A2 3.99086e-06
7 *928:A *527:A2 0.000147102
8 *1029:A *527:A2 4.24629e-05
9 *16:12 *527:A2 5.23577e-05
10 *191:6 *527:A2 1.95066e-05
11 *209:23 *527:A2 8.69975e-05
12 *220:35 *527:A2 0.000183736
*RES
1 *928:X *527:A2 49.213 
*END

*D_NET *439 0.000413126
*CONN
*I *528:B I *D sky130_fd_sc_hd__nor3_4
*I *990:X O *D sky130_fd_sc_hd__buf_4
*CAP
1 *528:B 7.66398e-05
2 *990:X 7.66398e-05
3 *528:B *528:C 9.17136e-05
4 *928:A *528:B 1.55462e-05
5 *957:A *528:B 0.000152586
*RES
1 *990:X *528:B 30.9913 
*END

*D_NET *378 0.0036303
*CONN
*I *764:A I *D sky130_fd_sc_hd__xnor2_2
*I *929:X O *D sky130_fd_sc_hd__buf_4
*CAP
1 *764:A 0
2 *929:X 0.000774795
3 *378:12 0.000774795
4 *378:12 *659:A2 0.000519737
5 *378:12 *680:A0 0.000182869
6 *378:12 *688:B 0
7 *378:12 *390:211 0
8 *378:12 *413:22 0.000106111
9 *378:12 *442:128 0.000333533
10 *378:12 *444:20 0
11 *551:B *378:12 0.000145095
12 *659:B1 *378:12 4.19401e-05
13 *680:A1 *378:12 5.1674e-06
14 *707:D *378:12 0.000304153
15 *929:A *378:12 8.22191e-05
16 *939:A *378:12 0.00011818
17 *159:12 *378:12 0.000159506
18 *282:22 *378:12 1.29348e-05
19 *341:16 *378:12 6.92705e-05
*RES
1 *929:X *378:12 46.8345 
2 *378:12 *764:A 9.24915 
*END

*D_NET *379 0.000558071
*CONN
*I *772:A I *D sky130_fd_sc_hd__xnor2_1
*I *930:X O *D sky130_fd_sc_hd__buf_4
*CAP
1 *772:A 0.000154429
2 *930:X 0.000154429
3 *772:A *657:A0 7.01935e-06
4 *559:B *772:A 5.04829e-06
5 *76:8 *772:A 7.62044e-05
6 *160:6 *772:A 0.000160942
*RES
1 *930:X *772:A 23.128 
*END

*D_NET *380 0.00351363
*CONN
*I *613:B I *D sky130_fd_sc_hd__xnor2_1
*I *931:X O *D sky130_fd_sc_hd__buf_4
*CAP
1 *613:B 0.000784484
2 *931:X 0.000784484
3 *545:B1 *613:B 0.000114523
4 *545:A1 *613:B 2.20457e-05
5 *560:B *613:B 0.000384436
6 *931:A *613:B 0.000523029
7 *259:137 *613:B 0.000627696
8 *269:10 *613:B 0.000272929
*RES
1 *931:X *613:B 49.2175 
*END

*D_NET *440 0.00942533
*CONN
*I *773:C I *D sky130_fd_sc_hd__nand4_1
*I *562:B I *D sky130_fd_sc_hd__nand2_2
*I *751:B I *D sky130_fd_sc_hd__nand2_1
*I *762:D I *D sky130_fd_sc_hd__nand4_1
*I *991:X O *D sky130_fd_sc_hd__buf_4
*CAP
1 *773:C 0.000182898
2 *562:B 6.20954e-05
3 *751:B 0.000710667
4 *762:D 0.000277086
5 *991:X 0.000628223
6 *440:44 0.000372537
7 *440:25 0.00126557
8 *440:12 0.00133267
9 *562:B *754:B 9.94284e-06
10 *762:D *762:B 2.43327e-05
11 *762:D *452:31 0.000298986
12 *773:C *754:B 9.80242e-07
13 *516:B1 *440:25 6.07091e-05
14 *539:B1 *440:12 0.000316594
15 *539:B1 *440:25 8.07348e-05
16 *540:A1 *440:12 0.000182178
17 *540:A1 *440:25 0.000162422
18 *562:A *562:B 3.41459e-05
19 *562:A *773:C 0.000206696
20 *577:A1 *440:12 7.25424e-05
21 *577:A2 *440:12 0.000107496
22 *601:A *440:25 0
23 *601:B *440:25 0.000337381
24 *751:A *751:B 9.82202e-06
25 *754:A *562:B 3.30668e-05
26 *774:A2 *751:B 0.000307698
27 *780:A1 *440:12 3.88655e-06
28 *780:C1 *440:25 5.36829e-05
29 *909:A *762:D 5.481e-05
30 *916:A *440:25 0
31 *1021:A *440:12 0.000180692
32 *1032:A *440:12 5.11681e-05
33 *221:14 *440:12 6.78212e-05
34 *224:10 *562:B 6.36477e-05
35 *224:10 *440:25 7.24909e-05
36 *224:10 *440:44 0.000242365
37 *238:10 *440:25 6.17817e-05
38 *238:10 *440:44 0.000241159
39 *238:24 *440:25 0.000107052
40 *311:44 *762:D 0.000184103
41 *328:6 *751:B 0.000695287
42 *334:14 *440:25 8.56999e-05
43 *334:20 *440:12 5.11824e-05
44 *341:16 *440:12 1.51468e-05
45 *349:24 *751:B 6.71354e-05
46 *350:26 *751:B 4.87445e-05
*RES
1 *991:X *440:12 28.5187 
2 *440:12 *762:D 21.5618 
3 *440:12 *440:25 13.8743 
4 *440:25 *751:B 35.4268 
5 *440:25 *440:44 9.23876 
6 *440:44 *562:B 11.5158 
7 *440:44 *773:C 12.191 
*END

*D_NET *381 0.000810637
*CONN
*I *761:B I *D sky130_fd_sc_hd__xnor2_2
*I *932:X O *D sky130_fd_sc_hd__buf_4
*CAP
1 *761:B 0.000125153
2 *932:X 0.000125153
3 *761:B *575:A 4.97617e-05
4 *761:B *688:B 0.000398767
5 *575:B *761:B 0.000111802
*RES
1 *932:X *761:B 23.1039 
*END

*D_NET *382 0.000975197
*CONN
*I *537:B I *D sky130_fd_sc_hd__xnor2_4
*I *933:X O *D sky130_fd_sc_hd__buf_6
*CAP
1 *537:B 0.000306921
2 *933:X 0.000306921
3 *537:B *537:A 1.03594e-05
4 *537:B *628:B 5.37199e-06
5 *537:B *933:A 0.000143642
6 *537:B *406:12 0.000201981
*RES
1 *933:X *537:B 36.8048 
*END

*D_NET *441 0.00207119
*CONN
*I *528:A I *D sky130_fd_sc_hd__nor3_4
*I *992:X O *D sky130_fd_sc_hd__buf_4
*CAP
1 *528:A 0.000339388
2 *992:X 0.000339388
3 *528:A *527:B1 0.000102056
4 *530:A *528:A 2.61693e-05
5 *532:B *528:A 0.000412372
6 *533:B1 *528:A 3.25494e-05
7 *533:C1 *528:A 0.000515614
8 *583:B *528:A 7.45478e-05
9 *1008:A *528:A 2.39519e-05
10 *1048:A *528:A 0.000163165
11 *209:23 *528:A 4.19841e-05
*RES
1 *992:X *528:A 42.241 
*END

*D_NET *385 0.00426801
*CONN
*I *589:A I *D sky130_fd_sc_hd__nor2_4
*I *536:A I *D sky130_fd_sc_hd__xnor2_4
*I *936:X O *D sky130_fd_sc_hd__buf_4
*CAP
1 *589:A 0.00028562
2 *536:A 0.000876934
3 *936:X 4.32374e-05
4 *385:8 0.00120579
5 *536:A *658:B 0.000270995
6 *536:A *436:8 0
7 *589:A *436:8 0
8 *578:B1 *536:A 0
9 *578:B1 *589:A 0
10 *895:A *536:A 0.000288805
11 *986:A *536:A 1.09198e-05
12 *986:A *589:A 0.00022446
13 *1001:A *536:A 0
14 *159:12 *536:A 0.000342016
15 *164:12 *536:A 7.77744e-05
16 *190:14 *589:A 0
17 *205:22 *536:A 5.51483e-06
18 *207:12 *536:A 0.000534064
19 *207:12 *589:A 2.03171e-05
20 *367:10 *589:A 8.15628e-05
*RES
1 *936:X *385:8 14.4819 
2 *385:8 *536:A 40.0556 
3 *385:8 *589:A 21.8832 
*END

*D_NET *386 0.00714837
*CONN
*I *744:D I *D sky130_fd_sc_hd__nor4_4
*I *1010:A I *D sky130_fd_sc_hd__buf_4
*I *937:X O *D sky130_fd_sc_hd__buf_6
*CAP
1 *744:D 0.00191187
2 *1010:A 6.19783e-05
3 *937:X 0.000397156
4 *386:14 0.00237101
5 *744:D *739:B 2.57986e-05
6 *744:D *391:34 0.000473246
7 *744:D *503:18 0.000186488
8 *1010:A *522:B1 7.70553e-05
9 *516:A2 *744:D 0.000141371
10 *516:B1 *386:14 0.000160617
11 *520:A *744:D 2.22357e-05
12 *749:B *744:D 0.000142067
13 *753:A *744:D 5.38909e-06
14 *774:A2 *744:D 2.57986e-05
15 *779:A *744:D 9.63467e-06
16 *780:C1 *744:D 1.93392e-05
17 *909:A *744:D 0
18 *178:70 *744:D 2.05055e-05
19 *233:12 *1010:A 3.35532e-05
20 *237:6 *1010:A 6.27718e-05
21 *239:38 *744:D 0.000308967
22 *289:20 *744:D 4.52855e-05
23 *311:20 *1010:A 6.46815e-05
24 *314:22 *386:14 0.000581559
*RES
1 *937:X *386:14 23.5632 
2 *386:14 *1010:A 16.0969 
3 *386:14 *744:D 27.8582 
*END

*D_NET *387 0.000829213
*CONN
*I *521:B I *D sky130_fd_sc_hd__xor2_2
*I *938:X O *D sky130_fd_sc_hd__buf_4
*CAP
1 *521:B 9.14084e-05
2 *938:X 9.14084e-05
3 *521:B *521:A 3.186e-05
4 *521:B *420:64 0.000423936
5 *521:B *501:24 1.61631e-05
6 *938:A *521:B 0.00011818
7 *168:16 *521:B 5.62568e-05
*RES
1 *938:X *521:B 14.3491 
*END

*D_NET *392 0.0046266
*CONN
*I *617:A I *D sky130_fd_sc_hd__xnor2_4
*I *943:X O *D sky130_fd_sc_hd__buf_4
*CAP
1 *617:A 3.10736e-05
2 *943:X 0.000827514
3 *392:16 0.000858588
4 *617:A *401:28 0.000107496
5 *617:A *446:23 4.24488e-05
6 *392:16 *518:A1 0.00025175
7 *392:16 *648:A0 0.000317693
8 *392:16 *676:A0 0.000114584
9 *392:16 *399:18 0.000165088
10 *392:16 *491:26 0.000643089
11 *564:A *392:16 1.88152e-05
12 *564:C *392:16 1.92172e-05
13 *571:B *392:16 3.89332e-06
14 *572:B *392:16 1.2693e-05
15 *648:A1 *392:16 6.08467e-05
16 *650:A2 *392:16 2.41483e-05
17 *905:A *392:16 2.16355e-05
18 *969:A *392:16 8.54423e-05
19 *1030:A *392:16 1.66626e-05
20 *1:10 *392:16 0.00011747
21 *1:14 *392:16 7.12632e-06
22 *259:369 *392:16 0.000576765
23 *265:10 *392:16 0.000158357
24 *358:72 *392:16 5.51483e-06
25 *358:82 *392:16 1.65872e-05
26 *384:18 *392:16 0.000122098
*RES
1 *943:X *392:16 48.9979 
2 *392:16 *617:A 10.5271 
*END

*D_NET *391 0.00483042
*CONN
*I *739:B I *D sky130_fd_sc_hd__nor2_1
*I *942:X O *D sky130_fd_sc_hd__buf_4
*CAP
1 *739:B 0.00055085
2 *942:X 0.000639492
3 *391:34 0.00119034
4 *739:B *744:C 1.03403e-05
5 *391:34 *516:B2 0.000158511
6 *391:34 *942:A 2.09205e-05
7 *391:34 *476:22 0.000124157
8 *391:34 *501:24 1.5714e-05
9 *516:A1 *391:34 0.00041957
10 *516:A2 *739:B 0.000202947
11 *516:C1 *391:34 6.36477e-05
12 *739:A *391:34 0.000186066
13 *744:D *739:B 2.57986e-05
14 *744:D *391:34 0.000473246
15 *752:B1 *739:B 3.78939e-05
16 *753:A *739:B 0.000110208
17 *774:A2 *739:B 1.15478e-05
18 *926:A *391:34 6.75845e-06
19 *284:33 *391:34 0.000120544
20 *289:20 *739:B 0.000200771
21 *319:36 *739:B 5.04829e-06
22 *319:36 *391:34 1.41976e-05
23 *328:6 *739:B 7.98171e-06
24 *335:10 *739:B 1.66771e-05
25 *336:16 *739:B 2.02035e-05
26 *341:16 *391:34 1.32841e-05
27 *349:24 *739:B 9.4244e-05
28 *350:26 *739:B 8.94611e-05
*RES
1 *942:X *391:34 49.1603 
2 *391:34 *739:B 34.653 
*END

*D_NET *393 0.00184462
*CONN
*I *747:B I *D sky130_fd_sc_hd__xnor2_2
*I *944:X O *D sky130_fd_sc_hd__buf_4
*CAP
1 *747:B 0.00054982
2 *944:X 0.00054982
3 *747:B *434:62 2.74878e-05
4 *747:B *443:68 2.47295e-05
5 *653:B1 *747:B 0.000109421
6 *944:A *747:B 4.9509e-05
7 *26:10 *747:B 5.9955e-05
8 *383:81 *747:B 0.000360872
9 *383:94 *747:B 4.38169e-05
10 *383:101 *747:B 6.91907e-05
*RES
1 *944:X *747:B 42.1692 
*END

*D_NET *394 0.00106366
*CONN
*I *585:A I *D sky130_fd_sc_hd__xnor2_4
*I *945:X O *D sky130_fd_sc_hd__buf_4
*CAP
1 *585:A 0.000128196
2 *945:X 0.000128196
3 *585:A *585:B 4.0752e-05
4 *585:A *433:65 0.000510762
5 *538:B *585:A 4.00689e-05
6 *945:A *585:A 0.00021569
*RES
1 *945:X *585:A 24.7918 
*END

*D_NET *396 0.00233135
*CONN
*I *532:A I *D sky130_fd_sc_hd__xnor2_4
*I *947:X O *D sky130_fd_sc_hd__buf_4
*CAP
1 *532:A 0.000246304
2 *947:X 0.000246304
3 *532:A *933:A 0.000207821
4 *532:A *406:12 0.00018281
5 *532:A *406:23 8.36586e-06
6 *532:A *435:26 0.000171273
7 *532:A *435:32 6.50727e-05
8 *532:A *442:46 0.000115454
9 *633:A1 *532:A 0.000165352
10 *901:A *532:A 0.000922588
*RES
1 *947:X *532:A 41.143 
*END

*D_NET *398 0.00288681
*CONN
*I *531:A I *D sky130_fd_sc_hd__xor2_2
*I *949:X O *D sky130_fd_sc_hd__buf_4
*CAP
1 *531:A 0.000561681
2 *949:X 0.000561681
3 *531:A *633:S 1.05272e-06
4 *531:A *673:A0 6.23946e-05
5 *531:A *403:14 4.42033e-05
6 *531:A *453:10 4.31539e-05
7 *531:A *470:28 0.000984038
8 *673:S *531:A 3.63738e-05
9 *954:A *531:A 0.000530077
10 *92:16 *531:A 6.21507e-05
*RES
1 *949:X *531:A 46.9916 
*END

*D_NET *399 0.010849
*CONN
*I *607:B I *D sky130_fd_sc_hd__nand2_1
*I *518:B1 I *D sky130_fd_sc_hd__o211ai_1
*I *950:X O *D sky130_fd_sc_hd__buf_4
*CAP
1 *607:B 0.00125592
2 *518:B1 0.000105585
3 *950:X 0
4 *399:18 0.00206922
5 *399:4 0.00321956
6 *518:B1 *518:A1 2.68354e-05
7 *607:B *419:10 6.65984e-05
8 *399:18 *642:A1 1.00937e-05
9 *399:18 *648:A0 1.41689e-05
10 *399:18 *445:12 0
11 *399:18 *491:26 1.76348e-05
12 *564:C *399:18 6.22703e-05
13 *650:A2 *399:18 0.00011818
14 *677:A1 *518:B1 0
15 *904:A *399:18 2.65667e-05
16 *905:A *399:18 0.000160617
17 *911:A *607:B 1.22289e-05
18 *968:A *518:B1 0.000193616
19 *969:A *399:18 0.000314062
20 *970:A *607:B 9.38677e-05
21 *28:10 *607:B 0.000133238
22 *28:10 *399:18 4.80597e-05
23 *28:16 *607:B 0.000262544
24 *109:16 *607:B 0.000257032
25 *109:16 *399:18 2.95757e-05
26 *109:18 *607:B 6.08467e-05
27 *168:16 *399:18 7.24449e-05
28 *228:10 *607:B 7.04109e-05
29 *233:12 *607:B 0.00116303
30 *316:18 *607:B 8.09314e-05
31 *358:72 *399:18 0.000160617
32 *358:82 *399:18 0.000260374
33 *390:134 *399:18 0.000317788
34 *392:16 *399:18 0.000165088
*RES
1 *950:X *399:4 9.24915 
2 *399:4 *399:18 48.5437 
3 *399:18 *518:B1 17.2421 
4 *399:4 *607:B 47.9373 
*END

*D_NET *400 0.00372229
*CONN
*I *602:B1 I *D sky130_fd_sc_hd__o211ai_1
*I *611:B I *D sky130_fd_sc_hd__nand2_1
*I *951:X O *D sky130_fd_sc_hd__buf_4
*CAP
1 *602:B1 0.000489536
2 *611:B 0.000740446
3 *951:X 2.12792e-05
4 *400:6 0.00125126
5 *611:B *602:C1 5.27547e-06
6 *611:B *611:A 0.000245049
7 *611:B *419:31 0.00013266
8 *517:A *611:B 4.93729e-05
9 *518:A2 *602:B1 5.82312e-05
10 *518:A2 *611:B 3.61531e-05
11 *740:A2 *611:B 0.000181104
12 *755:B *602:B1 8.23171e-06
13 *168:16 *611:B 2.35192e-05
14 *242:24 *611:B 0.000151323
15 *320:22 *602:B1 2.16355e-05
16 *367:10 *602:B1 0.000307215
*RES
1 *951:X *400:6 9.82786 
2 *400:6 *611:B 34.2848 
3 *400:6 *602:B1 17.6164 
*END

*D_NET *452 0.00809571
*CONN
*I *516:B2 I *D sky130_fd_sc_hd__a221oi_4
*I *914:A I *D sky130_fd_sc_hd__buf_6
*I *1006:X O *D sky130_fd_sc_hd__buf_4
*CAP
1 *516:B2 0.000357709
2 *914:A 2.64699e-05
3 *1006:X 0.000193262
4 *452:31 0.00184537
5 *452:14 0.00170739
6 *516:B2 *762:B 5.23577e-05
7 *914:A *454:36 2.65667e-05
8 *452:14 *528:C 7.09395e-05
9 *452:31 *526:C 7.98171e-06
10 *452:31 *528:C 0.000116866
11 *452:31 *762:B 6.25883e-06
12 *452:31 *461:44 1.10875e-05
13 *452:31 *475:8 3.29623e-05
14 *516:A1 *516:B2 7.68538e-06
15 *516:C1 *516:B2 5.04829e-06
16 *600:A2 *516:B2 7.30217e-05
17 *603:B1 *452:31 3.16904e-05
18 *739:A *516:B2 0.00026193
19 *762:D *452:31 0.000298986
20 *909:A *516:B2 2.12266e-05
21 *924:A *452:31 1.51989e-05
22 *1006:A *452:14 0.000107496
23 *1011:A *452:31 0.000367908
24 *120:22 *452:31 9.93366e-06
25 *193:8 *452:14 0.000355657
26 *251:8 *516:B2 0.000438858
27 *305:18 *452:31 3.50289e-05
28 *306:10 *452:14 0.000165481
29 *306:10 *452:31 0.000732393
30 *341:16 *516:B2 3.04911e-05
31 *373:8 *452:31 1.87271e-05
32 *388:10 *452:14 0.000334454
33 *391:34 *516:B2 0.000158511
34 *432:27 *452:31 0.000166587
35 *432:33 *452:31 4.18219e-06
*RES
1 *1006:X *452:14 23.2892 
2 *452:14 *914:A 14.4725 
3 *452:14 *452:31 43.2735 
4 *452:31 *516:B2 26.4691 
*END

*D_NET *453 0.00467525
*CONN
*I *579:A1 I *D sky130_fd_sc_hd__o21ai_4
*I *947:A I *D sky130_fd_sc_hd__buf_4
*I *1007:X O *D sky130_fd_sc_hd__buf_6
*CAP
1 *579:A1 0.000537917
2 *947:A 0.000247671
3 *1007:X 0.000386108
4 *453:10 0.0011717
5 *579:A1 *527:B1 0.00025233
6 *453:10 *470:28 3.61993e-05
7 resp_msg[4] *579:A1 0.000154987
8 *526:B *579:A1 7.67734e-06
9 *527:A1 *579:A1 0.000109288
10 *527:A2 *579:A1 0.000109427
11 *531:A *453:10 4.31539e-05
12 *596:B *947:A 0
13 *636:A1 *453:10 5.82465e-05
14 *672:A1 *579:A1 0.000211546
15 *52:12 *579:A1 0.00022683
16 *92:16 *453:10 0.000360145
17 *389:16 *947:A 0.000168264
18 *389:16 *453:10 1.04511e-05
19 *390:35 *453:10 7.02421e-05
20 *442:32 *453:10 0.000513073
*RES
1 *1007:X *453:10 27.9372 
2 *453:10 *947:A 20.5642 
3 *453:10 *579:A1 31.3277 
*END

*D_NET *454 0.00639689
*CONN
*I *524:D I *D sky130_fd_sc_hd__nor4_4
*I *1037:A I *D sky130_fd_sc_hd__buf_4
*I *1008:X O *D sky130_fd_sc_hd__buf_6
*CAP
1 *524:D 0
2 *1037:A 0.00060298
3 *1008:X 0.00182657
4 *454:36 0.00122359
5 *1037:A *526:C 0.000380499
6 *1037:A *483:16 6.20449e-05
7 *454:36 *520:B 0.000107496
8 *454:36 *524:A 0.000508881
9 *454:36 *461:48 0.000166111
10 *454:36 *494:16 3.98489e-05
11 *454:36 *503:18 6.27782e-05
12 *454:36 *505:18 0.000190647
13 *454:36 *510:16 4.43961e-05
14 *525:B *1037:A 1.96353e-05
15 *533:C1 *1037:A 0.0001261
16 *603:A1 *1037:A 0.000108054
17 *603:A2 *1037:A 0.000171273
18 *914:A *454:36 2.65667e-05
19 *928:A *1037:A 0.000142047
20 *1018:A *454:36 0.000314044
21 *209:23 *1037:A 0.000244981
22 *284:18 *454:36 2.08509e-05
23 *304:18 *1037:A 0
24 *432:27 *1037:A 3.16403e-06
25 *432:33 *1037:A 4.33684e-06
*RES
1 *1008:X *1037:A 47.2212 
2 *1008:X *454:36 49.3035 
3 *454:36 *524:D 9.24915 
*END

*D_NET *455 0.00314086
*CONN
*I *598:A I *D sky130_fd_sc_hd__nor2_4
*I *1024:A I *D sky130_fd_sc_hd__buf_4
*I *1009:X O *D sky130_fd_sc_hd__buf_6
*CAP
1 *598:A 0.000800713
2 *1024:A 0
3 *1009:X 0.000226207
4 *455:12 0.00102692
5 *598:A *519:B 1.11638e-05
6 *529:A2 *598:A 1.81863e-06
7 *529:A2 *455:12 0.000136827
8 *529:B1 *598:A 1.91246e-05
9 *529:B1 *455:12 7.70232e-06
10 *579:B1 *455:12 7.14746e-05
11 *599:C *598:A 0.000107496
12 *605:B *598:A 6.67255e-05
13 *1002:A *455:12 8.62625e-06
14 *55:12 *598:A 0.00033616
15 *220:23 *455:12 6.08467e-05
16 *229:10 *455:12 3.80794e-05
17 *304:18 *598:A 0.000107496
18 *314:22 *598:A 4.84017e-05
19 *448:10 *455:12 6.50727e-05
*RES
1 *1009:X *455:12 19.6754 
2 *455:12 *1024:A 13.7491 
3 *455:12 *598:A 29.795 
*END

*D_NET *456 0.00188339
*CONN
*I *525:A I *D sky130_fd_sc_hd__xor2_2
*I *1010:X O *D sky130_fd_sc_hd__buf_4
*CAP
1 *525:A 0.000389547
2 *1010:X 0.000389547
3 *525:A *522:B1 0.000162537
4 *525:A *943:A 8.39222e-06
5 *516:A1 *525:A 0.000244785
6 *609:A *525:A 0.000204564
7 *740:A2 *525:A 0.000127548
8 *305:10 *525:A 0.000356473
*RES
1 *1010:X *525:A 40.4637 
*END

*D_NET *457 0.00253008
*CONN
*I *526:C I *D sky130_fd_sc_hd__nor3_4
*I *1011:X O *D sky130_fd_sc_hd__buf_6
*CAP
1 *526:C 0.000507688
2 *1011:X 0.000507688
3 *526:C *519:B 6.08467e-05
4 *526:C *461:44 0.000326808
5 *525:B *526:C 0.000561832
6 *526:A *526:C 6.73186e-05
7 *603:A2 *526:C 0
8 *1011:A *526:C 0.000109421
9 *1037:A *526:C 0.000380499
10 *304:18 *526:C 0
11 *452:31 *526:C 7.98171e-06
*RES
1 *1011:X *526:C 45.515 
*END

*D_NET *458 0.000836094
*CONN
*I *937:A I *D sky130_fd_sc_hd__buf_6
*I *1012:X O *D sky130_fd_sc_hd__buf_4
*CAP
1 *937:A 0.000244246
2 *1012:X 0.000244246
3 *1012:A *937:A 6.27718e-05
4 *314:22 *937:A 0.00028483
*RES
1 *1012:X *937:A 25.3464 
*END

*D_NET *460 0.00196979
*CONN
*I *598:B I *D sky130_fd_sc_hd__nor2_4
*I *1014:X O *D sky130_fd_sc_hd__buf_6
*CAP
1 *598:B 0
2 *1014:X 0.000668055
3 *460:20 0.000668055
4 *460:20 *519:B 0.000322414
5 *525:B *460:20 3.30938e-05
6 *529:A2 *460:20 2.14624e-05
7 *529:B1 *460:20 4.44048e-05
8 *606:B *460:20 7.78924e-05
9 *219:14 *460:20 8.16204e-05
10 *228:14 *460:20 5.27944e-05
*RES
1 *1014:X *460:20 41.3701 
2 *460:20 *598:B 9.24915 
*END

*D_NET *461 0.0115487
*CONN
*I *524:C I *D sky130_fd_sc_hd__nor4_4
*I *520:B I *D sky130_fd_sc_hd__nor2_4
*I *519:B I *D sky130_fd_sc_hd__nor3_4
*I *1015:X O *D sky130_fd_sc_hd__buf_6
*CAP
1 *524:C 0
2 *520:B 0.000739777
3 *519:B 0.000733303
4 *1015:X 0.00191341
5 *461:48 0.0011242
6 *461:44 0.00156453
7 *520:B *616:A1 0.000283209
8 *461:44 *515:B 0
9 *461:44 *505:18 0
10 *461:48 *524:A 0.000410396
11 *461:48 *494:16 0.0011931
12 *526:C *519:B 6.08467e-05
13 *526:C *461:44 0.000326808
14 *529:A2 *519:B 0.000109119
15 *529:B1 *519:B 1.35449e-05
16 *543:B1 *520:B 0.000271968
17 *597:B *461:44 0.000498541
18 *598:A *519:B 1.11638e-05
19 *599:C *519:B 7.92757e-06
20 *605:B *519:B 0.000748284
21 *743:B *520:B 6.08467e-05
22 *924:A *461:44 3.09131e-05
23 *986:A *461:44 0
24 *1015:A *519:B 6.3657e-05
25 *1018:A *461:48 6.88361e-05
26 *30:10 *519:B 0.000135765
27 *184:44 *520:B 0.000263552
28 *284:18 *520:B 9.63944e-05
29 *284:18 *461:48 5.98993e-05
30 *304:18 *519:B 2.41568e-05
31 *314:22 *519:B 7.09666e-06
32 *324:18 *461:44 5.2474e-05
33 *421:12 *519:B 6.79142e-05
34 *452:31 *461:44 1.10875e-05
35 *454:36 *520:B 0.000107496
36 *454:36 *461:48 0.000166111
37 *460:20 *519:B 0.000322414
*RES
1 *1015:X *519:B 48.4582 
2 *1015:X *461:44 43.1269 
3 *461:44 *461:48 17.7955 
4 *461:48 *520:B 44.7191 
5 *461:48 *524:C 9.24915 
*END

*D_NET *462 0.00663248
*CONN
*I *763:B1 I *D sky130_fd_sc_hd__o221ai_4
*I *988:A I *D sky130_fd_sc_hd__buf_6
*I *1016:X O *D sky130_fd_sc_hd__buf_6
*CAP
1 *763:B1 0.000257567
2 *988:A 0
3 *1016:X 0.00013006
4 *462:33 0.00170914
5 *462:8 0.00158163
6 *462:33 *476:16 0.000190836
7 *462:33 *476:22 0.000325711
8 *547:A *462:33 2.56919e-05
9 *547:B *462:33 0.000200794
10 *597:B *462:8 8.01807e-05
11 *597:B *462:33 2.39943e-05
12 *614:B1 *462:33 3.39641e-05
13 *759:A *462:33 8.45896e-06
14 *762:C *462:33 4.31452e-05
15 *779:A *462:33 0.00034001
16 *780:A2 *462:33 0.000188011
17 *916:A *462:33 0.000141178
18 *991:A *462:33 0.000131152
19 *266:10 *462:33 3.52987e-05
20 *285:6 *462:33 0.000255976
21 *322:12 *462:33 0.000783867
22 *325:14 *462:33 2.6064e-05
23 *340:16 *763:B1 3.15947e-05
24 *367:10 *462:33 0
25 *375:20 *763:B1 8.81614e-05
*RES
1 *1016:X *462:8 17.2421 
2 *462:8 *988:A 13.7491 
3 *462:8 *462:33 49.2473 
4 *462:33 *763:B1 19.4881 
*END

*D_NET *464 0.00142751
*CONN
*I *524:A I *D sky130_fd_sc_hd__nor4_4
*I *1018:X O *D sky130_fd_sc_hd__buf_4
*CAP
1 *524:A 0.000173501
2 *1018:X 0.000173501
3 *1018:A *524:A 0.000161234
4 *454:36 *524:A 0.000508881
5 *461:48 *524:A 0.000410396
*RES
1 *1018:X *524:A 27.179 
*END

*D_NET *466 0.00431803
*CONN
*I *752:A1 I *D sky130_fd_sc_hd__o21ai_2
*I *1020:X O *D sky130_fd_sc_hd__buf_6
*CAP
1 *752:A1 0
2 *1020:X 0.000848697
3 *466:30 0.000848697
4 *540:B1 *466:30 7.86482e-06
5 *543:B1 *466:30 4.88764e-06
6 *546:B *466:30 8.56518e-05
7 *614:A1 *466:30 1.93399e-05
8 *614:B1 *466:30 0.000850208
9 *711:CLK *466:30 0.000321419
10 *752:A2 *466:30 6.50586e-05
11 *753:A *466:30 6.50586e-05
12 *760:B1 *466:30 1.91391e-05
13 *762:C *466:30 6.83426e-05
14 *776:A1 *466:30 6.36477e-05
15 *780:A1 *466:30 0.00016273
16 *179:16 *466:30 6.42805e-05
17 *246:23 *466:30 0.000508704
18 *253:25 *466:30 0.00030781
19 *335:10 *466:30 6.49043e-06
*RES
1 *1020:X *466:30 49.8802 
2 *466:30 *752:A1 9.24915 
*END

*D_NET *467 0.00443632
*CONN
*I *763:A1 I *D sky130_fd_sc_hd__o221ai_4
*I *1021:X O *D sky130_fd_sc_hd__buf_4
*CAP
1 *763:A1 0.00172861
2 *1021:X 0.00172861
3 *763:A1 *476:16 4.12977e-05
4 *520:A *763:A1 2.09449e-06
5 *747:A *763:A1 0.000394314
6 *1032:A *763:A1 0.000333233
7 *239:38 *763:A1 3.70027e-06
8 *251:31 *763:A1 1.73063e-05
9 *284:33 *763:A1 4.12977e-05
10 *358:22 *763:A1 6.90427e-05
11 *361:24 *763:A1 1.64979e-05
12 *384:18 *763:A1 6.03237e-05
*RES
1 *1021:X *763:A1 40.2722 
*END

*D_NET *468 0.00361282
*CONN
*I *763:C1 I *D sky130_fd_sc_hd__o221ai_4
*I *1022:X O *D sky130_fd_sc_hd__buf_4
*CAP
1 *763:C1 0
2 *1022:X 0.000952298
3 *468:22 0.000952298
4 *468:22 *501:24 0.000547489
5 *539:B1 *468:22 1.19726e-05
6 *540:A2 *468:22 0.000154145
7 *540:B1 *468:22 3.31745e-05
8 *600:A2 *468:22 4.34951e-05
9 *1033:A *468:22 5.9036e-05
10 *291:14 *468:22 6.08467e-05
11 *311:44 *468:22 9.78191e-05
12 *340:16 *468:22 1.50924e-05
13 *367:10 *468:22 0.000685157
*RES
1 *1022:X *468:22 45.5921 
2 *468:22 *763:C1 9.24915 
*END

*D_NET *469 0.000286683
*CONN
*I *522:C1 I *D sky130_fd_sc_hd__a221oi_4
*I *1023:X O *D sky130_fd_sc_hd__buf_4
*CAP
1 *522:C1 9.27618e-05
2 *1023:X 9.27618e-05
3 *1023:A *522:C1 6.08467e-05
4 *233:12 *522:C1 2.61147e-05
5 *311:20 *522:C1 1.41976e-05
*RES
1 *1023:X *522:C1 20.9096 
*END

*D_NET *475 0.00527618
*CONN
*I *528:C I *D sky130_fd_sc_hd__nor3_4
*I *527:B1 I *D sky130_fd_sc_hd__a21oi_4
*I *1029:X O *D sky130_fd_sc_hd__buf_6
*CAP
1 *528:C 0.000324493
2 *527:B1 0.000917216
3 *1029:X 6.40516e-05
4 *475:8 0.00130576
5 *527:B1 *494:16 3.85659e-05
6 *528:C *592:B 0.000327828
7 *528:C *510:16 0
8 *526:B *527:B1 7.78924e-05
9 *528:A *527:B1 0.000102056
10 *528:B *528:C 9.17136e-05
11 *532:B *527:B1 7.29746e-05
12 *579:A1 *527:B1 0.00025233
13 *633:A1 *527:B1 0.00013832
14 *928:A *527:B1 3.52873e-06
15 *928:A *528:C 0
16 *928:A *475:8 0
17 *992:A *527:B1 0.000258216
18 *1002:A *527:B1 0.000745113
19 *1048:A *527:B1 0.000160383
20 *52:12 *527:B1 1.1957e-05
21 *165:14 *527:B1 4.61207e-05
22 *306:10 *528:C 5.62332e-05
23 *429:16 *527:B1 2.91639e-05
24 *432:33 *475:8 1.40761e-06
25 *435:16 *528:C 3.00829e-05
26 *452:14 *528:C 7.09395e-05
27 *452:31 *528:C 0.000116866
28 *452:31 *475:8 3.29623e-05
*RES
1 *1029:X *475:8 15.3735 
2 *475:8 *527:B1 48.6831 
3 *475:8 *528:C 26.063 
*END

*D_NET *476 0.0110746
*CONN
*I *744:C I *D sky130_fd_sc_hd__nor4_4
*I *942:A I *D sky130_fd_sc_hd__buf_4
*I *943:A I *D sky130_fd_sc_hd__buf_4
*I *740:B1 I *D sky130_fd_sc_hd__a211oi_1
*I *1030:X O *D sky130_fd_sc_hd__buf_4
*CAP
1 *744:C 6.40217e-05
2 *942:A 0.000110479
3 *943:A 0.000781731
4 *740:B1 7.98254e-05
5 *1030:X 0.000962225
6 *476:28 0.00123268
7 *476:22 0.00146475
8 *476:16 0.00200939
9 *942:A *501:24 4.04055e-05
10 *943:A *503:18 0.000121319
11 *476:28 *503:18 7.14746e-05
12 *516:B1 *476:22 0.000769407
13 *516:B1 *476:28 0.000504861
14 *516:C1 *740:B1 0.000107496
15 *518:C1 *476:16 3.83492e-06
16 *522:B2 *943:A 9.30883e-05
17 *525:A *943:A 8.39222e-06
18 *601:A *476:22 2.65667e-05
19 *609:A *943:A 4.18989e-05
20 *609:A *476:28 7.50722e-05
21 *739:B *744:C 1.03403e-05
22 *740:A1 *943:A 2.09353e-05
23 *741:A1 *476:16 0.000164034
24 *741:B1 *476:16 3.85534e-05
25 *744:B *476:22 2.02035e-05
26 *750:B *943:A 0.000104977
27 *759:A *476:22 9.60366e-05
28 *763:A1 *476:16 4.12977e-05
29 *773:A *476:16 0
30 *775:A2 *476:22 0.000118234
31 *776:C1 *476:22 7.72144e-06
32 *968:A *476:16 0.000157191
33 *1000:A *476:16 0.000132408
34 *1030:A *476:16 2.16355e-05
35 *169:14 *943:A 0
36 *221:14 *476:22 9.80242e-07
37 *259:369 *476:16 2.65831e-05
38 *266:10 *476:16 2.30295e-05
39 *284:33 *476:16 6.83379e-05
40 *284:33 *476:22 3.26822e-05
41 *315:10 *943:A 0
42 *315:10 *476:16 2.41274e-06
43 *320:22 *943:A 0.000389122
44 *321:16 *476:16 7.98425e-06
45 *324:18 *943:A 1.23455e-05
46 *328:6 *744:C 0.000111802
47 *349:24 *476:16 0
48 *376:12 *942:A 1.5562e-05
49 *391:34 *942:A 2.09205e-05
50 *391:34 *476:22 0.000124157
51 *434:8 *943:A 0.000219671
52 *462:33 *476:16 0.000190836
53 *462:33 *476:22 0.000325711
*RES
1 *1030:X *476:16 35.9444 
2 *476:16 *476:22 23.9638 
3 *476:22 *476:28 11.6316 
4 *476:28 *740:B1 15.0271 
5 *476:28 *943:A 36.0018 
6 *476:22 *942:A 20.9116 
7 *476:16 *744:C 15.6059 
*END

*D_NET *477 0.00298276
*CONN
*I *756:C1 I *D sky130_fd_sc_hd__a211oi_1
*I *754:B I *D sky130_fd_sc_hd__nor2_1
*I *1031:X O *D sky130_fd_sc_hd__buf_4
*CAP
1 *756:C1 0.000275398
2 *754:B 0.000564506
3 *1031:X 0
4 *477:4 0.000839904
5 *562:A *754:B 1.40834e-05
6 *562:B *754:B 9.94284e-06
7 *754:A *754:B 0.000171701
8 *773:A *754:B 0.000108703
9 *773:C *754:B 9.80242e-07
10 *1031:A *754:B 0.000117376
11 *1031:A *756:C1 0.000192399
12 *178:70 *754:B 1.56049e-05
13 *178:70 *756:C1 0
14 *224:10 *754:B 6.97116e-05
15 *264:16 *756:C1 0.000137328
16 *267:10 *754:B 7.19887e-05
17 *289:10 *756:C1 1.27227e-05
18 *321:16 *756:C1 7.75133e-06
19 *349:24 *754:B 0.000173957
20 *349:24 *756:C1 2.57847e-05
21 *384:18 *756:C1 0.000172912
*RES
1 *1031:X *477:4 9.24915 
2 *477:4 *754:B 23.2348 
3 *477:4 *756:C1 26.3866 
*END

*D_NET *479 0.00178886
*CONN
*I *762:B I *D sky130_fd_sc_hd__nand4_1
*I *1033:X O *D sky130_fd_sc_hd__buf_6
*CAP
1 *762:B 0.000505093
2 *1033:X 0.000505093
3 *516:B2 *762:B 5.23577e-05
4 *600:A2 *762:B 0.000422393
5 *762:C *762:B 6.29446e-05
6 *762:D *762:B 2.43327e-05
7 *311:44 *762:B 0.000190391
8 *341:16 *762:B 7.28994e-06
9 *367:10 *762:B 1.27074e-05
10 *452:31 *762:B 6.25883e-06
*RES
1 *1033:X *762:B 47.8778 
*END

*D_NET *483 0.00362791
*CONN
*I *589:B I *D sky130_fd_sc_hd__nor2_4
*I *1037:X O *D sky130_fd_sc_hd__buf_4
*CAP
1 *589:B 0
2 *1037:X 0.00134741
3 *483:16 0.00134741
4 *483:16 *493:14 1.8078e-05
5 *597:A *483:16 7.14746e-05
6 *745:A1 *483:16 2.65831e-05
7 *745:B1 *483:16 3.07133e-05
8 *1016:A *483:16 0.000317635
9 *1037:A *483:16 6.20449e-05
10 *1047:A *483:16 5.04829e-06
11 *1051:A *483:16 1.90191e-05
12 *304:18 *483:16 0.00024065
13 *367:10 *483:16 0.000116971
14 *437:18 *483:16 2.48831e-05
*RES
1 *1037:X *483:16 46.6814 
2 *483:16 *589:B 13.7491 
*END

*D_NET *363 0.00296319
*CONN
*I *532:B I *D sky130_fd_sc_hd__xnor2_4
*I *914:X O *D sky130_fd_sc_hd__buf_6
*CAP
1 *532:B 0.000708139
2 *914:X 0.000708139
3 *532:B *527:B1 7.29746e-05
4 *532:B *528:A 0.000412372
5 *532:B *592:A 0.000124377
6 *532:B *494:16 0.000398186
7 *992:A *532:B 0.000111672
8 *209:8 *532:B 0.000302956
9 *306:10 *532:B 0.000124377
*RES
1 *914:X *532:B 48.1198 
*END

*D_NET *485 0.00123254
*CONN
*I *537:A I *D sky130_fd_sc_hd__xnor2_4
*I *1039:X O *D sky130_fd_sc_hd__buf_4
*CAP
1 *537:A 0.000427755
2 *1039:X 0.000427755
3 *537:B *537:A 1.03594e-05
4 *975:A *537:A 0.000213449
5 *389:45 *537:A 0
6 *406:12 *537:A 5.71992e-05
7 *424:8 *537:A 5.22855e-05
8 *482:22 *537:A 4.37416e-05
*RES
1 *1039:X *537:A 37.9788 
*END

*D_NET *486 0.000950815
*CONN
*I *990:A I *D sky130_fd_sc_hd__buf_4
*I *1040:X O *D sky130_fd_sc_hd__buf_4
*CAP
1 *990:A 0.000240476
2 *1040:X 0.000240476
3 *533:C1 *990:A 5.65074e-05
4 *583:B *990:A 0.000114584
5 *928:A *990:A 0.000148144
6 *1006:A *990:A 8.62625e-06
7 *1008:A *990:A 0.000122378
8 *213:16 *990:A 1.96227e-05
*RES
1 *1040:X *990:A 34.7664 
*END

*D_NET *487 0.00226126
*CONN
*I *933:A I *D sky130_fd_sc_hd__buf_6
*I *1041:X O *D sky130_fd_sc_hd__buf_6
*CAP
1 *933:A 0.000467138
2 *1041:X 0.000467138
3 *933:A *1041:A 0.000160942
4 *532:A *933:A 0.000207821
5 *537:B *933:A 0.000143642
6 *628:B *933:A 2.95757e-05
7 *901:A *933:A 2.41483e-05
8 *16:12 *933:A 0
9 *165:14 *933:A 4.33655e-05
10 *260:10 *933:A 0.000109421
11 *406:12 *933:A 0
12 *435:16 *933:A 0.00012982
13 *442:46 *933:A 0.000417399
14 *442:63 *933:A 6.08467e-05
*RES
1 *1041:X *933:A 44.7731 
*END

*D_NET *493 0.00354797
*CONN
*I *529:A1 I *D sky130_fd_sc_hd__o21ai_2
*I *1047:X O *D sky130_fd_sc_hd__buf_4
*CAP
1 *529:A1 0
2 *1047:X 0.000695766
3 *493:14 0.000695766
4 *529:A2 *493:14 0.000806022
5 *579:B1 *493:14 2.95757e-05
6 *1047:A *493:14 0.000183517
7 *214:8 *493:14 6.08467e-05
8 *220:23 *493:14 0.000212104
9 *259:286 *493:14 0.000468835
10 *259:305 *493:14 0.000377457
11 *483:16 *493:14 1.8078e-05
*RES
1 *1047:X *493:14 43.2663 
2 *493:14 *529:A1 9.24915 
*END

*D_NET *494 0.0043931
*CONN
*I *524:B I *D sky130_fd_sc_hd__nor4_4
*I *1048:X O *D sky130_fd_sc_hd__buf_6
*CAP
1 *524:B 0
2 *1048:X 0.00116591
3 *494:16 0.00116591
4 *494:16 *503:18 0.000158002
5 *527:B1 *494:16 3.85659e-05
6 *532:B *494:16 0.000398186
7 *578:A2 *494:16 7.75163e-05
8 *592:A *494:16 0.00015607
9 *454:36 *494:16 3.98489e-05
10 *461:48 *494:16 0.0011931
*RES
1 *1048:X *494:16 43.1763 
2 *494:16 *524:B 9.24915 
*END

*D_NET *496 0.00144961
*CONN
*I *591:C I *D sky130_fd_sc_hd__xor3_1
*I *1050:X O *D sky130_fd_sc_hd__buf_4
*CAP
1 *591:C 0.000568291
2 *1050:X 0.000568291
3 *591:B *591:C 0.000107496
4 *259:16 *591:C 0.00020553
*RES
1 *1050:X *591:C 31.3265 
*END

*D_NET *497 0.00234183
*CONN
*I *515:B I *D sky130_fd_sc_hd__xor2_2
*I *1051:X O *D sky130_fd_sc_hd__buf_4
*CAP
1 *515:B 0.000374874
2 *1051:X 0.000374874
3 *515:B *503:18 0.000780628
4 *515:B *505:18 5.04829e-06
5 *522:A2 *515:B 9.61086e-05
6 *600:A2 *515:B 7.84267e-05
7 *924:A *515:B 0.000213661
8 *1051:A *515:B 6.27782e-05
9 *219:14 *515:B 6.08467e-05
10 *324:18 *515:B 0.000222408
11 *325:14 *515:B 7.21753e-05
12 *461:44 *515:B 0
*RES
1 *1051:X *515:B 35.1497 
*END

*D_NET *499 0.00456253
*CONN
*I *592:B I *D sky130_fd_sc_hd__nand2_2
*I *1053:X O *D sky130_fd_sc_hd__buf_4
*CAP
1 *592:B 0.000146988
2 *1053:X 0.00113819
3 *499:14 0.00128517
4 *528:C *592:B 0.000327828
5 *688:B *499:14 0
6 *928:A *592:B 9.41902e-05
7 *939:A *499:14 0.000666435
8 *1059:A *499:14 0.000193468
9 *193:8 *499:14 0.000211478
10 *341:16 *499:14 8.01687e-05
11 *388:10 *499:14 1.65351e-05
12 *436:8 *499:14 0.000402073
*RES
1 *1053:X *499:14 45.6771 
2 *499:14 *592:B 19.7337 
*END

*D_NET *360 0.00237399
*CONN
*I *950:A I *D sky130_fd_sc_hd__buf_4
*I *911:X O *D sky130_fd_sc_hd__buf_4
*CAP
1 *950:A 0.000579641
2 *911:X 0.000579641
3 *950:A *432:63 2.00548e-06
4 *950:A *433:20 0.000146043
5 *950:A *443:16 3.9273e-05
6 *950:A *514:10 0
7 *750:A *950:A 0.000340286
8 *1045:A *950:A 0.000267718
9 *39:10 *950:A 6.79265e-05
10 *109:18 *950:A 0.000169255
11 *259:305 *950:A 0.000182199
*RES
1 *911:X *950:A 47.0044 
*END

*D_NET *501 0.00501451
*CONN
*I *521:A I *D sky130_fd_sc_hd__xor2_2
*I *1055:X O *D sky130_fd_sc_hd__buf_6
*CAP
1 *521:A 0.000162773
2 *1055:X 0.00103852
3 *501:24 0.00120129
4 *521:B *521:A 3.186e-05
5 *521:B *501:24 1.61631e-05
6 *750:A *521:A 0.000597615
7 *750:A *501:24 9.25416e-05
8 *750:B *501:24 5.69911e-05
9 *938:A *521:A 2.30636e-05
10 *942:A *501:24 4.04055e-05
11 *168:16 *521:A 0.000300911
12 *169:14 *501:24 7.57919e-05
13 *237:6 *501:24 0.000216458
14 *238:24 *501:24 0
15 *311:44 *501:24 9.09658e-05
16 *367:10 *501:24 4.30985e-05
17 *391:34 *501:24 1.5714e-05
18 *420:64 *521:A 4.09965e-05
19 *420:64 *501:24 0.000421863
20 *468:22 *501:24 0.000547489
*RES
1 *1055:X *501:24 48.2881 
2 *501:24 *521:A 17.3753 
*END

*D_NET *502 0.00525176
*CONN
*I *617:B I *D sky130_fd_sc_hd__xnor2_4
*I *1056:X O *D sky130_fd_sc_hd__buf_6
*CAP
1 *617:B 0.00202203
2 *1056:X 0.00202203
3 *516:A2 *617:B 0.000712179
4 *520:A *617:B 0
5 *614:B1 *617:B 1.51017e-05
6 *687:D *617:B 1.46423e-05
7 *754:A *617:B 2.42256e-05
8 *777:B *617:B 1.32553e-05
9 *174:14 *617:B 3.77568e-05
10 *370:18 *617:B 4.04447e-05
11 *383:117 *617:B 3.82228e-05
12 *390:180 *617:B 0.000269424
13 *401:28 *617:B 0
14 *446:23 *617:B 4.24488e-05
*RES
1 *1056:X *617:B 42.0074 
*END

*D_NET *503 0.00522093
*CONN
*I *522:A1 I *D sky130_fd_sc_hd__a221oi_4
*I *1057:X O *D sky130_fd_sc_hd__buf_6
*CAP
1 *522:A1 5.94375e-05
2 *1057:X 0.000811535
3 *503:18 0.000870972
4 *503:18 *522:B1 0.000832837
5 *503:18 *505:18 0.000295164
6 *522:B2 *503:18 0.000109235
7 *522:A2 *522:A1 9.39505e-05
8 *609:A *503:18 4.39171e-05
9 *515:B *503:18 0.000780628
10 *744:D *503:18 0.000186488
11 *924:A *503:18 8.70662e-06
12 *943:A *503:18 0.000121319
13 *1057:A *503:18 0.000218636
14 *169:14 *522:A1 0.000101472
15 *239:38 *503:18 2.22654e-05
16 *306:10 *503:18 1.52497e-05
17 *324:18 *503:18 0.00035686
18 *454:36 *503:18 6.27782e-05
19 *476:28 *503:18 7.14746e-05
20 *494:16 *503:18 0.000158002
*RES
1 *1057:X *503:18 48.4807 
2 *503:18 *522:A1 19.1576 
*END

*D_NET *504 0.00156274
*CONN
*I *1041:A I *D sky130_fd_sc_hd__buf_6
*I *1058:X O *D sky130_fd_sc_hd__buf_6
*CAP
1 *1041:A 0.000344622
2 *1058:X 0.000344622
3 *588:A *1041:A 5.74837e-05
4 *933:A *1041:A 0.000160942
5 *1040:A *1041:A 0.00032616
6 *196:36 *1041:A 1.82304e-05
7 *424:27 *1041:A 2.76257e-05
8 *424:52 *1041:A 0.000154791
9 *435:16 *1041:A 0.000128264
*RES
1 *1058:X *1041:A 39.3905 
*END

*D_NET *505 0.00697716
*CONN
*I *522:B1 I *D sky130_fd_sc_hd__a221oi_4
*I *1059:X O *D sky130_fd_sc_hd__buf_6
*CAP
1 *522:B1 0.000845869
2 *1059:X 0.00100296
3 *505:18 0.00184883
4 *505:18 *510:16 0.000364714
5 *525:A *522:B1 0.000162537
6 *578:A1 *505:18 4.81714e-05
7 *592:A *505:18 0.000107805
8 *603:B1 *522:B1 0.000238117
9 *609:A *522:B1 7.28994e-06
10 *515:B *505:18 5.04829e-06
11 *740:A1 *522:B1 0.000120605
12 *745:A3 *522:B1 0.00017419
13 *1010:A *522:B1 7.70553e-05
14 *1011:A *522:B1 7.47544e-05
15 *1051:A *505:18 7.92757e-06
16 *1059:A *505:18 0.000122641
17 *233:12 *522:B1 0.000301178
18 *306:10 *522:B1 3.53777e-05
19 *320:22 *522:B1 0
20 *372:12 *505:18 2.22342e-05
21 *437:18 *522:B1 9.12137e-05
22 *454:36 *505:18 0.000190647
23 *461:44 *505:18 0
24 *503:18 *522:B1 0.000832837
25 *503:18 *505:18 0.000295164
*RES
1 *1059:X *505:18 44.34 
2 *505:18 *522:B1 42.7613 
*END

*D_NET *506 0.00114027
*CONN
*I *585:B I *D sky130_fd_sc_hd__xnor2_4
*I *1060:X O *D sky130_fd_sc_hd__buf_4
*CAP
1 *585:B 0.000275149
2 *1060:X 0.000275149
3 *538:B *585:B 0.000191544
4 *584:B *585:B 0
5 *584:C *585:B 1.87469e-05
6 *585:A *585:B 4.0752e-05
7 *624:A1 *585:B 4.52469e-05
8 *945:A *585:B 0.000223944
9 *1060:A *585:B 3.32644e-05
10 *482:22 *585:B 3.6473e-05
*RES
1 *1060:X *585:B 35.8941 
*END

*D_NET *510 0.00319571
*CONN
*I *536:B I *D sky130_fd_sc_hd__xnor2_4
*I *1064:X O *D sky130_fd_sc_hd__buf_6
*CAP
1 *536:B 0
2 *1064:X 0.00059813
3 *510:16 0.00059813
4 *528:C *510:16 0
5 *578:A1 *510:16 3.71168e-05
6 *587:B *510:16 0
7 *591:B *510:16 0.000234332
8 *592:A *510:16 0.000346137
9 *1059:A *510:16 0.000114594
10 *306:10 *510:16 0.000331059
11 *372:12 *510:16 6.50727e-05
12 *423:27 *510:16 0.000462028
13 *454:36 *510:16 4.43961e-05
14 *505:18 *510:16 0.000364714
*RES
1 *1064:X *510:16 41.3801 
2 *510:16 *536:B 9.24915 
*END

*D_NET *511 0.00213386
*CONN
*I *558:B I *D sky130_fd_sc_hd__nand2_1
*I *1065:X O *D sky130_fd_sc_hd__buf_4
*CAP
1 *558:B 0.000478003
2 *1065:X 0.000478003
3 *558:B *778:B 0.000175555
4 *615:A2 *558:B 1.03594e-05
5 *615:B1 *558:B 0
6 *666:A0 *558:B 0.000277242
7 *666:S *558:B 0
8 *710:CLK *558:B 3.72857e-05
9 *257:12 *558:B 0
10 *390:211 *558:B 0.000658287
11 *492:90 *558:B 1.91246e-05
*RES
1 *1065:X *558:B 41.6979 
*END

*D_NET *512 0.00536007
*CONN
*I *778:A I *D sky130_fd_sc_hd__nor2_1
*I *616:A1 I *D sky130_fd_sc_hd__o21ai_0
*I *1066:X O *D sky130_fd_sc_hd__buf_4
*CAP
1 *778:A 3.21379e-05
2 *616:A1 0.00141431
3 *1066:X 0.000215741
4 *512:12 0.00166219
5 *778:A *778:B 0
6 resp_msg[14] *512:12 0.00015607
7 *520:B *616:A1 0.000283209
8 *543:B1 *616:A1 0.000248376
9 *550:B *616:A1 6.08467e-05
10 *549:B *616:A1 2.16355e-05
11 *743:A *616:A1 1.05272e-06
12 *743:B *616:A1 1.07038e-05
13 *897:A *778:A 9.9774e-06
14 *897:A *512:12 0.00025233
15 *979:A *512:12 0.00013832
16 *989:A *616:A1 5.04829e-06
17 *253:8 *616:A1 0.000640885
18 *284:18 *616:A1 6.89142e-05
19 *436:50 *512:12 0.00013832
20 *444:8 *616:A1 0
*RES
1 *1066:X *512:12 25.5173 
2 *512:12 *616:A1 44.4781 
3 *512:12 *778:A 10.2378 
*END

*D_NET *513 0.00202769
*CONN
*I *778:B I *D sky130_fd_sc_hd__nor2_1
*I *1067:X O *D sky130_fd_sc_hd__buf_4
*CAP
1 *778:B 0.000442576
2 *1067:X 0.000442576
3 *545:B1 *778:B 7.49822e-05
4 *558:B *778:B 0.000175555
5 *615:A2 *778:B 5.43261e-05
6 *616:A2 *778:B 6.27782e-05
7 *666:A1 *778:B 0.000119035
8 *710:CLK *778:B 7.09666e-06
9 *778:A *778:B 0
10 *910:A *778:B 0.00015607
11 *1067:A *778:B 6.08467e-05
12 *253:8 *778:B 0.00039981
13 *253:25 *778:B 3.20407e-05
*RES
1 *1067:X *778:B 42.0536 
*END

*D_NET *470 0.00496213
*CONN
*I *949:A I *D sky130_fd_sc_hd__buf_4
*I *1024:X O *D sky130_fd_sc_hd__buf_4
*CAP
1 *949:A 0
2 *1024:X 0.00138281
3 *470:28 0.00138281
4 *470:28 *633:S 3.49022e-05
5 *531:A *470:28 0.000984038
6 *531:B *470:28 0.000156191
7 *603:A1 *470:28 6.08467e-05
8 *673:A0 *470:28 0.000553213
9 *954:A *470:28 1.91391e-05
10 *1052:A *470:28 0.000279878
11 *166:18 *470:28 2.16355e-05
12 *403:14 *470:28 3.55968e-05
13 *435:45 *470:28 1.48603e-05
14 *453:10 *470:28 3.61993e-05
*RES
1 *1024:X *470:28 49.4234 
2 *470:28 *949:A 9.24915 
*END

*D_NET *491 0.00755399
*CONN
*I *518:A1 I *D sky130_fd_sc_hd__o211ai_1
*I *1045:X O *D sky130_fd_sc_hd__buf_4
*CAP
1 *518:A1 0.000285906
2 *1045:X 7.20192e-05
3 *491:26 0.00230131
4 *491:10 0.00208742
5 *518:B1 *518:A1 2.68354e-05
6 *518:C1 *518:A1 3.5534e-06
7 *564:C *491:26 0.000162583
8 *642:A1 *491:26 0.000473372
9 *648:A1 *491:26 6.08467e-05
10 *677:A0 *518:A1 1.40858e-05
11 *677:A1 *518:A1 2.652e-05
12 *741:C1 *491:26 5.05252e-05
13 *886:A *491:26 1.55462e-05
14 *905:A *491:26 1.80647e-05
15 *1068:A *491:10 0
16 *61:14 *491:26 0.000809584
17 *262:12 *491:26 5.41377e-05
18 *265:10 *491:26 8.62625e-06
19 *358:72 *491:26 3.79805e-05
20 *390:134 *491:26 6.90268e-06
21 *392:16 *518:A1 0.00025175
22 *392:16 *491:26 0.000643089
23 *399:18 *491:26 1.76348e-05
24 *443:16 *491:10 0.000125695
*RES
1 *1045:X *491:10 20.4964 
2 *491:10 *491:26 49.295 
3 *491:26 *518:A1 28.3535 
*END

*D_NET *120 0.0122545
*CONN
*P clk I
*I *983:A I *D sky130_fd_sc_hd__clkbuf_8
*CAP
1 clk 0.00595374
2 *983:A 4.38539e-05
3 *120:22 0.0059976
4 *983:A *531:B 2.44829e-05
5 *983:A *603:B1 2.65667e-05
6 *120:22 *522:B2 0
7 *120:22 *685:B2 0.000172966
8 *120:22 *689:D 0
9 *120:22 *305:18 1.32315e-05
10 *120:22 *432:27 1.2128e-05
11 *120:22 *452:31 9.93366e-06
12 *120:22 *490:27 0
*RES
1 clk *120:22 16.3668 
2 *120:22 *983:A 15.0271 
*END

*D_NET *432 0.0184935
*CONN
*I *995:A I *D sky130_fd_sc_hd__clkbuf_8
*I *997:A I *D sky130_fd_sc_hd__clkbuf_8
*I *996:A I *D sky130_fd_sc_hd__clkbuf_8
*I *980:A I *D sky130_fd_sc_hd__clkbuf_8
*I *983:X O *D sky130_fd_sc_hd__clkbuf_8
*CAP
1 *995:A 6.2843e-05
2 *997:A 5.37019e-05
3 *996:A 2.71347e-05
4 *980:A 6.49598e-05
5 *983:X 0
6 *432:117 0.000301235
7 *432:95 0.00291241
8 *432:79 0.00395966
9 *432:63 0.00214601
10 *432:39 0.00063833
11 *432:33 0.00352589
12 *432:27 0.0024821
13 *432:8 0.000785892
14 *995:A *478:26 4.35303e-05
15 *432:27 *1037:A 3.16403e-06
16 *432:27 *452:31 0.000166587
17 *432:33 *1037:A 4.33684e-06
18 *432:33 *452:31 4.18219e-06
19 *432:33 *475:8 1.40761e-06
20 *432:63 *459:65 0
21 *432:63 *514:10 1.32315e-05
22 *432:117 *478:26 5.75886e-05
23 *518:A2 *432:95 8.10016e-06
24 *522:B2 *432:79 0.0002925
25 *522:B2 *432:117 6.7026e-05
26 *525:B *432:27 2.1295e-05
27 *526:A *432:27 5.33429e-05
28 *577:A1 *432:79 1.97552e-05
29 *577:A1 *432:117 1.03328e-05
30 *578:A2 *432:117 0
31 *747:A *432:95 3.89726e-05
32 *767:A *995:A 4.17531e-06
33 *767:A *432:117 0
34 *911:A *996:A 2.65831e-05
35 *928:A *432:33 8.49123e-06
36 *950:A *432:63 2.00548e-06
37 *16:12 *432:39 0.000162813
38 *107:10 *432:39 0.000162271
39 *120:22 *432:27 1.2128e-05
40 *167:16 *432:63 2.22553e-05
41 *170:16 *432:95 5.40891e-05
42 *259:305 *432:63 1.15993e-05
43 *305:18 *432:27 6.9239e-05
44 *341:16 *432:117 5.25732e-05
45 *358:22 *432:95 3.96853e-05
46 *384:18 *432:63 2.41143e-06
47 *384:18 *432:95 0
48 *420:64 *997:A 3.11248e-05
49 *429:16 *980:A 6.65367e-05
*RES
1 *983:X *432:8 17.1179 
2 *432:8 *432:27 13.6988 
3 *432:27 *432:33 6.51275 
4 *432:33 *432:39 10.6762 
5 *432:39 *980:A 15.5817 
6 *432:33 *432:63 8.52642 
7 *432:63 *996:A 14.4725 
8 *432:27 *432:79 5.67513 
9 *432:79 *432:95 10.2687 
10 *432:95 *997:A 15.0271 
11 *432:79 *432:117 11.3431 
12 *432:117 *995:A 11.1661 
*END

*D_NET *429 0.017519
*CONN
*I *998:A I *D sky130_fd_sc_hd__bufinv_16
*I *730:CLK I *D sky130_fd_sc_hd__edfxtp_1
*I *714:CLK I *D sky130_fd_sc_hd__edfxtp_1
*I *728:CLK I *D sky130_fd_sc_hd__edfxtp_1
*I *712:CLK I *D sky130_fd_sc_hd__edfxtp_1
*I *721:CLK I *D sky130_fd_sc_hd__edfxtp_1
*I *729:CLK I *D sky130_fd_sc_hd__edfxtp_1
*I *705:CLK I *D sky130_fd_sc_hd__edfxtp_1
*I *980:X O *D sky130_fd_sc_hd__clkbuf_8
*CAP
1 *998:A 0.000130376
2 *730:CLK 0.000515282
3 *714:CLK 0
4 *728:CLK 0
5 *712:CLK 0
6 *721:CLK 0.0002113
7 *729:CLK 0.00139658
8 *705:CLK 0
9 *980:X 0.00178859
10 *429:104 0.0010395
11 *429:87 0.000449562
12 *429:36 0.00148826
13 *429:32 0.000563024
14 *429:28 0.000536447
15 *429:20 0.000853671
16 *429:18 0.000632988
17 *429:16 0.00178859
18 *729:CLK *626:A2 0.000289732
19 *730:CLK *715:CLK 0
20 *730:CLK *731:DE 9.43419e-05
21 *730:CLK *433:40 0.000270056
22 *730:CLK *459:21 0.000232784
23 *998:A *672:A0 0.000248749
24 *998:A *433:40 1.73377e-05
25 *429:16 *527:B1 2.91639e-05
26 *429:16 *980:A 6.65367e-05
27 *429:32 *721:DE 0.000344849
28 *429:32 *433:42 0.000186763
29 *429:104 *672:A0 0.000159032
30 *429:104 *433:40 1.49898e-05
31 resp_msg[1] *429:20 0.000358592
32 resp_msg[4] *730:CLK 0
33 resp_msg[4] *429:104 0.000212532
34 *595:B *429:16 0.000117376
35 *596:A *429:16 8.09261e-05
36 *596:B *429:16 0.000111654
37 *626:B1 *429:32 0.000297292
38 *626:B1 *429:36 0.000122068
39 *637:A *730:CLK 0.000288529
40 *672:A1 *429:104 1.85432e-05
41 *672:S *998:A 9.70163e-05
42 *705:D *729:CLK 0.000200042
43 *705:DE *729:CLK 3.39728e-05
44 *712:D *429:28 6.08467e-05
45 *712:D *429:32 2.86829e-05
46 *713:D *729:CLK 3.55785e-05
47 *713:DE *729:CLK 7.59468e-05
48 *714:D *429:16 5.7176e-05
49 *730:D *998:A 0.000114271
50 *856:A *429:32 0
51 *863:A *429:32 0
52 *864:A *429:20 1.5714e-05
53 *866:A *429:104 4.10791e-05
54 *882:A *730:CLK 9.52916e-06
55 *960:A *429:28 0.00025527
56 *1002:A *429:16 4.65647e-06
57 *16:12 *429:16 9.13603e-05
58 *31:6 *429:16 2.68666e-06
59 *32:12 *729:CLK 0.000255147
60 *35:12 *729:CLK 8.72921e-05
61 *43:12 *429:32 0
62 *43:12 *429:36 0
63 *47:12 *429:20 2.62008e-05
64 *88:26 *721:CLK 6.37652e-06
65 *92:16 *730:CLK 0.000435035
66 *165:14 *429:16 0.000152207
67 *213:16 *429:16 0.000404561
68 *390:35 *429:104 6.08467e-05
69 *390:49 *429:20 0
70 *390:53 *429:32 0
71 *390:53 *429:36 0
72 *409:12 *429:28 1.14605e-05
*RES
1 *980:X *429:16 48.7276 
2 *429:16 *429:18 4.5 
3 *429:18 *429:20 12.2133 
4 *429:20 *429:28 12.0829 
5 *429:28 *429:32 15.4675 
6 *429:32 *429:36 7.1625 
7 *429:36 *705:CLK 9.24915 
8 *429:36 *729:CLK 43.1523 
9 *429:32 *721:CLK 17.125 
10 *429:28 *712:CLK 9.24915 
11 *429:20 *728:CLK 13.7491 
12 *429:18 *429:87 1.41674 
13 *429:87 *714:CLK 13.7491 
14 *429:87 *429:104 19.69 
15 *429:104 *730:CLK 33.2294 
16 *429:104 *998:A 19.1286 
*END

*D_NET *444 0.0204065
*CONN
*I *710:CLK I *D sky130_fd_sc_hd__edfxtp_1
*I *726:CLK I *D sky130_fd_sc_hd__edfxtp_1
*I *723:CLK I *D sky130_fd_sc_hd__edfxtp_1
*I *724:CLK I *D sky130_fd_sc_hd__edfxtp_1
*I *725:CLK I *D sky130_fd_sc_hd__edfxtp_1
*I *709:CLK I *D sky130_fd_sc_hd__edfxtp_1
*I *708:CLK I *D sky130_fd_sc_hd__edfxtp_1
*I *707:CLK I *D sky130_fd_sc_hd__edfxtp_1
*I *999:A I *D sky130_fd_sc_hd__clkbuf_8
*I *713:CLK I *D sky130_fd_sc_hd__edfxtp_1
*I *995:X O *D sky130_fd_sc_hd__clkbuf_8
*CAP
1 *710:CLK 0.000783634
2 *726:CLK 0.000273488
3 *723:CLK 0.0001641
4 *724:CLK 0
5 *725:CLK 0.000369315
6 *709:CLK 0.00015821
7 *708:CLK 0
8 *707:CLK 6.44992e-05
9 *999:A 0.000121487
10 *713:CLK 0
11 *995:X 0.000151265
12 *444:76 0.000794872
13 *444:49 0.000329855
14 *444:47 0.000451662
15 *444:36 0.00274751
16 *444:28 0.00369171
17 *444:22 0.00106281
18 *444:20 0.000368665
19 *444:16 0.000464761
20 *444:14 0.000979539
21 *444:8 0.0015499
22 *710:CLK *558:B 3.72857e-05
23 *710:CLK *778:B 7.09666e-06
24 *725:CLK *725:DE 0.000139981
25 *444:8 *616:A1 0
26 *444:20 *459:65 9.12416e-06
27 *444:22 *459:65 2.02035e-05
28 resp_msg[12] *444:47 0.000508528
29 *543:B1 *444:8 0
30 *545:B1 *710:CLK 4.69495e-06
31 *549:B *710:CLK 0.000109421
32 *551:B *444:76 6.88361e-05
33 *552:B *444:76 0.000163428
34 *575:A *444:14 8.12426e-06
35 *578:A2 *444:14 0
36 *616:A2 *710:CLK 0.000112361
37 *630:S *707:CLK 0.000138623
38 *658:A *707:CLK 1.07248e-05
39 *659:B1 *444:16 0
40 *659:B1 *444:20 3.07196e-05
41 *661:A *709:CLK 1.64789e-05
42 *666:S *710:CLK 0.00018574
43 *681:A0 *444:76 6.50586e-05
44 *688:B *444:14 0
45 *707:DE *444:47 0.000146655
46 *707:DE *444:49 6.08467e-05
47 *708:D *444:47 0.000279176
48 *709:D *709:CLK 9.75356e-05
49 *709:DE *444:16 6.0235e-05
50 *713:D *444:36 0
51 *713:DE *444:36 3.60082e-05
52 *724:D *725:CLK 2.20702e-05
53 *724:D *444:22 0
54 *724:D *444:76 4.73838e-05
55 *726:DE *726:CLK 1.50924e-05
56 *858:A *444:28 0
57 *858:A *444:47 0.000508528
58 *877:A *725:CLK 2.65667e-05
59 *895:A *707:CLK 7.37431e-05
60 *932:A *444:14 5.33053e-05
61 *964:A *444:22 1.87469e-05
62 *964:A *444:28 7.0954e-05
63 *1067:A *710:CLK 0.000110458
64 *7:18 *444:22 3.88655e-06
65 *22:8 *726:CLK 1.52578e-05
66 *23:10 *444:14 0
67 *23:10 *444:16 0
68 *124:16 *725:CLK 0.000111722
69 *124:16 *444:76 0.000164815
70 *211:10 *444:47 8.19163e-05
71 *259:16 *999:A 5.84505e-05
72 *259:16 *444:49 5.20218e-05
73 *259:22 *444:47 3.30101e-05
74 *259:50 *444:20 0
75 *278:25 *710:CLK 1.3808e-05
76 *280:16 *444:76 0.000262405
77 *282:22 *723:CLK 0.000315492
78 *282:22 *444:20 0.000141864
79 *283:10 *444:14 0
80 *284:18 *710:CLK 3.96696e-05
81 *284:18 *444:8 0.000130427
82 *330:27 *723:CLK 0
83 *330:27 *726:CLK 9.04906e-05
84 *330:27 *444:16 0
85 *330:27 *444:20 0
86 *330:27 *444:28 0
87 *378:12 *444:20 0
88 *390:211 *710:CLK 0.000111645
89 *390:211 *444:14 0.000716152
90 *390:211 *444:16 8.36586e-06
91 *413:22 *444:20 1.15099e-05
92 *413:22 *444:22 8.27205e-05
93 *413:22 *444:28 6.31809e-05
94 *442:128 *444:28 0
95 *442:144 *709:CLK 0.000106721
*RES
1 *995:X *444:8 17.0345 
2 *444:8 *444:14 17.4772 
3 *444:14 *444:16 2.03962 
4 *444:16 *444:20 6.241 
5 *444:20 *444:22 3.90826 
6 *444:22 *444:28 15.9234 
7 *444:28 *444:36 49.1291 
8 *444:36 *713:CLK 9.24915 
9 *444:28 *444:47 24.5353 
10 *444:47 *444:49 3.49641 
11 *444:49 *999:A 12.191 
12 *444:49 *707:CLK 21.3269 
13 *444:47 *708:CLK 9.24915 
14 *444:22 *444:76 12.9878 
15 *444:76 *709:CLK 22.3478 
16 *444:76 *725:CLK 18.8703 
17 *444:20 *724:CLK 13.7491 
18 *444:16 *723:CLK 18.8699 
19 *444:14 *726:CLK 20.0186 
20 *444:8 *710:CLK 26.5725 
*END

*D_NET *445 0.0155775
*CONN
*I *718:CLK I *D sky130_fd_sc_hd__edfxtp_1
*I *734:CLK I *D sky130_fd_sc_hd__edfxtp_1
*I *703:CLK I *D sky130_fd_sc_hd__dfxtp_1
*I *702:CLK I *D sky130_fd_sc_hd__dfxtp_4
*I *704:CLK I *D sky130_fd_sc_hd__dfxtp_1
*I *716:CLK I *D sky130_fd_sc_hd__edfxtp_1
*I *733:CLK I *D sky130_fd_sc_hd__edfxtp_1
*I *732:CLK I *D sky130_fd_sc_hd__edfxtp_1
*I *731:CLK I *D sky130_fd_sc_hd__edfxtp_1
*I *715:CLK I *D sky130_fd_sc_hd__edfxtp_1
*I *717:CLK I *D sky130_fd_sc_hd__edfxtp_1
*I *996:X O *D sky130_fd_sc_hd__clkbuf_8
*CAP
1 *718:CLK 5.22863e-05
2 *734:CLK 0.000155864
3 *703:CLK 0
4 *702:CLK 9.70338e-05
5 *704:CLK 0
6 *716:CLK 0
7 *733:CLK 0
8 *732:CLK 0
9 *731:CLK 0
10 *715:CLK 0.00062407
11 *717:CLK 0
12 *996:X 0.000864484
13 *445:121 0.000338792
14 *445:98 0.000283062
15 *445:94 0.00063921
16 *445:53 0.00111133
17 *445:51 0.000775106
18 *445:45 0.000493332
19 *445:37 0.000422937
20 *445:29 0.00195266
21 *445:16 0.00161823
22 *445:12 0.00133132
23 *445:12 *686:A 0.000147645
24 *445:12 *984:A 5.53928e-05
25 *445:12 *985:A 7.12632e-06
26 *445:12 *490:10 2.86353e-06
27 *445:51 *733:DE 6.27782e-05
28 *445:53 *459:21 0
29 resp_msg[5] *715:CLK 6.55124e-05
30 *623:B *445:29 6.48025e-05
31 *637:A *715:CLK 0.00016819
32 *637:B *715:CLK 6.27782e-05
33 *640:A *445:53 0.000148826
34 *673:A1 *715:CLK 7.66391e-06
35 *675:A1 *445:37 3.17325e-05
36 *675:S *445:37 0.000175227
37 *691:A *445:12 5.56358e-05
38 *693:B1 *445:37 0
39 *694:A1 *445:29 0.000119842
40 *694:A2 *445:29 6.90359e-05
41 *694:A2 *445:37 3.18408e-05
42 *694:A2 *445:45 0.000122844
43 *696:B_N *445:29 0.000157107
44 *697:A1 *445:29 0.000657147
45 *698:B *445:29 6.27782e-05
46 *702:D *702:CLK 1.32845e-05
47 *703:D *445:94 9.58927e-06
48 *704:D *702:CLK 3.55179e-05
49 *704:D *445:98 0.000397273
50 *715:DE *715:CLK 0.000268102
51 *717:D *445:16 0.000184658
52 *717:DE *445:16 3.42041e-05
53 *730:CLK *715:CLK 0
54 *733:D *445:37 0.000113188
55 *733:D *445:45 2.19092e-05
56 *869:A *445:53 0.000162584
57 *882:A *715:CLK 2.87136e-06
58 *884:A *445:45 0
59 *903:A *715:CLK 0.000109421
60 *911:A *445:12 0.00016553
61 *978:A *702:CLK 0.000126335
62 *982:A *445:29 1.4106e-05
63 *1045:A *445:12 7.50722e-05
64 *28:10 *718:CLK 1.43439e-05
65 *28:10 *445:12 0
66 *56:12 *715:CLK 0.000326558
67 *109:16 *445:12 0
68 *383:35 *445:16 2.53145e-06
69 *383:35 *445:29 4.69368e-05
70 *383:50 *445:29 1.43698e-05
71 *399:18 *445:12 0
72 *427:12 *445:29 2.32865e-05
73 *435:45 *715:CLK 6.27782e-05
74 *435:64 *715:CLK 0.00015901
75 *443:68 *718:CLK 4.59725e-05
76 *443:68 *445:16 1.43698e-05
77 *443:68 *445:121 9.72193e-05
*RES
1 *996:X *445:12 40.1848 
2 *445:12 *445:16 8.51196 
3 *445:16 *717:CLK 9.24915 
4 *445:16 *445:29 28.974 
5 *445:29 *445:37 11.3714 
6 *445:37 *445:45 14.3256 
7 *445:45 *445:51 11.4894 
8 *445:51 *445:53 13.4591 
9 *445:53 *715:CLK 34.1884 
10 *445:53 *731:CLK 13.7491 
11 *445:51 *732:CLK 13.7491 
12 *445:45 *733:CLK 9.24915 
13 *445:37 *716:CLK 9.24915 
14 *445:29 *445:94 11.2035 
15 *445:94 *445:98 11.315 
16 *445:98 *704:CLK 13.7491 
17 *445:98 *702:CLK 17.2421 
18 *445:94 *703:CLK 9.24915 
19 *445:12 *445:121 4.05102 
20 *445:121 *734:CLK 21.9056 
21 *445:121 *718:CLK 11.0817 
*END

*D_NET *446 0.0170657
*CONN
*I *706:CLK I *D sky130_fd_sc_hd__edfxtp_1
*I *720:CLK I *D sky130_fd_sc_hd__edfxtp_1
*I *735:CLK I *D sky130_fd_sc_hd__edfxtp_1
*I *719:CLK I *D sky130_fd_sc_hd__edfxtp_1
*I *736:CLK I *D sky130_fd_sc_hd__edfxtp_1
*I *722:CLK I *D sky130_fd_sc_hd__edfxtp_1
*I *711:CLK I *D sky130_fd_sc_hd__edfxtp_1
*I *727:CLK I *D sky130_fd_sc_hd__edfxtp_1
*I *1000:A I *D sky130_fd_sc_hd__clkinv_2
*I *997:X O *D sky130_fd_sc_hd__clkbuf_8
*CAP
1 *706:CLK 0
2 *720:CLK 6.30948e-05
3 *735:CLK 0
4 *719:CLK 0.000292727
5 *736:CLK 3.37551e-05
6 *722:CLK 3.57807e-05
7 *711:CLK 0.000495091
8 *727:CLK 0.000139336
9 *1000:A 0.000109582
10 *997:X 0.000132867
11 *446:105 0.00129414
12 *446:97 0.00180119
13 *446:82 0.000921864
14 *446:71 0.000465467
15 *446:63 0.000471133
16 *446:27 0.00088205
17 *446:23 0.000856944
18 *446:10 0.000658903
19 *711:CLK *466:30 0.000321419
20 *719:CLK *492:41 0.000110297
21 *1000:A *476:16 0.000132408
22 *446:23 *617:B 4.24488e-05
23 *446:27 *492:74 0
24 *446:71 *492:74 0.000199667
25 *446:82 *492:74 0.000350819
26 *446:97 *492:74 0.000131452
27 resp_msg[8] *719:CLK 9.23267e-05
28 *516:A2 *711:CLK 8.83417e-06
29 *541:C1 *711:CLK 0
30 *565:B *446:10 6.64392e-05
31 *567:B *446:82 0.000163478
32 *567:B *446:97 5.37077e-05
33 *646:A *719:CLK 0.000199369
34 *651:S *446:63 0.00034859
35 *651:S *446:71 2.6524e-05
36 *677:A0 *446:10 2.88863e-05
37 *678:A0 *446:97 1.94615e-05
38 *687:A *711:CLK 0
39 *687:C *446:27 0.000137585
40 *687:D *446:27 4.75721e-06
41 *719:D *719:CLK 1.50924e-05
42 *719:DE *446:105 2.84758e-05
43 *720:D *720:CLK 3.58321e-05
44 *722:D *446:71 0
45 *722:DE *446:82 0
46 *727:DE *446:27 1.50407e-05
47 *727:DE *446:71 0
48 *727:DE *446:82 0
49 *617:A *446:23 4.24488e-05
50 *741:A1 *446:23 9.76046e-05
51 *753:B *711:CLK 0.00036633
52 *872:A *446:105 0.000122098
53 *873:A *720:CLK 5.53934e-05
54 *906:A *719:CLK 0.000261406
55 *906:A *446:105 0.000125695
56 *935:A *446:71 0.00017686
57 *967:A *736:CLK 2.16355e-05
58 *25:10 *446:97 0.000199153
59 *157:20 *711:CLK 0.000299901
60 *170:16 *446:27 7.71052e-06
61 *176:16 *446:97 0
62 *179:14 *727:CLK 1.32605e-05
63 *179:14 *446:27 4.31083e-05
64 *179:16 *711:CLK 5.20719e-05
65 *179:16 *727:CLK 1.94472e-05
66 *179:50 *727:CLK 5.04829e-06
67 *253:25 *711:CLK 0.000497812
68 *264:10 *446:10 6.27718e-05
69 *264:10 *446:23 0.000533276
70 *266:10 *1000:A 5.75555e-05
71 *266:10 *446:10 0.000113713
72 *319:36 *711:CLK 3.38783e-05
73 *335:10 *711:CLK 2.02035e-05
74 *336:16 *711:CLK 2.26985e-05
75 *383:117 *446:23 3.81866e-05
76 *383:117 *446:63 2.75733e-05
77 *383:117 *446:71 1.56279e-05
78 *390:170 *446:105 0.000150777
79 *401:28 *446:10 0.000157944
80 *401:28 *446:23 8.8738e-05
81 *417:8 *446:10 2.41568e-05
82 *417:8 *446:23 0.000162843
83 *420:64 *446:10 0.000256146
84 *434:35 *719:CLK 7.92757e-06
85 *434:79 *446:82 0
86 *443:72 *446:97 0.00097258
87 *443:72 *446:105 0.000725288
*RES
1 *997:X *446:10 15.7115 
2 *446:10 *1000:A 21.3269 
3 *446:10 *446:23 12.9247 
4 *446:23 *446:27 10.2769 
5 *446:27 *727:CLK 17.1344 
6 *446:27 *711:CLK 31.7407 
7 *446:23 *446:63 5.73894 
8 *446:63 *446:71 12.6341 
9 *446:71 *722:CLK 14.4725 
10 *446:71 *446:82 6.39977 
11 *446:82 *736:CLK 14.4725 
12 *446:82 *446:97 19.945 
13 *446:97 *446:105 26.9449 
14 *446:105 *719:CLK 27.2346 
15 *446:105 *735:CLK 9.24915 
16 *446:97 *720:CLK 20.4964 
17 *446:63 *706:CLK 9.24915 
*END

*D_NET *128 0.00159937
*CONN
*I *625:A I *D sky130_fd_sc_hd__nand2_1
*I *863:X O *D sky130_fd_sc_hd__clkdlybuf4s50_1
*CAP
1 *625:A 0.000461482
2 *863:X 0.000461482
3 *625:A *625:B 6.3657e-05
4 *625:A *194:10 1.88014e-05
5 *625:A *433:65 2.41274e-06
6 *582:A *625:A 3.85049e-05
7 *582:B *625:A 2.77082e-05
8 *626:B1 *625:A 0.00052532
*RES
1 *863:X *625:A 32.9421 
*END

*D_NET *129 0.00361191
*CONN
*I *628:A I *D sky130_fd_sc_hd__nand2_1
*I *864:X O *D sky130_fd_sc_hd__clkdlybuf4s50_1
*CAP
1 *628:A 0
2 *864:X 0.00100178
3 *129:16 0.00100178
4 *129:16 *628:B 2.18935e-05
5 *129:16 *670:A1 5.51483e-06
6 *129:16 *899:A 0.000154145
7 *129:16 *163:18 0.000465078
8 *129:16 *259:220 7.55477e-05
9 *129:16 *259:228 0.00083423
10 *129:16 *442:46 5.19349e-05
*RES
1 *864:X *129:16 41.6543 
2 *129:16 *628:A 9.24915 
*END

*D_NET *130 0.00125926
*CONN
*I *631:A I *D sky130_fd_sc_hd__nand2_1
*I *865:X O *D sky130_fd_sc_hd__clkdlybuf4s50_1
*CAP
1 *631:A 0.000352035
2 *865:X 0.000352035
3 *631:A resp_msg[12] 6.3259e-05
4 *631:A *630:S 0.000179286
5 *631:A *658:A 9.67373e-05
6 *631:A *865:A 0.000169733
7 *631:A *211:10 4.61732e-05
*RES
1 *865:X *631:A 39.3611 
*END

*D_NET *131 0.00137419
*CONN
*I *634:A I *D sky130_fd_sc_hd__nand2_1
*I *866:X O *D sky130_fd_sc_hd__clkdlybuf4s50_1
*CAP
1 *634:A 0.000341331
2 *866:X 0.000341331
3 *634:A *672:A1 5.20546e-06
4 *634:A *881:A 1.8326e-05
5 *634:A *389:16 2.54199e-05
6 *634:A *433:40 3.31196e-05
7 *634:A *442:32 4.31485e-06
8 *634:A *442:34 6.71064e-05
9 *634:A *442:36 2.71397e-05
10 *634:A *442:46 5.22654e-06
11 *635:B1 *634:A 0.000322608
12 *714:D *634:A 0.00018306
*RES
1 *866:X *634:A 38.1633 
*END

*D_NET *132 0.00218659
*CONN
*I *670:A1 I *D sky130_fd_sc_hd__mux2_4
*I *867:X O *D sky130_fd_sc_hd__clkdlybuf4s50_1
*CAP
1 *670:A1 0.000237776
2 *867:X 0.000237776
3 *670:A1 *627:A0 0.000182224
4 *670:A1 *627:S 0.000345162
5 *670:A1 *867:A 0.000380712
6 *670:A1 *899:A 6.08467e-05
7 *670:A1 *163:18 0.000420638
8 *670:A1 *259:228 0.000171288
9 *670:A1 *389:16 0
10 *670:A1 *424:41 7.68277e-05
11 *629:A2 *670:A1 5.04829e-06
12 *728:D *670:A1 6.27782e-05
13 *129:16 *670:A1 5.51483e-06
*RES
1 *867:X *670:A1 40.3954 
*END

*D_NET *433 0.0250271
*CONN
*I *730:DE I *D sky130_fd_sc_hd__edfxtp_1
*I *728:DE I *D sky130_fd_sc_hd__edfxtp_1
*I *726:DE I *D sky130_fd_sc_hd__edfxtp_1
*I *723:DE I *D sky130_fd_sc_hd__edfxtp_1
*I *729:DE I *D sky130_fd_sc_hd__edfxtp_1
*I *721:DE I *D sky130_fd_sc_hd__edfxtp_1
*I *984:X O *D sky130_fd_sc_hd__buf_12
*CAP
1 *730:DE 0
2 *728:DE 9.26324e-05
3 *726:DE 0.000248853
4 *723:DE 4.83179e-05
5 *729:DE 0.000367377
6 *721:DE 0.000155815
7 *984:X 0.00079087
8 *433:88 0.00227685
9 *433:67 0.00234706
10 *433:65 0.00147589
11 *433:42 0.00181988
12 *433:40 0.00138562
13 *433:26 0.00149536
14 *433:20 0.00118141
15 *726:DE *726:CLK 1.50924e-05
16 *433:20 *638:A1 2.41483e-05
17 *433:20 *639:S 0.000115934
18 *433:20 *984:A 0.000110458
19 *433:20 *442:12 0
20 *433:20 *442:20 0.000364528
21 *433:20 *443:16 0.000208968
22 *433:26 *442:20 0.000148734
23 *433:40 *442:32 3.77378e-05
24 *433:40 *442:34 0.000313472
25 *433:40 *442:36 4.84944e-05
26 *433:40 *442:46 5.77352e-05
27 *433:40 *459:21 2.12863e-05
28 *433:65 *442:63 2.72403e-05
29 *433:65 *442:65 1.82696e-05
30 *433:65 *482:22 0.000276872
31 *433:88 *958:A 0
32 *433:88 *436:37 0
33 *433:88 *459:65 0.000433097
34 resp_msg[3] *433:40 0.000423553
35 *523:A *729:DE 0
36 *523:A *433:65 0.00013243
37 *523:A *433:88 0
38 *533:A1 *433:88 0
39 *533:B1 *433:88 0.000154965
40 *538:B *433:65 2.77625e-06
41 *585:A *433:65 0.000510762
42 *587:A *433:65 0.00058101
43 *587:B *433:88 0
44 *607:A *433:20 5.39639e-05
45 *624:A0 *433:65 6.36477e-05
46 *625:A *433:65 2.41274e-06
47 *627:A0 *433:40 0.000364807
48 *627:A0 *433:42 0.000176302
49 *634:A *433:40 3.31196e-05
50 *660:S *433:88 0
51 *669:A1 *433:65 5.20545e-05
52 *671:A1 *729:DE 0.00011557
53 *671:A1 *433:88 8.62625e-06
54 *672:A1 *433:40 0
55 *681:S *726:DE 0.000115026
56 *681:S *433:88 4.15201e-05
57 *689:C *433:88 4.62112e-05
58 *689:D *433:88 0.000201879
59 *691:D *433:20 1.80887e-05
60 *709:DE *433:88 0.000148262
61 *712:D *433:42 1.95325e-05
62 *715:D *433:20 0.000107496
63 *729:D *729:DE 6.92705e-05
64 *730:D *433:40 0.00114719
65 *730:CLK *433:40 0.000270056
66 *878:A *729:DE 0
67 *881:A *433:40 0
68 *945:A *433:65 6.38506e-05
69 *950:A *433:20 0.000146043
70 *998:A *433:40 1.73377e-05
71 *7:18 *433:88 0
72 *16:8 *433:20 0.000203836
73 *16:12 *433:20 1.35146e-05
74 *32:12 *729:DE 2.12674e-05
75 *35:12 *433:65 4.84492e-05
76 *43:12 *433:65 0.00112234
77 *56:12 *433:20 9.7112e-06
78 *88:26 *721:DE 3.81987e-05
79 *92:16 *433:40 0.000431453
80 *102:14 *726:DE 6.17632e-05
81 *107:10 *433:20 7.87165e-05
82 *194:10 *433:65 4.47675e-06
83 *200:8 *433:65 3.36439e-05
84 *259:238 *433:65 0.000163928
85 *259:305 *433:20 0.000294227
86 *280:16 *726:DE 3.56649e-05
87 *280:16 *433:88 1.26032e-05
88 *389:16 *433:40 0
89 *389:91 *433:40 3.51288e-06
90 *390:35 *433:40 1.27831e-06
91 *390:49 *433:40 0.000549632
92 *390:49 *433:42 0.000151713
93 *390:53 *721:DE 8.98901e-05
94 *390:53 *433:42 4.44756e-05
95 *420:10 *433:20 7.04911e-05
96 *429:32 *721:DE 0.000344849
97 *429:32 *433:42 0.000186763
98 *429:104 *433:40 1.49898e-05
*RES
1 *984:X *433:20 45.7112 
2 *433:20 *433:26 9.89244 
3 *433:26 *433:40 48.7654 
4 *433:40 *433:42 7.23027 
5 *433:42 *721:DE 20.1376 
6 *433:42 *433:65 48.6643 
7 *433:65 *433:67 4.5 
8 *433:67 *729:DE 22.2588 
9 *433:67 *433:88 16.6691 
10 *433:88 *723:DE 14.8523 
11 *433:88 *726:DE 20.1434 
12 *433:40 *728:DE 15.4069 
13 *433:26 *730:DE 9.24915 
*END

*D_NET *434 0.0148742
*CONN
*I *722:DE I *D sky130_fd_sc_hd__edfxtp_1
*I *727:DE I *D sky130_fd_sc_hd__edfxtp_1
*I *736:DE I *D sky130_fd_sc_hd__edfxtp_1
*I *735:DE I *D sky130_fd_sc_hd__edfxtp_1
*I *734:DE I *D sky130_fd_sc_hd__edfxtp_1
*I *985:X O *D sky130_fd_sc_hd__buf_6
*CAP
1 *722:DE 2.99225e-05
2 *727:DE 0.000965195
3 *736:DE 0
4 *735:DE 0
5 *734:DE 0.000327306
6 *985:X 0.000307321
7 *434:79 0.00129656
8 *434:62 0.00103208
9 *434:56 0.00169504
10 *434:35 0.00176672
11 *434:8 0.00143694
12 *722:DE *446:82 0
13 *727:DE *654:A1 2.57465e-06
14 *727:DE *446:27 1.50407e-05
15 *727:DE *446:71 0
16 *727:DE *446:82 0
17 *434:8 *943:A 0.000219671
18 *434:35 *719:CLK 7.92757e-06
19 *434:79 *446:82 0
20 resp_msg[6] *434:35 3.20069e-06
21 resp_msg[7] *434:35 0
22 resp_msg[8] *434:56 2.12235e-05
23 *573:A *727:DE 7.66316e-05
24 *647:A2 *434:8 0.000739515
25 *647:A2 *434:35 9.25219e-05
26 *647:B1 *434:8 0.000159732
27 *647:B1 *434:35 0.000148159
28 *650:A1 *434:35 0.000325451
29 *653:B1 *434:62 7.92757e-06
30 *676:A0 *734:DE 0.000413252
31 *676:A1 *734:DE 5.71114e-05
32 *687:A *727:DE 5.55855e-05
33 *706:D *727:DE 3.49076e-05
34 *718:D *434:35 0
35 *720:D *434:56 0.00032645
36 *720:DE *434:56 0.000212544
37 *722:D *727:DE 6.61157e-05
38 *727:D *727:DE 8.58103e-05
39 *734:D *734:DE 8.5703e-05
40 *735:D *434:35 7.33113e-05
41 *735:D *434:56 2.25129e-05
42 *736:D *434:62 6.93408e-05
43 *736:D *434:79 4.73201e-05
44 *740:A2 *434:8 0
45 *747:B *434:62 2.74878e-05
46 *750:B *434:8 0
47 *871:A *434:35 2.22198e-05
48 *873:A *434:56 0.000260388
49 *885:A *434:35 0
50 *886:A *434:56 2.24571e-05
51 *887:A *434:56 0
52 *904:A *734:DE 7.6885e-05
53 *904:A *434:35 0
54 *905:A *434:8 0.000174491
55 *906:A *434:35 0.000181102
56 *944:A *434:62 2.58616e-05
57 *959:A *727:DE 1.05857e-06
58 *959:A *434:79 0.000325786
59 *967:A *434:62 0.000298979
60 *168:16 *434:8 0
61 *383:59 *434:35 0.000419724
62 *383:101 *434:62 5.04829e-06
63 *390:180 *434:56 0.000140207
64 *390:182 *727:DE 3.39313e-06
65 *408:18 *727:DE 0.000662472
*RES
1 *985:X *434:8 28.0387 
2 *434:8 *734:DE 31.8063 
3 *434:8 *434:35 22.3999 
4 *434:35 *735:DE 9.24915 
5 *434:35 *434:56 44.2703 
6 *434:56 *434:62 12.3279 
7 *434:62 *736:DE 9.24915 
8 *434:62 *434:79 13.5631 
9 *434:79 *727:DE 45.2143 
10 *434:79 *722:DE 14.5317 
*END

*D_NET *359 0.00097802
*CONN
*I *666:A1 I *D sky130_fd_sc_hd__mux2i_1
*I *910:X O *D sky130_fd_sc_hd__buf_4
*CAP
1 *666:A1 0.000201604
2 *910:X 0.000201604
3 *666:A1 *778:B 0.000119035
4 *545:B1 *666:A1 0.000199271
5 *545:A1 *666:A1 0.000195659
6 *910:A *666:A1 6.08467e-05
*RES
1 *910:X *666:A1 33.7938 
*END

*D_NET *133 0.00192285
*CONN
*I *637:A I *D sky130_fd_sc_hd__nand2_1
*I *868:X O *D sky130_fd_sc_hd__clkdlybuf4s50_1
*CAP
1 *637:A 0.000467813
2 *868:X 0.000467813
3 *637:A resp_msg[4] 0
4 *637:A *637:B 6.27782e-05
5 *637:A *673:A1 0.00035638
6 *637:A *715:CLK 0.00016819
7 *637:A *730:CLK 0.000288529
8 *637:A *868:A 0
9 *637:A *903:A 0.000111352
*RES
1 *868:X *637:A 41.3331 
*END

*D_NET *435 0.0153535
*CONN
*I *1036:A I *D sky130_fd_sc_hd__buf_6
*I *1061:A I *D sky130_fd_sc_hd__buf_6
*I *1063:A I *D sky130_fd_sc_hd__buf_6
*I *620:A2 I *D sky130_fd_sc_hd__o21bai_4
*I *1028:A I *D sky130_fd_sc_hd__buf_6
*I *1035:A I *D sky130_fd_sc_hd__buf_6
*I *1062:A I *D sky130_fd_sc_hd__buf_4
*I *986:X O *D sky130_fd_sc_hd__buf_12
*CAP
1 *1036:A 0
2 *1061:A 0
3 *1063:A 0.000364772
4 *620:A2 0
5 *1028:A 0
6 *1035:A 0
7 *1062:A 0
8 *986:X 0.00228086
9 *435:77 0.000721496
10 *435:64 0.00101033
11 *435:45 0.000927295
12 *435:32 0.000824101
13 *435:26 0.000919877
14 *435:16 0.00265033
15 *1063:A *442:12 0.000297791
16 *1063:A *509:12 4.58003e-05
17 *435:16 *528:C 3.00829e-05
18 *435:16 *933:A 0.00012982
19 *435:16 *1041:A 0.000128264
20 *435:16 *442:63 0.000148455
21 *435:16 *482:22 0.000109427
22 *435:26 *627:S 0.000122098
23 *435:26 *442:46 6.75138e-05
24 *435:26 *442:63 0.000199315
25 *435:32 *442:46 3.14978e-05
26 *435:45 *715:CLK 6.27782e-05
27 *435:45 *470:28 1.48603e-05
28 *435:64 *715:CLK 0.00015901
29 *435:77 *442:12 0.000348145
30 *532:A *435:26 0.000171273
31 *532:A *435:32 6.50727e-05
32 *534:A *435:16 1.58551e-05
33 *534:B *435:16 0.000110297
34 *590:A *435:16 0.000705745
35 *590:B *435:16 2.58757e-05
36 *594:C *435:26 0
37 *596:B *435:26 0
38 *596:B *435:32 0.00018731
39 *606:A *435:64 2.18821e-05
40 *636:A0 *435:32 3.20069e-06
41 *636:A0 *435:45 0.000140862
42 *641:A2 *435:64 3.49679e-05
43 *641:A2 *435:77 3.82228e-05
44 *644:B1 *1063:A 0.000172987
45 *669:A0 *435:26 0
46 *673:A1 *435:64 0
47 *673:S *435:32 0
48 *673:S *435:45 0
49 *674:A0 *435:64 0.000114594
50 *691:D *435:64 0
51 *715:DE *435:45 6.27782e-05
52 *715:DE *435:64 0.000145849
53 *717:D *1063:A 0
54 *732:D *435:64 2.29454e-05
55 *732:D *435:77 2.91008e-06
56 *902:A *435:32 0
57 *928:A *435:16 5.60512e-05
58 *954:A *435:64 0
59 *47:12 *435:16 0.00020769
60 *47:12 *435:26 6.64376e-05
61 *88:26 *435:26 0.000214105
62 *259:238 *435:26 0
63 *260:10 *435:16 7.9359e-05
64 *300:6 *435:16 2.16465e-05
65 *306:10 *435:16 1.43698e-05
66 *389:45 *435:26 1.03594e-05
67 *390:35 *435:32 6.02618e-05
68 *403:14 *435:45 2.64033e-05
69 *403:14 *435:64 0.000355966
70 *403:41 *1063:A 0.000113968
71 *403:41 *435:64 0.000386124
72 *404:14 *1063:A 4.09279e-05
73 *404:14 *435:77 6.32961e-05
74 *406:12 *435:26 0
*RES
1 *986:X *435:16 49.7593 
2 *435:16 *435:26 21.6986 
3 *435:26 *435:32 18.6825 
4 *435:32 *1062:A 13.7491 
5 *435:32 *435:45 12.0384 
6 *435:45 *1035:A 9.24915 
7 *435:45 *435:64 28.6919 
8 *435:64 *1028:A 9.24915 
9 *435:64 *435:77 14.9749 
10 *435:77 *620:A2 13.7491 
11 *435:77 *1063:A 25.5794 
12 *435:26 *1061:A 9.24915 
13 *435:16 *1036:A 9.24915 
*END

*D_NET *436 0.0204581
*CONN
*I *657:S I *D sky130_fd_sc_hd__mux2i_2
*I *699:S I *D sky130_fd_sc_hd__mux2i_1
*I *651:S I *D sky130_fd_sc_hd__mux2i_1
*I *654:S I *D sky130_fd_sc_hd__mux2i_1
*I *663:S I *D sky130_fd_sc_hd__mux2i_1
*I *630:S I *D sky130_fd_sc_hd__mux2i_1
*I *987:X O *D sky130_fd_sc_hd__buf_12
*CAP
1 *657:S 1.56217e-05
2 *699:S 6.41672e-05
3 *651:S 0.000783163
4 *654:S 0
5 *663:S 0
6 *630:S 0.000718331
7 *987:X 0.000514513
8 *436:64 0.0017437
9 *436:50 0.00175786
10 *436:44 0.000764405
11 *436:37 0.00205196
12 *436:8 0.00326917
13 *630:S *593:B 0.00010387
14 *630:S *707:CLK 0.000138623
15 *630:S *958:A 1.05272e-06
16 *651:S *446:63 0.00034859
17 *651:S *446:71 2.6524e-05
18 *651:S *492:74 1.3347e-05
19 *436:8 *958:A 1.27831e-06
20 *436:8 *499:14 0.000402073
21 *436:50 *979:A 0.000358446
22 *436:50 *443:82 0.000522067
23 *436:50 *492:90 0.000122083
24 *436:50 *512:12 0.00013832
25 *436:64 *699:A1 0.00017706
26 *436:64 *492:74 0.00104498
27 *536:A *436:8 0
28 *555:A *436:50 7.57449e-05
29 *567:C *651:S 4.35266e-06
30 *571:A *651:S 0
31 *572:A *651:S 0
32 *578:B1 *436:8 0.000338345
33 *589:A *436:8 0
34 *590:A *436:8 4.65669e-05
35 *631:A *630:S 0.000179286
36 *651:A0 *651:S 7.12024e-05
37 *657:A0 *657:S 4.61271e-05
38 *657:A0 *436:37 3.74146e-05
39 *657:A0 *436:44 4.61271e-05
40 *658:A *630:S 0.000162534
41 *660:S *436:37 0.000554661
42 *663:A0 *436:37 0.000157107
43 *665:A1 *436:37 0
44 *683:A0 *436:50 3.31881e-05
45 *687:C *651:S 0.00041776
46 *699:A0 *436:64 0.000202726
47 *701:A2 *699:S 1.82679e-05
48 *701:A2 *436:64 1.00766e-05
49 *709:DE *436:37 3.51036e-05
50 *727:D *436:64 0
51 *895:A *630:S 0
52 *900:A *630:S 0
53 *920:A *436:64 5.23435e-05
54 *935:A *651:S 4.62703e-05
55 *939:A *436:37 0
56 *1005:A *436:50 5.83624e-05
57 *1005:A *436:64 0.000113572
58 *1:10 *651:S 0.000204129
59 *20:10 *436:50 1.2693e-05
60 *76:8 *657:S 0.000112367
61 *76:8 *436:37 0.000252337
62 *76:8 *436:44 0.000112361
63 *102:14 *436:37 5.40924e-05
64 *159:12 *436:8 0
65 *162:10 *436:50 3.14544e-05
66 *170:16 *651:S 0.000135011
67 *176:16 *651:S 3.18357e-05
68 *190:14 *436:8 0.000339879
69 *211:10 *630:S 0.000182178
70 *211:10 *436:8 9.84424e-06
71 *258:10 *436:50 0.000352713
72 *258:23 *436:50 0.000390466
73 *259:137 *436:64 0
74 *259:162 *436:64 0
75 *341:16 *436:8 6.25268e-05
76 *383:117 *651:S 0.00036045
77 *390:192 *436:50 2.44103e-05
78 *397:12 *651:S 9.80242e-07
79 *433:88 *436:37 0
*RES
1 *987:X *436:8 31.1531 
2 *436:8 *630:S 34.0586 
3 *436:8 *436:37 19.3394 
4 *436:37 *663:S 9.24915 
5 *436:37 *436:44 1.278 
6 *436:44 *436:50 37.8234 
7 *436:50 *436:64 33.0656 
8 *436:64 *654:S 13.7491 
9 *436:64 *651:S 48.1233 
10 *436:50 *699:S 10.5271 
11 *436:44 *657:S 10.5271 
*END

*D_NET *134 0.00216464
*CONN
*I *640:A I *D sky130_fd_sc_hd__nand2_1
*I *869:X O *D sky130_fd_sc_hd__clkdlybuf4s50_1
*CAP
1 *640:A 0.00064971
2 *869:X 0.00064971
3 *640:A *690:B 0.000277502
4 *640:A *869:A 2.8212e-05
5 *640:A *883:A 6.50176e-05
6 *640:A *940:A 0.000257346
7 *640:A *445:53 0.000148826
8 *640:A *459:8 9.02099e-06
9 *640:A *459:21 7.92953e-05
*RES
1 *869:X *640:A 45.8529 
*END

*D_NET *135 0.00282817
*CONN
*I *643:A I *D sky130_fd_sc_hd__nand2_1
*I *870:X O *D sky130_fd_sc_hd__clkdlybuf4s50_1
*CAP
1 *643:A 0.000866921
2 *870:X 0.000866921
3 *643:A *686:B_N 0
4 *643:A *889:A 0.000489932
5 *643:A *946:A 6.36416e-05
6 *643:A *172:10 1.92172e-05
7 *643:A *383:50 0.000521538
8 *643:A *443:16 0
*RES
1 *870:X *643:A 45.2927 
*END

*D_NET *136 0.00129034
*CONN
*I *646:A I *D sky130_fd_sc_hd__nand2_1
*I *871:X O *D sky130_fd_sc_hd__clkdlybuf4s50_1
*CAP
1 *646:A 0.000366734
2 *871:X 0.000366734
3 *646:A *719:CLK 0.000199369
4 *646:A *906:A 3.31745e-05
5 *646:A *383:81 0.000116502
6 *650:A2 *646:A 0.000207824
*RES
1 *871:X *646:A 37.0819 
*END

*D_NET *388 0.00864107
*CONN
*I *691:B I *D sky130_fd_sc_hd__and4_1
*I *939:X O *D sky130_fd_sc_hd__buf_4
*CAP
1 *691:B 0
2 *939:X 0.000678793
3 *388:22 0.000890999
4 *388:10 0.00156979
5 *388:10 *452:14 0.000334454
6 *388:10 *499:14 1.65351e-05
7 *529:A2 *388:22 6.39593e-05
8 *529:B1 *388:22 0.000110306
9 *579:B1 *388:22 5.06814e-05
10 *691:C *388:22 3.03403e-05
11 *939:A *388:10 3.16131e-05
12 *957:A *388:10 0.00105575
13 *992:A *388:22 0.000372149
14 *1006:A *388:10 6.49003e-05
15 *1059:A *388:10 0.000169317
16 *107:10 *388:22 0.00181867
17 *193:8 *388:10 3.30962e-05
18 *196:36 *388:22 5.92342e-05
19 *259:10 *388:10 6.3657e-05
20 *259:280 *388:10 5.05841e-05
21 *259:280 *388:22 0
22 *259:286 *388:22 0.000686333
23 *259:305 *388:22 0.000356239
24 *305:10 *388:22 0.000133676
*RES
1 *939:X *388:10 36.6808 
2 *388:10 *388:22 43.2684 
3 *388:22 *691:B 9.24915 
*END

*D_NET *384 0.0111022
*CONN
*I *691:A I *D sky130_fd_sc_hd__and4_1
*I *935:X O *D sky130_fd_sc_hd__buf_4
*CAP
1 *691:A 0.000242965
2 *935:X 0.00355329
3 *384:18 0.00379625
4 *691:A *445:12 5.56358e-05
5 *691:A *514:10 0.000416787
6 *384:18 *687:D 4.18215e-06
7 *384:18 *756:C1 0.000172912
8 *384:18 *763:A1 6.03237e-05
9 *384:18 *392:16 0.000122098
10 *384:18 *432:63 2.41143e-06
11 *384:18 *432:95 0
12 *520:A *384:18 2.42801e-06
13 *529:B1 *691:A 1.67245e-05
14 *572:B *384:18 0.000317924
15 *573:B *384:18 0.000279249
16 *754:A *384:18 3.36165e-06
17 *773:D *384:18 0.000449883
18 *774:C1 *384:18 0.000527009
19 *1:14 *384:18 1.48977e-05
20 *109:16 *691:A 0
21 *167:16 *384:18 0
22 *182:8 *384:18 0.0006083
23 *239:38 *384:18 0.000170841
24 *259:369 *384:18 3.58208e-05
25 *264:10 *384:18 2.8322e-05
26 *264:16 *384:18 1.87732e-05
27 *289:10 *384:18 9.9669e-05
28 *319:36 *384:18 6.00511e-05
29 *358:72 *384:18 4.20854e-05
*RES
1 *935:X *384:18 47.1217 
2 *384:18 *691:A 21.6023 
*END

*D_NET *383 0.0229331
*CONN
*I *650:A1 I *D sky130_fd_sc_hd__o21ai_1
*I *646:B I *D sky130_fd_sc_hd__nand2_1
*I *652:B I *D sky130_fd_sc_hd__nand2_1
*I *655:B I *D sky130_fd_sc_hd__nand2_1
*I *701:A1 I *D sky130_fd_sc_hd__o21ai_1
*I *700:B I *D sky130_fd_sc_hd__nand2_1
*I *667:B I *D sky130_fd_sc_hd__nand2_1
*I *668:A1 I *D sky130_fd_sc_hd__o21ai_1
*I *656:A1 I *D sky130_fd_sc_hd__o21ai_1
*I *653:A1 I *D sky130_fd_sc_hd__o21ai_1
*I *649:B I *D sky130_fd_sc_hd__nand2_1
*I *647:A1 I *D sky130_fd_sc_hd__o21ai_1
*I *643:B I *D sky130_fd_sc_hd__nand2_1
*I *644:A1 I *D sky130_fd_sc_hd__o21ai_1
*I *934:X O *D sky130_fd_sc_hd__buf_4
*CAP
1 *650:A1 8.55687e-05
2 *646:B 0
3 *652:B 0
4 *655:B 0
5 *701:A1 0
6 *700:B 0
7 *667:B 0
8 *668:A1 0.000124483
9 *656:A1 0
10 *653:A1 0
11 *649:B 5.49737e-05
12 *647:A1 2.06324e-05
13 *643:B 0
14 *644:A1 0.000156473
15 *934:X 0.000228455
16 *383:150 0.00069327
17 *383:140 0.00080088
18 *383:132 0.00122114
19 *383:124 0.00104895
20 *383:117 0.00120539
21 *383:101 0.00121117
22 *383:94 0.000179007
23 *383:81 0.000892439
24 *383:67 0.000971288
25 *383:59 0.000489079
26 *383:50 0.00113918
27 *383:35 0.00118429
28 *383:16 0.000607026
29 *644:A1 *404:14 0.000144546
30 *650:A1 *434:35 0.000325451
31 *383:16 *693:A1 0.000209388
32 *383:16 *403:41 6.78626e-06
33 *383:16 *509:12 0.000115026
34 *383:35 *445:16 2.53145e-06
35 *383:35 *445:29 4.69368e-05
36 *383:50 *445:29 1.43698e-05
37 *383:50 *492:14 3.99466e-05
38 *383:59 *434:35 0.000419724
39 *383:67 *676:A0 0.000184318
40 *383:81 *747:B 0.000360872
41 *383:81 *492:41 0.000152934
42 *383:81 *492:58 0.000114271
43 *383:94 *747:B 4.38169e-05
44 *383:101 *747:B 6.91907e-05
45 *383:101 *434:62 5.04829e-06
46 *383:117 *651:S 0.00036045
47 *383:117 *617:B 3.82228e-05
48 *383:117 *390:180 0.000681242
49 *383:117 *446:23 3.81866e-05
50 *383:117 *446:63 2.75733e-05
51 *383:117 *446:71 1.56279e-05
52 *383:124 *408:18 0.000265038
53 *383:132 *621:S 0
54 *383:150 *979:A 8.72115e-06
55 *383:150 *443:82 4.7971e-05
56 resp_msg[10] *383:132 0
57 resp_msg[14] *383:150 0.000160001
58 resp_msg[6] *383:50 0.000122378
59 resp_msg[6] *383:59 1.61631e-05
60 resp_msg[7] *383:67 7.73065e-05
61 resp_msg[8] *383:67 1.09973e-05
62 resp_val *383:50 2.83365e-05
63 *545:A2 *383:150 0.000123414
64 *558:A *668:A1 1.88014e-05
65 *560:A *383:132 2.55751e-05
66 *560:A *383:140 2.28733e-05
67 *560:A *383:150 0.000333047
68 *571:B *383:117 0.000218518
69 *572:B *383:117 3.60268e-05
70 *620:A1 *644:A1 1.08647e-05
71 *620:A1 *383:16 1.64983e-05
72 *620:A1 *383:35 4.49888e-05
73 *643:A *383:50 0.000521538
74 *644:B1 *644:A1 6.42805e-05
75 *644:B1 *383:35 0.000239851
76 *644:B1 *383:50 2.30636e-05
77 *646:A *383:81 0.000116502
78 *647:B1 *383:67 4.87439e-05
79 *647:B1 *383:81 1.37189e-05
80 *650:B1 *649:B 6.64392e-05
81 *650:B1 *383:81 4.56967e-05
82 *653:A2 *383:117 2.02354e-05
83 *653:B1 *383:101 6.27718e-05
84 *656:A2 *383:124 6.3657e-05
85 *656:B1 *383:124 0.000159908
86 *656:B1 *383:132 1.65872e-05
87 *667:A *383:150 0.000112598
88 *668:A2 *668:A1 6.64392e-05
89 *668:B1 *668:A1 4.19431e-05
90 *668:B1 *383:150 2.77625e-06
91 *679:A1 *383:132 7.3783e-05
92 *692:A *644:A1 9.75356e-05
93 *692:A *383:35 7.15574e-05
94 *697:B1 *383:16 0.000273045
95 *700:A *383:140 3.5822e-05
96 *701:A2 *383:140 0.000205681
97 *701:B1 *383:140 3.30938e-05
98 *706:D *383:117 0.000143586
99 *706:D *383:124 1.37189e-05
100 *710:D *668:A1 2.54623e-05
101 *717:D *383:35 2.53145e-06
102 *718:D *383:50 4.26566e-05
103 *718:D *383:59 2.42138e-05
104 *735:D *383:81 6.26561e-05
105 *862:A *383:132 3.07837e-05
106 *871:A *383:59 6.50727e-05
107 *885:A *383:50 0.000383703
108 *889:A *383:50 7.49016e-05
109 *890:A *383:50 0.000747194
110 *906:A *650:A1 9.90229e-05
111 *906:A *383:67 9.05489e-05
112 *952:A *383:81 0.000102441
113 *955:A *644:A1 0.000170592
114 *976:A *383:132 0.000113659
115 *982:A *383:35 1.41976e-05
116 *982:A *383:50 0
117 *993:A *383:16 8.03393e-06
118 *1049:A *383:150 0.000383533
119 *1:10 *383:117 0
120 *12:8 *383:67 1.10348e-05
121 *29:8 *644:A1 6.08467e-05
122 *61:14 *644:A1 7.01935e-06
123 *153:18 *383:50 9.48572e-06
124 *172:10 *383:50 0.000212192
125 *259:162 *383:132 0
126 *288:18 *383:150 0.000239041
*RES
1 *934:X *383:16 28.5251 
2 *383:16 *644:A1 20.0418 
3 *383:16 *383:35 11.9288 
4 *383:35 *643:B 9.24915 
5 *383:35 *383:50 40.2709 
6 *383:50 *647:A1 9.82786 
7 *383:50 *383:59 5.71483 
8 *383:59 *383:67 17.5083 
9 *383:67 *383:81 21.5331 
10 *383:81 *649:B 11.6605 
11 *383:81 *383:94 2.96592 
12 *383:94 *653:A1 9.24915 
13 *383:94 *383:101 2.38721 
14 *383:101 *383:117 45.6972 
15 *383:117 *656:A1 9.24915 
16 *383:117 *383:124 3.49641 
17 *383:124 *383:132 27.8533 
18 *383:132 *383:140 10.9589 
19 *383:140 *383:150 28.0586 
20 *383:150 *668:A1 12.7456 
21 *383:150 *667:B 9.24915 
22 *383:140 *700:B 9.24915 
23 *383:132 *701:A1 13.7491 
24 *383:124 *655:B 9.24915 
25 *383:101 *652:B 9.24915 
26 *383:67 *646:B 9.24915 
27 *383:59 *650:A1 13.3243 
*END

*D_NET *442 0.0361673
*CONN
*I *638:A1 I *D sky130_fd_sc_hd__o21ai_1
*I *641:A1 I *D sky130_fd_sc_hd__o21ai_1
*I *640:B I *D sky130_fd_sc_hd__nand2_1
*I *637:B I *D sky130_fd_sc_hd__nand2_1
*I *635:A1 I *D sky130_fd_sc_hd__o21ai_1
*I *629:A1 I *D sky130_fd_sc_hd__o21ai_1
*I *634:B I *D sky130_fd_sc_hd__nand2_1
*I *625:B I *D sky130_fd_sc_hd__nand2_1
*I *658:B I *D sky130_fd_sc_hd__nand2_1
*I *662:A2 I *D sky130_fd_sc_hd__o21ai_1
*I *659:A2 I *D sky130_fd_sc_hd__o21ai_1
*I *661:B I *D sky130_fd_sc_hd__nand2_1
*I *665:A2 I *D sky130_fd_sc_hd__o21ai_1
*I *664:B I *D sky130_fd_sc_hd__nand2_1
*I *631:B I *D sky130_fd_sc_hd__nand2_1
*I *632:A2 I *D sky130_fd_sc_hd__o21ai_1
*I *626:A2 I *D sky130_fd_sc_hd__o21ai_1
*I *628:B I *D sky130_fd_sc_hd__nand2_1
*I *993:X O *D sky130_fd_sc_hd__buf_4
*CAP
1 *638:A1 1.35015e-05
2 *641:A1 0
3 *640:B 0.00023322
4 *637:B 1.14991e-05
5 *635:A1 0
6 *629:A1 0.00025094
7 *634:B 0
8 *625:B 2.66954e-05
9 *658:B 0.000214329
10 *662:A2 0
11 *659:A2 0.000252648
12 *661:B 0
13 *665:A2 8.90469e-05
14 *664:B 0
15 *631:B 0.000161795
16 *632:A2 2.75383e-05
17 *626:A2 0.000918781
18 *628:B 3.38756e-05
19 *993:X 0.00054007
20 *442:243 0.00036598
21 *442:144 0.00123414
22 *442:128 0.00154512
23 *442:118 0.00106804
24 *442:112 0.000415361
25 *442:110 0.000410815
26 *442:95 0.000563657
27 *442:80 0.00166648
28 *442:65 0.00247755
29 *442:63 0.0010179
30 *442:46 0.00215447
31 *442:36 0.0012712
32 *442:34 0.000399113
33 *442:32 0.000728748
34 *442:22 0.000910135
35 *442:20 0.00138685
36 *442:12 0.0015062
37 *628:B *933:A 2.95757e-05
38 *637:B *715:CLK 6.27782e-05
39 *638:A1 *639:S 6.50727e-05
40 *665:A2 *449:16 3.51249e-05
41 *442:12 *639:S 0.000135905
42 *442:20 *639:S 3.0577e-05
43 *442:22 *940:A 0.000144102
44 *442:32 *453:10 0.000513073
45 *442:46 *933:A 0.000417399
46 *442:63 *933:A 6.08467e-05
47 *442:63 *482:22 7.50722e-05
48 *442:80 *459:65 0.000419371
49 *442:95 *459:65 9.15595e-05
50 *442:128 *444:28 0
51 *442:144 *709:CLK 0.000106721
52 *442:144 *725:DE 7.50872e-05
53 *442:144 *449:16 3.67528e-06
54 *442:243 *940:A 0.000238537
55 *532:A *442:46 0.000115454
56 *536:A *658:B 0.000270995
57 *537:B *628:B 5.37199e-06
58 *538:A *442:80 0.000663076
59 *554:B *442:144 1.00937e-05
60 *554:A *442:144 4.38712e-05
61 *582:A *442:63 0.000302452
62 *582:A *442:65 8.62625e-06
63 *586:B *442:65 0
64 *604:A *442:12 5.75817e-05
65 *607:A *442:12 0
66 *610:B *442:12 9.63354e-05
67 *625:A *625:B 6.3657e-05
68 *629:A2 *629:A1 2.0154e-05
69 *632:B1 *631:B 5.08824e-05
70 *634:A *442:32 4.31485e-06
71 *634:A *442:34 6.71064e-05
72 *634:A *442:36 2.71397e-05
73 *634:A *442:46 5.22654e-06
74 *637:A *637:B 6.27782e-05
75 *641:A2 *442:12 0
76 *641:B1 *640:B 0.000479029
77 *641:B1 *442:243 0.000118166
78 *661:A *442:128 0.000151553
79 *661:A *442:144 9.62455e-05
80 *662:A1 *658:B 0.000132296
81 *662:A1 *442:118 8.70622e-06
82 *662:B1 *442:118 0.000131777
83 *664:A *442:144 0.000122416
84 *665:B1 *665:A2 7.28157e-05
85 *669:A0 *442:63 0
86 *675:S *442:243 1.03986e-05
87 *681:S *442:144 0.000107063
88 *705:D *626:A2 1.00937e-05
89 *708:D *442:118 9.75148e-06
90 *709:D *442:144 4.82203e-05
91 *709:DE *442:144 0
92 *712:D *629:A1 6.12686e-06
93 *713:D *631:B 0
94 *713:D *442:80 0.000374216
95 *713:D *442:95 1.15279e-05
96 *714:D *442:32 3.3403e-05
97 *714:D *442:34 0.000163492
98 *717:D *442:12 4.21913e-05
99 *729:CLK *626:A2 0.000289732
100 *732:D *640:B 0.000164843
101 *732:D *442:243 0.000102003
102 *858:A *442:118 6.08467e-05
103 *858:A *442:128 0
104 *865:A *631:B 2.57986e-05
105 *865:A *442:110 0
106 *881:A *442:32 1.8472e-05
107 *895:A *658:B 0
108 *895:A *442:118 0.000375913
109 *900:A *632:A2 1.05272e-06
110 *901:A *629:A1 4.43691e-05
111 *901:A *442:46 0.000490509
112 *903:A *442:20 0
113 *903:A *442:22 0.00012661
114 *903:A *442:32 8.36586e-06
115 *929:A *659:A2 0.000515998
116 *929:A *442:128 0.000359579
117 *964:A *442:128 6.92705e-05
118 *1003:A *442:144 0.000122378
119 *1063:A *442:12 0.000297791
120 *7:18 *442:144 3.8519e-05
121 *16:8 *638:A1 0.00011818
122 *16:12 *442:20 0
123 *16:12 *442:46 4.01437e-05
124 *17:10 *631:B 0.0001554
125 *17:10 *658:B 1.09645e-05
126 *17:10 *442:110 0.000141977
127 *18:10 *442:63 0
128 *21:23 *442:144 0
129 *35:12 *626:A2 0
130 *35:12 *442:63 0
131 *35:12 *442:65 0
132 *55:12 *442:20 1.77537e-06
133 *61:14 *442:12 0
134 *76:8 *659:A2 1.83795e-06
135 *80:18 *442:144 0
136 *129:16 *628:B 2.18935e-05
137 *129:16 *442:46 5.19349e-05
138 *165:14 *442:46 3.99086e-06
139 *205:22 *658:B 0.000138787
140 *205:22 *442:118 0.000411006
141 *259:220 *442:46 0
142 *278:10 *442:144 0
143 *280:16 *442:144 2.2083e-05
144 *330:27 *442:144 0
145 *378:12 *659:A2 0.000519737
146 *378:12 *442:128 0.000333533
147 *389:10 *442:22 0.000110131
148 *389:10 *442:32 0.000171039
149 *389:12 *442:32 9.75356e-05
150 *389:16 *442:32 0.000194253
151 *389:16 *442:46 0
152 *389:45 *442:63 4.51709e-05
153 *389:91 *442:22 4.16075e-05
154 *389:91 *442:243 5.43198e-05
155 *390:35 *442:32 0
156 *406:12 *442:63 0
157 *413:22 *442:118 2.99978e-05
158 *413:22 *442:128 9.78622e-05
159 *433:20 *638:A1 2.41483e-05
160 *433:20 *442:12 0
161 *433:20 *442:20 0.000364528
162 *433:26 *442:20 0.000148734
163 *433:40 *442:32 3.77378e-05
164 *433:40 *442:34 0.000313472
165 *433:40 *442:36 4.84944e-05
166 *433:40 *442:46 5.77352e-05
167 *433:65 *442:63 2.72403e-05
168 *433:65 *442:65 1.82696e-05
169 *435:16 *442:63 0.000148455
170 *435:26 *442:46 6.75138e-05
171 *435:26 *442:63 0.000199315
172 *435:32 *442:46 3.14978e-05
173 *435:77 *442:12 0.000348145
*RES
1 *993:X *442:12 30.6035 
2 *442:12 *442:20 24.4506 
3 *442:20 *442:22 9.30653 
4 *442:22 *442:32 20.8764 
5 *442:32 *442:34 5.98452 
6 *442:34 *442:36 1.00149 
7 *442:36 *442:46 33.0716 
8 *442:46 *628:B 14.7506 
9 *442:46 *442:63 31.2228 
10 *442:63 *442:65 2.87013 
11 *442:65 *626:A2 29.5439 
12 *442:65 *442:80 7.39616 
13 *442:80 *632:A2 17.4965 
14 *442:80 *442:95 3.9541 
15 *442:95 *631:B 18.5884 
16 *442:95 *442:110 4.16474 
17 *442:110 *442:112 4.5 
18 *442:112 *442:118 16.8942 
19 *442:118 *442:128 19.4412 
20 *442:128 *442:144 35.6827 
21 *442:144 *664:B 13.7491 
22 *442:144 *665:A2 16.4116 
23 *442:128 *661:B 9.24915 
24 *442:118 *659:A2 24.1943 
25 *442:112 *662:A2 9.24915 
26 *442:110 *658:B 21.3173 
27 *442:63 *625:B 14.4725 
28 *442:36 *634:B 13.7491 
29 *442:34 *629:A1 19.3434 
30 *442:32 *635:A1 13.7491 
31 *442:22 *637:B 14.4725 
32 *442:20 *442:243 10.1015 
33 *442:243 *640:B 17.3994 
34 *442:243 *641:A1 9.24915 
35 *442:12 *638:A1 15.0271 
*END

*D_NET *390 0.0512109
*CONN
*I *717:DE I *D sky130_fd_sc_hd__edfxtp_1
*I *720:DE I *D sky130_fd_sc_hd__edfxtp_1
*I *706:DE I *D sky130_fd_sc_hd__edfxtp_1
*I *711:DE I *D sky130_fd_sc_hd__edfxtp_1
*I *708:DE I *D sky130_fd_sc_hd__edfxtp_1
*I *707:DE I *D sky130_fd_sc_hd__edfxtp_1
*I *709:DE I *D sky130_fd_sc_hd__edfxtp_1
*I *710:DE I *D sky130_fd_sc_hd__edfxtp_1
*I *719:DE I *D sky130_fd_sc_hd__edfxtp_1
*I *718:DE I *D sky130_fd_sc_hd__edfxtp_1
*I *715:DE I *D sky130_fd_sc_hd__edfxtp_1
*I *714:DE I *D sky130_fd_sc_hd__edfxtp_1
*I *712:DE I *D sky130_fd_sc_hd__edfxtp_1
*I *705:DE I *D sky130_fd_sc_hd__edfxtp_1
*I *713:DE I *D sky130_fd_sc_hd__edfxtp_1
*I *716:DE I *D sky130_fd_sc_hd__edfxtp_1
*I *941:X O *D sky130_fd_sc_hd__buf_6
*CAP
1 *717:DE 0.000100594
2 *720:DE 0.000142057
3 *706:DE 0.000139194
4 *711:DE 0.00107895
5 *708:DE 0
6 *707:DE 0.000192909
7 *709:DE 0.00107179
8 *710:DE 0
9 *719:DE 5.06624e-05
10 *718:DE 0
11 *715:DE 0.00031121
12 *714:DE 1.67259e-05
13 *712:DE 8.65048e-05
14 *705:DE 1.69055e-05
15 *713:DE 0.00113
16 *716:DE 0.00012093
17 *941:X 0.000320403
18 *390:234 0.000403959
19 *390:211 0.00287335
20 *390:192 0.00237089
21 *390:182 0.00233622
22 *390:180 0.00201481
23 *390:170 0.00198108
24 *390:155 0.0013
25 *390:134 0.00134099
26 *390:122 0.00139325
27 *390:53 0.0016183
28 *390:49 0.00119329
29 *390:35 0.00155636
30 *390:25 0.00204478
31 *390:14 0.00132726
32 *390:8 0.0014581
33 *705:DE *729:CLK 3.39728e-05
34 *707:DE *444:47 0.000146655
35 *707:DE *444:49 6.08467e-05
36 *709:DE *433:88 0.000148262
37 *709:DE *436:37 3.51036e-05
38 *709:DE *442:144 0
39 *709:DE *444:16 6.0235e-05
40 *713:DE *729:CLK 7.59468e-05
41 *713:DE *444:36 3.60082e-05
42 *715:DE *715:CLK 0.000268102
43 *715:DE *435:45 6.27782e-05
44 *715:DE *435:64 0.000145849
45 *717:DE *443:16 3.64081e-05
46 *717:DE *445:16 3.42041e-05
47 *719:DE *446:105 2.84758e-05
48 *719:DE *492:41 9.57529e-05
49 *720:DE *434:56 0.000212544
50 *390:8 *685:A1 0.000165894
51 *390:8 *490:27 1.85244e-05
52 *390:14 *623:A_N 0
53 *390:14 *693:A1 0.000107586
54 *390:14 *403:41 0.000103628
55 *390:14 *419:18 0.000201734
56 *390:25 *623:A_N 0.000215682
57 *390:25 *636:A0 0.000208834
58 *390:25 *690:B 0.000212398
59 *390:25 *940:A 0.000202664
60 *390:25 *403:41 0
61 *390:35 *636:A0 0.000336507
62 *390:35 *672:A0 0.000553621
63 *390:35 *429:104 6.08467e-05
64 *390:35 *433:40 1.27831e-06
65 *390:35 *435:32 6.02618e-05
66 *390:35 *442:32 0
67 *390:35 *453:10 7.02421e-05
68 *390:49 *627:A0 1.55642e-05
69 *390:49 *429:20 0
70 *390:49 *433:40 0.000549632
71 *390:49 *433:42 0.000151713
72 *390:53 *721:DE 8.98901e-05
73 *390:53 *429:32 0
74 *390:53 *429:36 0
75 *390:53 *433:42 4.44756e-05
76 *390:122 *693:A1 1.65872e-05
77 *390:122 *403:41 0.000859128
78 *390:134 *642:A0 0.000517261
79 *390:134 *642:A1 4.79047e-05
80 *390:134 *399:18 0.000317788
81 *390:134 *403:41 1.15389e-05
82 *390:134 *443:68 2.19686e-05
83 *390:134 *491:26 6.90268e-06
84 *390:155 *401:10 6.87335e-05
85 *390:155 *443:68 0.000366707
86 *390:155 *492:41 0.000114659
87 *390:170 *443:72 0.000973696
88 *390:170 *446:105 0.000150777
89 *390:170 *492:58 0.000210118
90 *390:180 *687:C 0
91 *390:180 *687:D 9.34787e-06
92 *390:180 *617:B 0.000269424
93 *390:180 *401:28 8.10016e-06
94 *390:180 *408:18 9.58043e-06
95 *390:180 *434:56 0.000140207
96 *390:182 *699:A0 7.77897e-05
97 *390:182 *727:DE 3.39313e-06
98 *390:182 *408:18 0.000233377
99 *390:192 *699:A0 6.86539e-05
100 *390:192 *436:50 2.44103e-05
101 *390:211 *558:B 0.000658287
102 *390:211 *680:A0 0
103 *390:211 *688:B 0
104 *390:211 *688:C 1.39821e-05
105 *390:211 *710:CLK 0.000111645
106 *390:211 *444:14 0.000716152
107 *390:211 *444:16 8.36586e-06
108 *390:211 *492:90 0
109 resp_msg[3] *390:35 0.000262252
110 resp_msg[3] *390:49 0.000164826
111 *540:B1 *711:DE 0.000188414
112 *558:A *390:192 0.000151043
113 *560:B *390:192 0.000583593
114 *561:B *390:182 0.000163982
115 *572:B *390:180 3.90689e-06
116 *620:A1 *390:8 0
117 *620:A1 *390:14 0
118 *636:A1 *390:35 0.000139435
119 *652:A *390:180 0.000118136
120 *655:A *390:182 0.00012136
121 *659:B1 *709:DE 3.24551e-06
122 *666:S *390:211 0
123 *672:A1 *390:35 0.000168001
124 *673:A1 *715:DE 0.000399216
125 *674:A1 *390:25 6.23423e-05
126 *679:A1 *390:180 5.39635e-06
127 *679:A1 *390:182 6.34777e-05
128 *684:B *390:8 4.02103e-05
129 *686:B_N *717:DE 0
130 *697:B1 *390:8 0
131 *697:B1 *390:14 0
132 *697:B1 *390:122 1.68845e-05
133 *707:D *707:DE 3.81987e-05
134 *708:D *707:DE 0.000129806
135 *709:D *709:DE 8.18934e-05
136 *710:D *390:192 8.09529e-05
137 *710:D *390:211 2.75449e-05
138 *711:D *711:DE 6.13018e-05
139 *712:D *390:49 0.000625741
140 *713:D *713:DE 6.92705e-05
141 *714:D *714:DE 3.42041e-05
142 *715:D *715:DE 6.38084e-05
143 *716:D *390:25 0
144 *718:D *390:134 6.42418e-05
145 *718:D *390:155 8.65578e-05
146 *727:D *390:182 0.000296793
147 *754:A *390:180 1.40599e-05
148 *872:A *390:155 6.08467e-05
149 *877:A *709:DE 0
150 *887:A *720:DE 0
151 *887:A *390:180 0
152 *904:A *390:134 0
153 *906:A *390:155 6.10778e-05
154 *907:A *390:170 0.000314044
155 *934:A *390:122 5.04829e-06
156 *939:A *390:211 0.000510056
157 *944:A *390:180 3.60077e-05
158 *960:A *712:DE 8.54933e-05
159 *960:A *390:49 6.20147e-05
160 *1003:A *709:DE 0
161 *1005:A *390:192 0.000215088
162 *1068:A *390:122 2.41483e-05
163 *1068:A *390:134 0.000171273
164 *7:18 *709:DE 0
165 *8:10 *709:DE 1.4249e-05
166 *27:10 *390:155 5.84326e-05
167 *28:10 *390:134 1.82824e-05
168 *36:10 *390:182 0.000133102
169 *47:12 *390:49 3.26358e-05
170 *56:12 *715:DE 2.12526e-05
171 *61:14 *390:134 1.19856e-05
172 *88:26 *712:DE 1.80522e-05
173 *88:26 *390:49 0
174 *88:26 *390:53 0.000443549
175 *124:16 *709:DE 0.000504004
176 *157:20 *711:DE 1.94771e-05
177 *162:10 *390:192 7.65861e-05
178 *168:16 *390:134 1.61631e-05
179 *170:16 *390:180 7.52853e-05
180 *173:18 *390:8 0.000113309
181 *174:14 *390:180 6.64949e-05
182 *178:20 *711:DE 0.000138121
183 *179:8 *390:180 0
184 *211:10 *707:DE 0.000173912
185 *253:25 *711:DE 0.00049771
186 *258:10 *390:192 2.57465e-06
187 *258:23 *390:192 0.000161942
188 *259:16 *707:DE 5.90159e-05
189 *259:22 *707:DE 3.87022e-06
190 *259:50 *707:DE 1.83541e-05
191 *259:50 *390:211 1.68812e-05
192 *259:50 *390:234 5.15222e-05
193 *259:137 *390:192 0.000257378
194 *259:137 *390:211 3.32982e-05
195 *259:162 *390:182 2.64856e-05
196 *269:10 *390:182 0.000180258
197 *269:10 *390:192 0.000144929
198 *330:27 *709:DE 5.37077e-05
199 *330:27 *390:211 0.000136293
200 *330:27 *390:234 2.16355e-05
201 *335:10 *711:DE 3.77568e-05
202 *336:16 *711:DE 4.49257e-05
203 *370:18 *390:192 9.0951e-05
204 *378:12 *390:211 0
205 *383:117 *390:180 0.000681242
*RES
1 *941:X *390:8 22.2252 
2 *390:8 *390:14 15.6419 
3 *390:14 *716:DE 12.0161 
4 *390:14 *390:25 28.7556 
5 *390:25 *390:35 32.0849 
6 *390:35 *390:49 30.4888 
7 *390:49 *390:53 14.1919 
8 *390:53 *713:DE 42.0023 
9 *390:53 *705:DE 14.153 
10 *390:49 *712:DE 16.0023 
11 *390:35 *714:DE 14.153 
12 *390:25 *715:DE 25.1185 
13 *390:8 *390:122 17.4247 
14 *390:122 *390:134 25.1967 
15 *390:134 *718:DE 9.24915 
16 *390:134 *390:155 32.3152 
17 *390:155 *719:DE 10.9069 
18 *390:155 *390:170 22.609 
19 *390:170 *390:180 25.5753 
20 *390:180 *390:182 17.404 
21 *390:182 *390:192 30.6721 
22 *390:192 *710:DE 9.24915 
23 *390:192 *390:211 31.7472 
24 *390:211 *709:DE 36.2861 
25 *390:211 *390:234 8.9308 
26 *390:234 *707:DE 25.5949 
27 *390:234 *708:DE 9.24915 
28 *390:182 *711:DE 26.2731 
29 *390:180 *706:DE 16.5161 
30 *390:170 *720:DE 18.0613 
31 *390:122 *717:DE 20.485 
*END

*D_NET *137 0.00243102
*CONN
*I *649:A I *D sky130_fd_sc_hd__nand2_1
*I *872:X O *D sky130_fd_sc_hd__clkdlybuf4s50_1
*CAP
1 *649:A 0.000520311
2 *872:X 0.000520311
3 *649:A *566:A 0.000112361
4 *649:A *566:B 0.000171617
5 *649:A *741:C1 0.000888879
6 *649:A *907:A 0.000147764
7 *649:A *171:8 2.59976e-05
8 *649:A *262:12 2.58616e-05
9 *649:A *443:68 1.13031e-05
10 *26:10 *649:A 6.61829e-06
*RES
1 *872:X *649:A 44.7265 
*END

*D_NET *397 0.00731369
*CONN
*I *569:A I *D sky130_fd_sc_hd__xor2_1
*I *687:C I *D sky130_fd_sc_hd__nor4_1
*I *651:A0 I *D sky130_fd_sc_hd__mux2i_1
*I *948:X O *D sky130_fd_sc_hd__buf_4
*CAP
1 *569:A 0.000266198
2 *687:C 0.00052414
3 *651:A0 0.000608993
4 *948:X 3.53939e-05
5 *397:12 0.00181388
6 *397:8 0.000982342
7 *569:A *891:A 3.83955e-05
8 *569:A *443:74 0.000105415
9 *651:A0 *651:S 7.12024e-05
10 *651:A0 *741:C1 2.73863e-06
11 *687:C *651:S 0.00041776
12 *687:C *401:28 6.46815e-05
13 *687:C *446:27 0.000137585
14 *397:8 *443:74 1.73659e-05
15 *397:8 *443:82 3.44412e-06
16 *397:12 *651:S 9.80242e-07
17 req_rdy *569:A 5.04829e-06
18 *567:C *397:12 0.000792807
19 *569:B *569:A 0.000488871
20 *569:B *397:8 7.73683e-05
21 *572:B *687:C 0.000151397
22 *653:A2 *651:A0 0.000209636
23 *935:A *687:C 5.8493e-05
24 *944:A *687:C 8.61152e-06
25 *1:10 *651:A0 6.54872e-06
26 *10:10 *397:12 5.62568e-05
27 *176:16 *569:A 4.31539e-05
28 *179:8 *687:C 0.000296333
29 *179:14 *687:C 1.66771e-05
30 *180:10 *687:C 1.19705e-05
31 *390:180 *687:C 0
*RES
1 *948:X *397:8 15.1659 
2 *397:8 *397:12 15.7609 
3 *397:12 *651:A0 19.1356 
4 *397:12 *687:C 35.8297 
5 *397:8 *569:A 24.3337 
*END

*D_NET *401 0.00565498
*CONN
*I *566:A I *D sky130_fd_sc_hd__xor2_1
*I *648:A0 I *D sky130_fd_sc_hd__mux2i_1
*I *687:B I *D sky130_fd_sc_hd__nor4_1
*I *952:X O *D sky130_fd_sc_hd__buf_4
*CAP
1 *566:A 3.01159e-05
2 *648:A0 4.28755e-05
3 *687:B 0
4 *952:X 0.000159108
5 *401:28 0.00093653
6 *401:14 0.00109769
7 *401:10 0.000307505
8 *566:A *443:68 2.44599e-05
9 *401:14 *741:C1 0.000115668
10 *401:28 *677:A0 6.50727e-05
11 *401:28 *617:B 0
12 *401:28 *741:A1 4.2372e-05
13 *401:28 *741:C1 0.000238122
14 *401:28 *755:A 9.49244e-05
15 *401:28 *417:8 3.67828e-05
16 *401:28 *420:64 3.56314e-05
17 *401:28 *446:10 0.000157944
18 *401:28 *446:23 8.8738e-05
19 *518:A2 *401:28 0
20 *544:B1 *401:28 0.000112361
21 *564:C *401:10 7.60235e-05
22 *564:C *401:14 8.75441e-06
23 *565:B *401:28 6.3657e-05
24 *572:B *401:28 0.000195229
25 *649:A *566:A 0.000112361
26 *650:A2 *648:A0 6.92705e-05
27 *687:C *401:28 6.46815e-05
28 *617:A *401:28 0.000107496
29 *741:A2 *401:28 0.000451935
30 *906:A *401:14 3.6526e-05
31 *906:A *401:28 1.03986e-05
32 *935:A *401:28 0.000160942
33 *968:A *401:28 6.08467e-05
34 *170:16 *401:28 2.85382e-05
35 *174:14 *401:28 0
36 *358:82 *648:A0 0.000213725
37 *390:155 *401:10 6.87335e-05
38 *390:180 *401:28 8.10016e-06
39 *392:16 *648:A0 0.000317693
40 *399:18 *648:A0 1.41689e-05
*RES
1 *952:X *401:10 17.9749 
2 *401:10 *401:14 3.81055 
3 *401:14 *401:28 41.4777 
4 *401:28 *687:B 9.24915 
5 *401:14 *648:A0 17.2456 
6 *401:10 *566:A 15.0271 
*END

*D_NET *138 0.00042567
*CONN
*I *652:A I *D sky130_fd_sc_hd__nand2_1
*I *873:X O *D sky130_fd_sc_hd__clkdlybuf4s50_1
*CAP
1 *652:A 0.000120826
2 *873:X 0.000120826
3 *652:A *390:180 0.000118136
4 *652:A *492:58 6.08467e-05
5 *944:A *652:A 5.03545e-06
*RES
1 *873:X *652:A 30.4689 
*END

*D_NET *402 0.0132685
*CONN
*I *645:A0 I *D sky130_fd_sc_hd__mux2i_1
*I *689:D I *D sky130_fd_sc_hd__nor4_1
*I *953:X O *D sky130_fd_sc_hd__buf_4
*CAP
1 *645:A0 4.59078e-05
2 *689:D 0.00456538
3 *953:X 0.000358266
4 *402:8 0.00496955
5 *689:D *587:A 5.54271e-05
6 *689:D *958:A 0.000124831
7 *689:D *409:27 0.000194945
8 *689:D *424:27 3.27606e-06
9 *689:D *433:88 0.000201879
10 *689:D *459:65 0
11 *402:8 *676:A0 0.000457489
12 *402:8 *418:33 0
13 *522:B2 *689:D 0.00157374
14 *642:S *645:A0 1.58551e-05
15 *647:A2 *645:A0 2.65667e-05
16 *750:B *402:8 0.000108243
17 *905:A *402:8 0.000190042
18 *953:A *402:8 9.17747e-05
19 *1039:A *689:D 5.68225e-06
20 *107:10 *689:D 4.25222e-05
21 *120:22 *689:D 0
22 *169:14 *689:D 1.5714e-05
23 *169:14 *402:8 4.95263e-05
24 *194:10 *689:D 9.34396e-06
25 *315:10 *645:A0 0.000162583
*RES
1 *953:X *402:8 26.7929 
2 *402:8 *689:D 35.878 
3 *402:8 *645:A0 15.5817 
*END

*D_NET *403 0.00793988
*CONN
*I *642:A0 I *D sky130_fd_sc_hd__mux2i_1
*I *690:D I *D sky130_fd_sc_hd__nor4_1
*I *954:X O *D sky130_fd_sc_hd__buf_4
*CAP
1 *642:A0 9.23279e-05
2 *690:D 0
3 *954:X 0.000425893
4 *403:41 0.00126642
5 *403:14 0.00159999
6 *403:14 *673:A0 0
7 *403:14 *435:45 2.64033e-05
8 *403:14 *435:64 0.000355966
9 *403:14 *470:28 3.55968e-05
10 *403:41 *674:A0 2.2594e-05
11 *403:41 *690:B 0
12 *403:41 *693:A1 0.000453505
13 *403:41 *1063:A 0.000113968
14 *403:41 *419:18 0.000136639
15 *403:41 *435:64 0.000386124
16 *403:41 *509:12 0.000111146
17 *531:A *403:14 4.42033e-05
18 *620:A1 *403:41 0
19 *673:A1 *403:14 2.91831e-05
20 *674:A1 *403:41 0
21 *954:A *403:14 0.000217937
22 *954:A *403:41 0
23 *993:A *403:41 5.09378e-05
24 *1068:A *403:41 0.000224381
25 *61:14 *642:A0 0.000206462
26 *61:14 *403:41 0.00041971
27 *92:16 *403:14 0.000222149
28 *383:16 *403:41 6.78626e-06
29 *390:14 *403:41 0.000103628
30 *390:25 *403:41 0
31 *390:122 *403:41 0.000859128
32 *390:134 *642:A0 0.000517261
33 *390:134 *403:41 1.15389e-05
*RES
1 *954:X *403:14 27.1772 
2 *403:14 *690:D 13.7491 
3 *403:14 *403:41 45.7786 
4 *403:41 *642:A0 14.964 
*END

*D_NET *404 0.00324171
*CONN
*I *639:A0 I *D sky130_fd_sc_hd__mux2i_1
*I *690:C I *D sky130_fd_sc_hd__nor4_1
*I *955:X O *D sky130_fd_sc_hd__buf_4
*CAP
1 *639:A0 0
2 *690:C 0.000298682
3 *955:X 0.000553794
4 *404:14 0.000852476
5 *690:C *639:S 0
6 *690:C *690:A 9.98615e-06
7 *404:14 *1063:A 4.09279e-05
8 *404:14 *435:77 6.32961e-05
9 *641:A2 *690:C 1.07248e-05
10 *641:A2 *404:14 0.000242134
11 *644:A1 *404:14 0.000144546
12 *644:B1 *404:14 0.000173566
13 *691:D *690:C 0.000216458
14 *903:A *690:C 3.77804e-05
15 *954:A *690:C 0.00013262
16 *954:A *404:14 0.000262132
17 *955:A *404:14 0.00017562
18 *993:A *404:14 2.16355e-05
19 *167:16 *690:C 5.33358e-06
*RES
1 *955:X *404:14 31.8887 
2 *404:14 *690:C 19.9081 
3 *404:14 *639:A0 13.7491 
*END

*D_NET *405 0.00679544
*CONN
*I *606:A I *D sky130_fd_sc_hd__xor2_1
*I *690:B I *D sky130_fd_sc_hd__nor4_1
*I *636:A0 I *D sky130_fd_sc_hd__mux2i_1
*I *956:X O *D sky130_fd_sc_hd__buf_4
*CAP
1 *606:A 0.000956447
2 *690:B 0.000216849
3 *636:A0 0.000401521
4 *956:X 0.001053
5 *405:8 0.000714924
6 *606:A *633:S 1.8476e-05
7 *606:A *435:64 2.18821e-05
8 *606:A *459:65 1.43499e-05
9 *636:A0 *435:32 3.20069e-06
10 *636:A0 *435:45 0.000140862
11 *690:B *459:8 0.000113019
12 *519:A *606:A 0.000187482
13 *529:B1 *606:A 1.5714e-05
14 *599:C *405:8 9.43286e-05
15 *605:B *606:A 0.000971854
16 *606:B *606:A 2.52838e-05
17 *636:A1 *636:A0 0.000113968
18 *640:A *690:B 0.000277502
19 *673:S *636:A0 0.000117097
20 *691:D *690:B 0.000161243
21 *903:A *405:8 0.000153559
22 *15:6 *405:8 8.94761e-05
23 *55:12 *636:A0 4.97617e-05
24 *219:14 *606:A 0.000113928
25 *304:18 *606:A 1.19705e-05
26 *390:25 *636:A0 0.000208834
27 *390:25 *690:B 0.000212398
28 *390:35 *636:A0 0.000336507
29 *403:41 *690:B 0
*RES
1 *956:X *405:8 17.8002 
2 *405:8 *636:A0 27.3826 
3 *405:8 *690:B 22.8176 
4 *956:X *606:A 39.0817 
*END

*D_NET *406 0.00850989
*CONN
*I *690:A I *D sky130_fd_sc_hd__nor4_1
*I *633:A0 I *D sky130_fd_sc_hd__mux2i_2
*I *596:A I *D sky130_fd_sc_hd__xor2_1
*I *957:X O *D sky130_fd_sc_hd__buf_4
*CAP
1 *690:A 0.00057262
2 *633:A0 2.79485e-05
3 *596:A 0.000122478
4 *957:X 0.00121733
5 *406:23 0.000827755
6 *406:12 0.001567
7 *596:A *429:16 8.09261e-05
8 *633:A0 *595:A 2.16355e-05
9 *633:A0 *448:10 5.04829e-06
10 *690:A *633:S 7.65164e-05
11 *690:A *1013:A 1.03403e-05
12 *690:A *459:8 0.000352411
13 *406:12 *537:A 5.71992e-05
14 *406:12 *588:A 0.000109421
15 *406:12 *689:C 0.000203756
16 *406:12 *933:A 0
17 *406:12 *958:A 5.40018e-05
18 *406:12 *424:41 1.06958e-05
19 *406:12 *435:26 0
20 *406:12 *442:63 0
21 *406:12 *482:22 0.000183929
22 *406:23 *672:A0 0.000169186
23 *532:A *406:12 0.00018281
24 *532:A *406:23 8.36586e-06
25 *537:B *406:12 0.000201981
26 *588:B *406:12 6.09211e-05
27 *594:C *406:12 2.3939e-05
28 *595:B *596:A 4.87301e-05
29 *605:B *690:A 0.000227491
30 *633:A1 *690:A 8.62625e-06
31 *633:A1 *406:23 0.000135864
32 *690:C *690:A 9.98615e-06
33 *691:D *690:A 3.16131e-05
34 *903:A *690:A 0.000205651
35 *954:A *690:A 0
36 *1002:A *596:A 3.31745e-05
37 *1007:A *690:A 5.30055e-05
38 *1007:A *406:12 0.000140911
39 *1007:A *406:23 0.000514698
40 *31:6 *596:A 0.000157178
41 *55:12 *633:A0 2.16355e-05
42 *163:18 *406:12 0.000361532
43 *204:6 *406:12 2.54243e-05
44 *213:10 *406:12 0.000181333
45 *259:220 *406:12 0.000102677
46 *314:22 *690:A 0
47 *389:45 *406:12 0.000102144
*RES
1 *957:X *406:12 48.7519 
2 *406:12 *596:A 18.9094 
3 *406:12 *406:23 9.72179 
4 *406:23 *633:A0 14.4725 
5 *406:23 *690:A 31.5768 
*END

*D_NET *407 0.00230917
*CONN
*I *689:C I *D sky130_fd_sc_hd__nor4_1
*I *958:X O *D sky130_fd_sc_hd__buf_4
*CAP
1 *689:C 0.0006643
2 *958:X 0.0006643
3 *689:C *958:A 0.000110458
4 *689:C *433:88 4.62112e-05
5 *533:B1 *689:C 2.0139e-05
6 *534:B *689:C 0.000107643
7 *535:A *689:C 3.31745e-05
8 *535:B *689:C 0.000256522
9 *587:B *689:C 2.81262e-05
10 *878:A *689:C 2.41274e-06
11 *196:8 *689:C 0.000167076
12 *202:12 *689:C 0
13 *204:6 *689:C 5.04829e-06
14 *406:12 *689:C 0.000203756
*RES
1 *958:X *689:C 43.2459 
*END

*D_NET *409 0.00624973
*CONN
*I *588:A I *D sky130_fd_sc_hd__xor2_2
*I *689:B I *D sky130_fd_sc_hd__nor4_1
*I *627:A0 I *D sky130_fd_sc_hd__mux2i_1
*I *960:X O *D sky130_fd_sc_hd__buf_4
*CAP
1 *588:A 0.000109727
2 *689:B 0.000105824
3 *627:A0 0.000263455
4 *960:X 0.00023161
5 *409:27 0.00181407
6 *409:12 0.00209358
7 *588:A *1041:A 5.74837e-05
8 *588:A *424:27 0.00014301
9 *588:A *424:41 2.22974e-05
10 *627:A0 *424:41 3.99001e-05
11 *627:A0 *433:40 0.000364807
12 *627:A0 *433:42 0.000176302
13 *689:B *587:A 0.000143944
14 *689:B *424:27 5.59546e-05
15 *409:12 *429:28 1.14605e-05
16 *409:27 *459:65 0
17 *670:A1 *627:A0 0.000182224
18 *689:D *409:27 0.000194945
19 *712:D *409:12 2.28129e-05
20 *867:A *627:A0 1.2693e-05
21 *1040:A *588:A 2.05342e-06
22 *1040:A *689:B 5.14254e-06
23 *196:23 *689:B 7.1448e-05
24 *390:49 *627:A0 1.55642e-05
25 *406:12 *588:A 0.000109421
*RES
1 *960:X *409:12 18.7594 
2 *409:12 *627:A0 27.0473 
3 *409:12 *409:27 6.78424 
4 *409:27 *689:B 17.4498 
5 *409:27 *588:A 17.8973 
*END

*D_NET *410 0.00511228
*CONN
*I *699:A0 I *D sky130_fd_sc_hd__mux2i_1
*I *687:A I *D sky130_fd_sc_hd__nor4_1
*I *961:X O *D sky130_fd_sc_hd__buf_4
*CAP
1 *699:A0 0.00049988
2 *687:A 0.000711543
3 *961:X 0
4 *410:4 0.00121142
5 *687:A *654:A1 0.000355982
6 *687:A *711:CLK 0
7 *687:A *727:DE 5.55855e-05
8 *699:A0 *541:A1 0.000421753
9 *699:A0 *699:A1 0.000107496
10 *699:A0 *436:64 0.000202726
11 *699:A0 *443:82 0.000114369
12 *561:B *699:A0 0.000163982
13 *687:D *687:A 0.000350046
14 *701:A2 *699:A0 3.31745e-05
15 *757:A2 *687:A 4.2664e-06
16 *880:A *699:A0 2.18679e-05
17 *893:A *687:A 0.000189966
18 *893:A *699:A0 2.57365e-05
19 *961:A *687:A 0.000107496
20 *961:A *699:A0 4.66492e-05
21 *1005:A *699:A0 7.40248e-05
22 *36:10 *699:A0 2.95757e-05
23 *179:14 *687:A 3.63738e-05
24 *180:10 *687:A 6.64671e-06
25 *259:162 *687:A 3.82228e-05
26 *259:162 *699:A0 3.82228e-05
27 *319:36 *687:A 2.58361e-05
28 *370:18 *699:A0 9.29919e-05
29 *390:182 *699:A0 7.77897e-05
30 *390:192 *699:A0 6.86539e-05
*RES
1 *961:X *410:4 9.24915 
2 *410:4 *687:A 38.7046 
3 *410:4 *699:A0 35.7887 
*END

*D_NET *411 0.00337098
*CONN
*I *688:D I *D sky130_fd_sc_hd__nor4_1
*I *666:A0 I *D sky130_fd_sc_hd__mux2i_1
*I *962:X O *D sky130_fd_sc_hd__buf_4
*CAP
1 *688:D 0
2 *666:A0 0.000406206
3 *962:X 0.000223447
4 *411:16 0.000629652
5 *666:A0 *558:B 0.000277242
6 *666:A0 *688:B 0.000266846
7 *411:16 *657:A0 0.000144546
8 *411:16 *688:A 0.00017066
9 *411:16 *688:B 0.000164843
10 *411:16 *428:8 0.00021435
11 *558:A *666:A0 2.86259e-05
12 *559:A *411:16 0.000109421
13 *614:C1 *666:A0 5.04423e-06
14 *615:A1 *666:A0 0.000330763
15 *668:A2 *666:A0 3.13805e-06
16 *1003:A *666:A0 1.06805e-05
17 *256:8 *666:A0 4.24488e-05
18 *257:12 *666:A0 0
19 *278:19 *411:16 0.000318803
20 *282:37 *411:16 2.42609e-05
*RES
1 *962:X *411:16 28.6169 
2 *411:16 *666:A0 31.1354 
3 *411:16 *688:D 9.24915 
*END

*D_NET *412 0.00345017
*CONN
*I *688:C I *D sky130_fd_sc_hd__nor4_1
*I *663:A0 I *D sky130_fd_sc_hd__mux2i_1
*I *963:X O *D sky130_fd_sc_hd__buf_4
*CAP
1 *688:C 0.000559956
2 *663:A0 4.69309e-05
3 *963:X 0.00023904
4 *412:8 0.000845927
5 *663:A0 *657:A0 0.000257494
6 *663:A0 *436:37 0.000157107
7 *688:C *688:A 0
8 *688:C *688:B 2.65831e-05
9 *688:C *492:90 0
10 *555:A *688:C 0.000405789
11 *555:A *412:8 0.000182172
12 *557:B *688:C 0.000170778
13 *665:A1 *663:A0 6.64392e-05
14 *665:A1 *412:8 0
15 *860:A *412:8 0
16 *915:A *688:C 6.50727e-05
17 *76:8 *663:A0 1.37531e-05
18 *102:14 *688:C 0.000157378
19 *102:14 *412:8 8.48982e-05
20 *259:137 *688:C 0.000156869
21 *272:14 *688:C 0
22 *390:211 *688:C 1.39821e-05
*RES
1 *963:X *412:8 20.5642 
2 *412:8 *663:A0 16.691 
3 *412:8 *688:C 30.5709 
*END

*D_NET *139 0.00116798
*CONN
*I *655:A I *D sky130_fd_sc_hd__nand2_1
*I *874:X O *D sky130_fd_sc_hd__clkdlybuf4s50_1
*CAP
1 *655:A 0.000434733
2 *874:X 0.000434733
3 *655:A *874:A 0.000147083
4 *655:A *390:182 0.00012136
5 *655:A *443:82 2.85637e-05
6 *36:10 *655:A 1.5115e-06
*RES
1 *874:X *655:A 35.4604 
*END

*D_NET *413 0.00832429
*CONN
*I *688:B I *D sky130_fd_sc_hd__nor4_1
*I *660:A0 I *D sky130_fd_sc_hd__mux2i_2
*I *964:X O *D sky130_fd_sc_hd__buf_4
*CAP
1 *688:B 0.00131126
2 *660:A0 0.000292955
3 *964:X 0.000592674
4 *413:22 0.00219689
5 *660:A0 *958:A 0.000455558
6 *660:A0 *1054:A 1.84673e-05
7 *688:B *444:14 0
8 *688:B *499:14 0
9 *413:22 *442:118 2.99978e-05
10 *413:22 *442:128 9.78622e-05
11 *413:22 *444:20 1.15099e-05
12 *413:22 *444:22 8.27205e-05
13 *413:22 *444:28 6.31809e-05
14 *551:B *413:22 0.000141497
15 *551:A *413:22 3.75603e-05
16 *578:A1 *688:B 6.50727e-05
17 *615:A1 *688:B 0.000107114
18 *661:A *413:22 0.000264614
19 *662:A1 *660:A0 0.000158002
20 *662:B1 *413:22 1.41976e-05
21 *666:A0 *688:B 0.000266846
22 *680:A1 *688:B 0.000212337
23 *680:A1 *413:22 0.000612333
24 *688:C *688:B 2.65831e-05
25 *761:B *688:B 0.000398767
26 *915:A *688:B 4.17276e-05
27 *932:A *688:B 4.45999e-05
28 *939:A *688:B 8.78565e-06
29 *964:A *413:22 6.50586e-05
30 *1003:A *688:B 6.50586e-05
31 *211:10 *413:22 0
32 *259:22 *413:22 0.000370099
33 *341:16 *688:B 0
34 *378:12 *688:B 0
35 *378:12 *413:22 0.000106111
36 *390:211 *688:B 0
37 *411:16 *688:B 0.000164843
*RES
1 *964:X *413:22 45.6359 
2 *413:22 *660:A0 22.1164 
3 *413:22 *688:B 46.9785 
*END

*D_NET *414 0.00383966
*CONN
*I *688:A I *D sky130_fd_sc_hd__nor4_1
*I *657:A0 I *D sky130_fd_sc_hd__mux2i_2
*I *965:X O *D sky130_fd_sc_hd__buf_4
*CAP
1 *688:A 9.70357e-05
2 *657:A0 0.000420167
3 *965:X 0.00032757
4 *414:10 0.000844773
5 *657:A0 *657:S 4.61271e-05
6 *657:A0 *436:37 3.74146e-05
7 *657:A0 *436:44 4.61271e-05
8 *559:B *414:10 3.56986e-05
9 *663:A0 *657:A0 0.000257494
10 *665:A1 *657:A0 4.17605e-05
11 *688:C *688:A 0
12 *772:A *657:A0 7.01935e-06
13 *896:A *657:A0 0.000648932
14 *965:A *414:10 2.16355e-05
15 *5:12 *657:A0 0.000134976
16 *76:8 *657:A0 0.000116621
17 *102:14 *657:A0 0
18 *102:14 *688:A 0
19 *160:6 *657:A0 0.00027078
20 *272:14 *688:A 0.000101987
21 *278:19 *657:A0 6.09666e-05
22 *278:19 *688:A 7.36804e-06
23 *343:8 *414:10 0
24 *411:16 *657:A0 0.000144546
25 *411:16 *688:A 0.00017066
*RES
1 *965:X *414:10 20.0427 
2 *414:10 *657:A0 31.7608 
3 *414:10 *688:A 17.2421 
*END

*D_NET *408 0.00536912
*CONN
*I *654:A0 I *D sky130_fd_sc_hd__mux2i_1
*I *687:D I *D sky130_fd_sc_hd__nor4_1
*I *959:X O *D sky130_fd_sc_hd__buf_4
*CAP
1 *654:A0 0
2 *687:D 0.000259045
3 *959:X 0.000848002
4 *408:18 0.00110705
5 *687:D *687:A 0.000350046
6 *687:D *617:B 1.46423e-05
7 *687:D *446:27 4.75721e-06
8 *408:18 *654:A1 0.000115595
9 *408:18 *727:DE 0.000662472
10 *408:18 *443:72 2.44599e-05
11 *408:18 *443:82 0
12 *569:B *408:18 0.000158981
13 *572:A *408:18 1.66375e-05
14 *572:B *687:D 5.03545e-06
15 *573:A *408:18 0.000191526
16 *656:A2 *408:18 9.14461e-05
17 *679:A1 *408:18 6.77948e-06
18 *754:A *687:D 0.000302474
19 *757:A2 *687:D 1.91391e-05
20 *774:C1 *687:D 6.65821e-05
21 *959:A *408:18 0.000519279
22 *24:10 *408:18 6.66538e-05
23 *24:25 *408:18 1.69932e-05
24 *383:124 *408:18 0.000265038
25 *384:18 *687:D 4.18215e-06
26 *390:180 *687:D 9.34787e-06
27 *390:180 *408:18 9.58043e-06
28 *390:182 *408:18 0.000233377
*RES
1 *959:X *408:18 48.3204 
2 *408:18 *687:D 26.5587 
3 *408:18 *654:A0 9.24915 
*END

*D_NET *415 0.00333408
*CONN
*I *689:A I *D sky130_fd_sc_hd__nor4_1
*I *624:A0 I *D sky130_fd_sc_hd__mux2i_2
*I *966:X O *D sky130_fd_sc_hd__buf_4
*CAP
1 *689:A 6.4937e-05
2 *624:A0 0.00029732
3 *966:X 0.000215441
4 *415:12 0.000577698
5 *624:A0 *624:A1 8.01922e-05
6 *624:A0 *433:65 6.36477e-05
7 *535:A *689:A 0.000163928
8 *538:A *415:12 9.55484e-05
9 *892:A *624:A0 2.26329e-05
10 *892:A *415:12 1.65872e-05
11 *919:A *624:A0 0.000272361
12 *945:A *624:A0 5.07314e-05
13 *1042:A *415:12 9.12416e-06
14 *43:12 *624:A0 1.37669e-05
15 *196:8 *689:A 0.000409725
16 *196:8 *415:12 1.41976e-05
17 *200:8 *624:A0 0.000484903
18 *260:10 *415:12 0.000178171
19 *389:45 *415:12 0.000303169
*RES
1 *966:X *415:12 25.3723 
2 *415:12 *624:A0 20.5823 
3 *415:12 *689:A 13.8548 
*END

*D_NET *416 0.00119844
*CONN
*I *678:A0 I *D sky130_fd_sc_hd__mux2_4
*I *568:A I *D sky130_fd_sc_hd__nand2_1
*I *967:X O *D sky130_fd_sc_hd__buf_4
*CAP
1 *678:A0 8.98673e-05
2 *568:A 0.000131177
3 *967:X 0
4 *416:6 0.000221044
5 *568:A *492:74 0.000361544
6 *678:A0 *446:97 1.94615e-05
7 *678:A0 *492:74 0.000141811
8 *176:16 *568:A 0.00016051
9 *176:16 *678:A0 7.30217e-05
*RES
1 *967:X *416:6 13.7491 
2 *416:6 *568:A 20.1489 
3 *416:6 *678:A0 17.2421 
*END

*D_NET *417 0.00322398
*CONN
*I *741:A1 I *D sky130_fd_sc_hd__o211ai_1
*I *565:A I *D sky130_fd_sc_hd__nand2_1
*I *677:A0 I *D sky130_fd_sc_hd__mux2_4
*I *968:X O *D sky130_fd_sc_hd__buf_4
*CAP
1 *741:A1 0.000164563
2 *565:A 0
3 *677:A0 0.000516226
4 *968:X 0
5 *417:8 0.000564744
6 *417:4 0.000213081
7 *677:A0 *518:A1 1.40858e-05
8 *677:A0 *518:C1 3.08234e-05
9 *677:A0 *446:10 2.88863e-05
10 *741:A1 *446:23 9.76046e-05
11 *741:A1 *476:16 0.000164034
12 *417:8 *446:10 2.41568e-05
13 *417:8 *446:23 0.000162843
14 *565:B *677:A0 1.7781e-05
15 *677:A1 *677:A0 0.000477694
16 *741:A2 *741:A1 0.00010515
17 *968:A *417:8 6.27782e-05
18 *262:12 *677:A0 0.000435305
19 *321:16 *741:A1 0
20 *401:28 *677:A0 6.50727e-05
21 *401:28 *741:A1 4.2372e-05
22 *401:28 *417:8 3.67828e-05
*RES
1 *968:X *417:4 9.24915 
2 *417:4 *417:8 2.41132 
3 *417:8 *677:A0 34.3857 
4 *417:8 *565:A 9.24915 
5 *417:4 *741:A1 23.0201 
*END

*D_NET *418 0.0107466
*CONN
*I *741:C1 I *D sky130_fd_sc_hd__o211ai_1
*I *755:A I *D sky130_fd_sc_hd__nand2_1
*I *676:A0 I *D sky130_fd_sc_hd__mux2_4
*I *969:X O *D sky130_fd_sc_hd__buf_6
*CAP
1 *741:C1 0.00112457
2 *755:A 0.000505961
3 *676:A0 0.000702496
4 *969:X 0
5 *418:33 0.00219868
6 *418:4 0.00127065
7 *676:A0 *734:DE 0.000413252
8 *676:A0 *492:18 4.04463e-05
9 *676:A0 *492:41 0.000104253
10 *741:C1 *491:26 5.05252e-05
11 resp_msg[7] *676:A0 0.000123176
12 *518:A2 *755:A 0
13 *564:C *741:C1 4.47293e-05
14 *602:A1 *418:33 3.09433e-05
15 *647:B1 *676:A0 0
16 *649:A *741:C1 0.000888879
17 *651:A0 *741:C1 2.73863e-06
18 *653:A2 *741:C1 1.21461e-06
19 *741:A2 *741:C1 2.14842e-06
20 *754:A *755:A 7.6276e-06
21 *755:B *755:A 0.000270856
22 *905:A *676:A0 0.000154145
23 *953:A *676:A0 6.79392e-05
24 *968:A *741:C1 0
25 *969:A *676:A0 0.000111802
26 *1:10 *741:C1 0.000324676
27 *27:10 *676:A0 0
28 *27:12 *418:33 6.64646e-05
29 *169:14 *418:33 0
30 *223:10 *755:A 1.43983e-05
31 *224:10 *755:A 7.28994e-06
32 *315:10 *418:33 0.000563643
33 *324:18 *755:A 3.14978e-05
34 *334:14 *755:A 0.000120121
35 *340:16 *755:A 0.000112367
36 *341:16 *755:A 6.43294e-05
37 *358:72 *741:C1 4.21817e-05
38 *358:72 *755:A 7.74639e-05
39 *383:67 *676:A0 0.000184318
40 *392:16 *676:A0 0.000114584
41 *401:14 *741:C1 0.000115668
42 *401:28 *741:C1 0.000238122
43 *401:28 *755:A 9.49244e-05
44 *402:8 *676:A0 0.000457489
45 *402:8 *418:33 0
*RES
1 *969:X *418:4 9.24915 
2 *418:4 *676:A0 41.2886 
3 *418:4 *418:33 24.5082 
4 *418:33 *755:A 37.5501 
5 *418:33 *741:C1 47.3642 
*END

*D_NET *419 0.0108033
*CONN
*I *611:A I *D sky130_fd_sc_hd__nand2_1
*I *602:C1 I *D sky130_fd_sc_hd__o211ai_1
*I *675:A0 I *D sky130_fd_sc_hd__mux2_4
*I *970:X O *D sky130_fd_sc_hd__buf_6
*CAP
1 *611:A 0.000217906
2 *602:C1 0.000995573
3 *675:A0 0.000244005
4 *970:X 4.39206e-05
5 *419:31 0.00140196
6 *419:18 0.00201855
7 *419:10 0.00200695
8 *419:18 *623:A_N 0
9 *517:A *611:A 1.98899e-06
10 *518:A2 *602:C1 0.000313935
11 *604:A *419:18 0.00112929
12 *604:A *419:31 0.000144819
13 *607:B *419:10 6.65984e-05
14 *608:B *419:18 4.34169e-05
15 *611:B *602:C1 5.27547e-06
16 *611:B *611:A 0.000245049
17 *611:B *419:31 0.00013266
18 *612:A *419:18 5.87521e-05
19 *693:B1 *675:A0 0.00011818
20 *694:B2 *675:A0 0.000534349
21 *733:D *675:A0 6.75302e-05
22 *740:A2 *611:A 7.92757e-06
23 *740:A2 *419:31 1.29211e-05
24 *755:B *602:C1 0.000170849
25 *14:10 *419:18 6.80132e-05
26 *168:16 *611:A 0.00014119
27 *242:24 *602:C1 8.23828e-05
28 *316:18 *611:A 3.48647e-05
29 *316:18 *419:10 6.65984e-05
30 *316:18 *419:31 8.94812e-05
31 *390:14 *419:18 0.000201734
32 *403:41 *419:18 0.000136639
*RES
1 *970:X *419:10 19.6659 
2 *419:10 *419:18 41.7687 
3 *419:18 *675:A0 17.737 
4 *419:10 *419:31 9.82561 
5 *419:31 *602:C1 38.8937 
6 *419:31 *611:A 20.1638 
*END

*D_NET *420 0.0117384
*CONN
*I *518:C1 I *D sky130_fd_sc_hd__o211ai_1
*I *674:A0 I *D sky130_fd_sc_hd__mux2_4
*I *607:A I *D sky130_fd_sc_hd__nand2_1
*I *971:X O *D sky130_fd_sc_hd__buf_4
*CAP
1 *518:C1 0.000222282
2 *674:A0 0.000713325
3 *607:A 0.000140635
4 *971:X 7.04904e-05
5 *420:64 0.00214755
6 *420:10 0.00111044
7 *420:6 0.00225224
8 *518:C1 *518:A1 3.5534e-06
9 *518:C1 *476:16 3.83492e-06
10 *607:A *433:20 5.39639e-05
11 *607:A *442:12 0
12 *674:A0 *435:64 0.000114594
13 *420:10 *433:20 7.04911e-05
14 *420:10 *443:16 0.000257204
15 *420:64 *521:A 4.09965e-05
16 *420:64 *984:A 0.000453443
17 *420:64 *997:A 3.11248e-05
18 *420:64 *446:10 0.000256146
19 *420:64 *501:24 0.000421863
20 *521:B *420:64 0.000423936
21 *563:B *420:64 0.000304095
22 *604:A *420:6 0.000118166
23 *604:A *420:10 0.000104532
24 *608:B *674:A0 0.000533786
25 *674:A1 *674:A0 6.92705e-05
26 *674:S *674:A0 2.82583e-05
27 *677:A0 *518:C1 3.08234e-05
28 *717:D *420:6 0.000122378
29 *732:D *674:A0 0.000375093
30 *750:A *420:64 0.000114562
31 *754:A *420:64 5.65765e-05
32 *968:A *518:C1 8.0556e-05
33 *1030:A *420:64 4.86974e-06
34 *1045:A *420:64 0.000362878
35 *14:10 *674:A0 0.000260325
36 *61:14 *420:6 7.92757e-06
37 *61:14 *420:10 8.02767e-05
38 *168:16 *420:64 1.58551e-05
39 *225:10 *420:64 5.25754e-05
40 *233:12 *607:A 5.0715e-05
41 *238:10 *518:C1 0
42 *238:10 *420:64 3.52873e-06
43 *266:10 *420:64 1.05272e-06
44 *315:10 *518:C1 0.000113968
45 *401:28 *420:64 3.56314e-05
46 *403:41 *674:A0 2.2594e-05
*RES
1 *971:X *420:6 11.6364 
2 *420:6 *420:10 12.976 
3 *420:10 *607:A 17.6896 
4 *420:10 *674:A0 38.0899 
5 *420:6 *420:64 47.265 
6 *420:64 *518:C1 22.0966 
*END

*D_NET *421 0.00517847
*CONN
*I *673:A0 I *D sky130_fd_sc_hd__mux2_4
*I *605:A I *D sky130_fd_sc_hd__nand2_1
*I *972:X O *D sky130_fd_sc_hd__buf_4
*CAP
1 *673:A0 0.000687905
2 *605:A 0.000211173
3 *972:X 0.000697616
4 *421:12 0.00159669
5 *673:A0 *470:28 0.000553213
6 *421:12 *519:B 6.79142e-05
7 *531:A *673:A0 6.23946e-05
8 *599:C *605:A 3.0769e-05
9 *599:C *421:12 2.57102e-05
10 *673:A1 *673:A0 3.10342e-05
11 *673:S *673:A0 9.12416e-06
12 *715:D *421:12 2.58757e-05
13 *954:A *673:A0 1.9633e-05
14 *16:12 *605:A 0.000413811
15 *16:12 *421:12 6.51423e-05
16 *30:10 *421:12 5.38447e-05
17 *166:18 *605:A 0.000540371
18 *229:10 *605:A 8.62406e-05
19 *403:14 *673:A0 0
*RES
1 *972:X *421:12 24.7871 
2 *421:12 *605:A 23.7819 
3 *421:12 *673:A0 34.0877 
*END

*D_NET *140 0.00134982
*CONN
*I *658:A I *D sky130_fd_sc_hd__nand2_1
*I *875:X O *D sky130_fd_sc_hd__clkdlybuf4s50_1
*CAP
1 *658:A 0.000418495
2 *875:X 0.000418495
3 *658:A *630:S 0.000162534
4 *658:A *707:CLK 1.07248e-05
5 *658:A *865:A 0
6 *658:A *895:A 0.000242836
7 *631:A *658:A 9.67373e-05
*RES
1 *875:X *658:A 38.6374 
*END

*D_NET *423 0.00490797
*CONN
*I *592:A I *D sky130_fd_sc_hd__nand2_2
*I *590:B I *D sky130_fd_sc_hd__xnor2_2
*I *671:A0 I *D sky130_fd_sc_hd__mux2_4
*I *974:X O *D sky130_fd_sc_hd__buf_4
*CAP
1 *592:A 0.000402687
2 *590:B 2.58245e-05
3 *671:A0 0.000370422
4 *974:X 0
5 *423:27 0.000882166
6 *423:4 0.000824076
7 *590:B *435:16 2.58757e-05
8 *592:A *494:16 0.00015607
9 *592:A *505:18 0.000107805
10 *592:A *510:16 0.000346137
11 *423:27 *447:10 0
12 *423:27 *510:16 0.000462028
13 *532:B *592:A 0.000124377
14 *591:A *671:A0 6.50727e-05
15 *591:A *423:27 0.000503105
16 *671:A1 *671:A0 3.14978e-05
17 *671:S *671:A0 2.82583e-05
18 *729:D *671:A0 0.000217937
19 *878:A *423:27 0
20 *900:A *671:A0 6.80619e-05
21 *1057:A *592:A 8.36586e-06
22 *1059:A *592:A 0
23 *32:12 *671:A0 0.00018985
24 *164:12 *671:A0 0
25 *259:10 *592:A 0
26 *259:16 *423:27 0
27 *306:10 *592:A 6.83508e-05
28 *372:12 *592:A 0
*RES
1 *974:X *423:4 9.24915 
2 *423:4 *671:A0 28.7591 
3 *423:4 *423:27 19.6523 
4 *423:27 *590:B 14.4725 
5 *423:27 *592:A 27.0378 
*END

*D_NET *424 0.0102078
*CONN
*I *534:A I *D sky130_fd_sc_hd__nand3_2
*I *583:A I *D sky130_fd_sc_hd__nor2_1
*I *670:A0 I *D sky130_fd_sc_hd__mux2_4
*I *587:A I *D sky130_fd_sc_hd__nand2_1
*I *975:X O *D sky130_fd_sc_hd__buf_4
*CAP
1 *534:A 7.737e-05
2 *583:A 0.000197758
3 *670:A0 0
4 *587:A 0.000409659
5 *975:X 0.000217304
6 *424:52 0.000413858
7 *424:41 0.00174996
8 *424:27 0.00206562
9 *424:8 0.000803888
10 *534:A *435:16 1.58551e-05
11 *587:A *433:65 0.00058101
12 *424:8 *537:A 5.22855e-05
13 *424:27 *1041:A 2.76257e-05
14 *424:52 *1041:A 0.000154791
15 *523:A *587:A 0.000170685
16 *533:A1 *587:A 0.000326129
17 *533:A2 *587:A 4.5731e-05
18 *533:B1 *587:A 3.14978e-05
19 *581:A2 *583:A 0.000127164
20 *583:B *583:A 6.08467e-05
21 *588:A *424:27 0.00014301
22 *588:A *424:41 2.22974e-05
23 *627:A0 *424:41 3.99001e-05
24 *670:A1 *424:41 7.68277e-05
25 *670:S *424:41 5.04829e-06
26 *671:A1 *587:A 0.00027329
27 *689:B *587:A 0.000143944
28 *689:B *424:27 5.59546e-05
29 *689:D *587:A 5.54271e-05
30 *689:D *424:27 3.27606e-06
31 *728:D *424:41 1.55915e-05
32 *892:A *587:A 0.00016258
33 *1040:A *583:A 0.000331014
34 *1040:A *424:52 4.19665e-06
35 *107:10 *424:27 0
36 *163:18 *424:41 3.51868e-05
37 *194:10 *587:A 0
38 *196:23 *587:A 8.21849e-06
39 *196:36 *583:A 0
40 *196:36 *424:8 4.47179e-05
41 *196:36 *424:27 8.9803e-05
42 *196:36 *424:52 2.80058e-05
43 *202:12 *587:A 4.1307e-05
44 *213:16 *583:A 1.03403e-05
45 *259:220 *424:41 9.84506e-05
46 *259:280 *583:A 2.5386e-05
47 *389:16 *424:41 1.77537e-06
48 *389:45 *424:41 0.000952568
49 *406:12 *424:41 1.06958e-05
*RES
1 *975:X *424:8 18.3548 
2 *424:8 *587:A 31.2945 
3 *424:8 *424:27 6.0578 
4 *424:27 *424:41 42.4512 
5 *424:41 *670:A0 9.24915 
6 *424:27 *424:52 8.4405 
7 *424:52 *583:A 25.5358 
8 *424:52 *534:A 11.1059 
*END

*D_NET *425 0.00453149
*CONN
*I *541:A1 I *D sky130_fd_sc_hd__a221oi_2
*I *621:A0 I *D sky130_fd_sc_hd__mux2_4
*I *976:X O *D sky130_fd_sc_hd__buf_4
*CAP
1 *541:A1 0.000336431
2 *621:A0 0.00064669
3 *976:X 0.000213205
4 *425:8 0.00119633
5 *541:A1 *443:82 0.00042652
6 *621:A0 *492:74 3.92275e-05
7 resp_msg[10] *425:8 6.47133e-05
8 *699:A0 *541:A1 0.000421753
9 *752:B1 *621:A0 4.61705e-05
10 *893:A *621:A0 0.000706331
11 *893:A *425:8 7.60137e-05
12 *921:A *541:A1 0.000115307
13 *931:A *621:A0 3.11767e-05
14 *259:162 *425:8 8.90311e-06
15 *319:36 *621:A0 0
16 *370:18 *541:A1 0.000202726
*RES
1 *976:X *425:8 14.4335 
2 *425:8 *621:A0 30.4257 
3 *425:8 *541:A1 30.9638 
*END

*D_NET *426 0.00185398
*CONN
*I *575:A I *D sky130_fd_sc_hd__nand2_1
*I *680:A0 I *D sky130_fd_sc_hd__mux2_4
*I *977:X O *D sky130_fd_sc_hd__buf_4
*CAP
1 *575:A 0.000262925
2 *680:A0 0.000245292
3 *977:X 0
4 *426:4 0.000508217
5 *575:A *444:14 8.12426e-06
6 *575:B *575:A 0.000259623
7 *761:B *575:A 4.97617e-05
8 *932:A *575:A 0.000112275
9 *977:A *575:A 6.36477e-05
10 *977:A *680:A0 0.000161243
11 *378:12 *680:A0 0.000182869
12 *390:211 *680:A0 0
*RES
1 *977:X *426:4 9.24915 
2 *426:4 *680:A0 25.3779 
3 *426:4 *575:A 25.5708 
*END

*D_NET *427 0.00330187
*CONN
*I *697:B2 I *D sky130_fd_sc_hd__a22oi_2
*I *619:A I *D sky130_fd_sc_hd__clkinv_1
*I *623:B I *D sky130_fd_sc_hd__nand2b_1
*I *978:X O *D sky130_fd_sc_hd__buf_4
*CAP
1 *697:B2 3.08555e-05
2 *619:A 0
3 *623:B 0.000320597
4 *978:X 0.000383718
5 *427:29 3.08555e-05
6 *427:12 0.000704315
7 *623:B *693:A1 0
8 *623:B *445:29 6.48025e-05
9 *427:12 *696:A 0.00015511
10 *427:12 *698:A 0.000224395
11 *427:12 *445:29 2.32865e-05
12 *620:A1 *697:B2 6.27782e-05
13 *694:A1 *697:B2 0.000159038
14 *694:B1 *697:B2 0.000110458
15 *696:B_N *427:12 0.000480491
16 *697:B1 *623:B 5.25612e-05
17 *698:B *623:B 5.78792e-05
18 *698:B *427:12 1.45799e-05
19 *703:D *427:12 0.000426154
*RES
1 *978:X *427:12 28.6553 
2 *427:12 *623:B 21.7708 
3 *427:12 *427:29 4.5 
4 *427:29 *619:A 9.24915 
5 *427:29 *697:B2 11.0817 
*END

*D_NET *428 0.00729975
*CONN
*I *682:S I *D sky130_fd_sc_hd__mux2_4
*I *681:S I *D sky130_fd_sc_hd__mux2_4
*I *680:S I *D sky130_fd_sc_hd__mux2_4
*I *979:X O *D sky130_fd_sc_hd__buf_8
*CAP
1 *682:S 0.000524244
2 *681:S 0.000565156
3 *680:S 0.000295598
4 *979:X 0.0011535
5 *428:8 0.00149001
6 *681:S *725:DE 2.19131e-05
7 *681:S *726:DE 0.000115026
8 *681:S *433:88 4.15201e-05
9 *681:S *442:144 0.000107063
10 *428:8 *979:A 4.89392e-05
11 *545:A2 *682:S 2.86829e-05
12 *553:B *682:S 5.56367e-05
13 *554:B *682:S 5.04829e-06
14 *555:B *682:S 1.22289e-05
15 *559:A *428:8 5.85259e-05
16 *574:A *680:S 0.000347214
17 *574:A *428:8 0.000160617
18 *575:B *681:S 4.8236e-05
19 *709:D *681:S 0.000303768
20 *724:D *681:S 6.08467e-05
21 *765:A2 *680:S 4.89251e-05
22 *860:A *682:S 0
23 *896:A *682:S 6.08502e-05
24 *929:A *680:S 0.000136062
25 *124:16 *681:S 0.000204766
26 *184:14 *428:8 0.000300565
27 *187:10 *681:S 0.000181586
28 *254:10 *681:S 0.000100594
29 *276:8 *682:S 0.00031324
30 *280:16 *681:S 8.44601e-05
31 *282:22 *680:S 1.9898e-05
32 *282:37 *680:S 2.22974e-05
33 *282:37 *682:S 6.27718e-05
34 *282:37 *428:8 0.0001056
35 *411:16 *428:8 0.00021435
*RES
1 *979:X *428:8 25.5256 
2 *428:8 *680:S 18.171 
3 *428:8 *681:S 37.0727 
4 *979:X *682:S 41.9889 
*END

*D_NET *389 0.0168403
*CONN
*I *675:S I *D sky130_fd_sc_hd__mux2_4
*I *674:S I *D sky130_fd_sc_hd__mux2_4
*I *673:S I *D sky130_fd_sc_hd__mux2_4
*I *672:S I *D sky130_fd_sc_hd__mux2_4
*I *669:S I *D sky130_fd_sc_hd__mux2_4
*I *671:S I *D sky130_fd_sc_hd__mux2_4
*I *670:S I *D sky130_fd_sc_hd__mux2_4
*I *940:X O *D sky130_fd_sc_hd__buf_12
*CAP
1 *675:S 0.000376452
2 *674:S 0.000459932
3 *673:S 0.000833809
4 *672:S 0.000190422
5 *669:S 0
6 *671:S 0.000343658
7 *670:S 0.00010076
8 *940:X 0
9 *389:91 0.00104837
10 *389:45 0.00109225
11 *389:31 0.00103786
12 *389:16 0.000950511
13 *389:12 0.000805547
14 *389:10 0.00132426
15 *389:6 0.000647788
16 *670:S *424:41 5.04829e-06
17 *671:S *624:A1 9.39633e-05
18 *671:S *671:A0 2.82583e-05
19 *672:S *672:A0 2.67839e-05
20 *672:S *998:A 9.70163e-05
21 *673:S *531:A 3.63738e-05
22 *673:S *595:A 5.04829e-06
23 *673:S *633:S 0
24 *673:S *636:A0 0.000117097
25 *673:S *636:S 4.04995e-05
26 *673:S *673:A0 9.12416e-06
27 *673:S *435:32 0
28 *673:S *435:45 0
29 *674:S *674:A0 2.82583e-05
30 *675:S *623:A_N 0
31 *675:S *940:A 0
32 *675:S *442:243 1.03986e-05
33 *675:S *445:37 0.000175227
34 *675:S *459:21 0
35 *389:10 *442:22 0.000110131
36 *389:10 *442:32 0.000171039
37 *389:12 *442:32 9.75356e-05
38 *389:16 *947:A 0.000168264
39 *389:16 *424:41 1.77537e-06
40 *389:16 *433:40 0
41 *389:16 *442:32 0.000194253
42 *389:16 *442:46 0
43 *389:16 *453:10 1.04511e-05
44 *389:45 *537:A 0
45 *389:45 *406:12 0.000102144
46 *389:45 *415:12 0.000303169
47 *389:45 *424:41 0.000952568
48 *389:45 *435:26 1.03594e-05
49 *389:45 *442:63 4.51709e-05
50 *389:45 *482:22 0
51 *389:91 *433:40 3.51288e-06
52 *389:91 *442:22 4.16075e-05
53 *389:91 *442:243 5.43198e-05
54 *389:91 *459:21 0
55 resp_msg[0] *671:S 1.40434e-05
56 resp_msg[5] *389:10 0.000135599
57 resp_msg[5] *389:91 3.57291e-06
58 *523:A *671:S 0.000169872
59 *584:B *671:S 0.000785643
60 *584:B *389:45 0.00031198
61 *595:B *673:S 3.93341e-05
62 *596:B *389:16 0
63 *634:A *389:16 2.54199e-05
64 *635:B1 *389:16 0.000121677
65 *669:A0 *389:45 2.79626e-05
66 *669:A1 *389:31 9.92716e-05
67 *670:A1 *389:16 0
68 *671:A1 *671:S 0.00011818
69 *674:A1 *674:S 5.56461e-05
70 *674:A1 *675:S 7.40084e-05
71 *693:B1 *675:S 0
72 *716:D *675:S 0.000552737
73 *728:D *670:S 9.09902e-05
74 *728:D *389:31 7.66391e-06
75 *730:D *672:S 0.00011818
76 *730:D *389:10 0.000142683
77 *730:D *389:12 0
78 *730:D *389:91 7.42533e-05
79 *732:D *674:S 0.0004245
80 *732:D *675:S 7.06383e-05
81 *733:D *675:S 0.000130909
82 *867:A *389:16 1.47684e-05
83 *881:A *389:16 0.000209652
84 *892:A *671:S 0.000171288
85 *903:A *389:10 0.000138334
86 *1042:A *671:S 0.00011818
87 *55:12 *673:S 4.42055e-05
88 *88:26 *389:31 8.07858e-05
89 *163:18 *389:16 0
90 *163:18 *389:45 9.90413e-05
91 *199:12 *389:45 2.68034e-05
92 *259:220 *389:45 3.20264e-05
93 *260:10 *389:45 0.000159469
*RES
1 *940:X *389:6 13.7491 
2 *389:6 *389:10 15.4376 
3 *389:10 *389:12 1.832 
4 *389:12 *389:16 21.2811 
5 *389:16 *670:S 12.2392 
6 *389:16 *389:31 7.25807 
7 *389:31 *389:45 44.8278 
8 *389:45 *671:S 23.3071 
9 *389:31 *669:S 9.24915 
10 *389:12 *672:S 18.3789 
11 *389:10 *673:S 36.5304 
12 *389:6 *389:91 6.47305 
13 *389:91 *674:S 22.1164 
14 *389:91 *675:S 28.0387 
*END

*D_NET *443 0.0264505
*CONN
*I *891:A I *D sky130_fd_sc_hd__dlygate4sd2_1
*I *1043:A I *D sky130_fd_sc_hd__buf_6
*I *979:A I *D sky130_fd_sc_hd__buf_8
*I *620:B1_N I *D sky130_fd_sc_hd__o21bai_4
*I *623:A_N I *D sky130_fd_sc_hd__nand2b_1
*I *940:A I *D sky130_fd_sc_hd__buf_12
*I *994:X O *D sky130_fd_sc_hd__buf_12
*CAP
1 *891:A 9.48513e-05
2 *1043:A 1.14991e-05
3 *979:A 0.000604776
4 *620:B1_N 0
5 *623:A_N 0.000403194
6 *940:A 0.000630675
7 *994:X 0.000950922
8 *443:82 0.00185949
9 *443:74 0.00153404
10 *443:72 0.000989309
11 *443:68 0.00283062
12 *443:60 0.00228135
13 *443:18 0.00125651
14 *443:16 0.0010962
15 *979:A *512:12 0.00013832
16 *443:16 *491:10 0.000125695
17 *443:60 *490:10 5.62448e-05
18 *443:68 *718:CLK 4.59725e-05
19 *443:68 *445:16 1.43698e-05
20 *443:68 *445:121 9.72193e-05
21 *443:68 *492:58 7.0179e-06
22 *443:72 *678:S 1.80042e-05
23 *443:72 *446:97 0.00097258
24 *443:72 *446:105 0.000725288
25 *443:72 *492:58 3.15962e-05
26 *443:82 *621:S 0.000864486
27 resp_msg[14] *979:A 1.02634e-05
28 resp_msg[15] *443:82 0.000180324
29 resp_val *443:16 2.84892e-05
30 *541:A1 *443:82 0.00042652
31 *545:A2 *979:A 0
32 *566:A *443:68 2.44599e-05
33 *566:B *443:68 0.00035344
34 *569:A *891:A 3.83955e-05
35 *569:A *443:74 0.000105415
36 *610:B *443:16 0.000255298
37 *640:A *940:A 0.000257346
38 *643:A *443:16 0
39 *649:A *443:68 1.13031e-05
40 *655:A *443:82 2.85637e-05
41 *675:S *623:A_N 0
42 *675:S *940:A 0
43 *677:A1 *443:68 0.000138334
44 *678:A1 *443:72 0.000275256
45 *679:A1 *443:82 0.000132669
46 *686:B_N *443:16 0
47 *693:B1 *623:A_N 0
48 *697:B1 *623:A_N 3.31882e-05
49 *699:A0 *443:82 0.000114369
50 *716:D *940:A 9.61957e-05
51 *717:D *443:16 4.3188e-05
52 *717:DE *443:16 3.64081e-05
53 *718:D *443:68 2.93504e-05
54 *733:D *623:A_N 0
55 *735:D *443:68 7.1982e-05
56 *736:D *443:72 1.41181e-05
57 *747:B *443:68 2.47295e-05
58 *861:A *979:A 7.18816e-06
59 *869:A *940:A 0.000639258
60 *880:A *443:82 1.91246e-05
61 *886:A *443:68 0
62 *887:A *443:72 0.000118116
63 *921:A *443:82 0.000159064
64 *950:A *443:16 3.9273e-05
65 *976:A *443:82 0
66 *1005:A *443:82 2.2766e-06
67 *1049:A *979:A 0.000209283
68 *1049:A *443:82 4.87198e-05
69 *1068:A *443:16 0
70 *10:10 *1043:A 6.27782e-05
71 *13:10 *443:16 6.33927e-05
72 *13:10 *443:18 5.42221e-05
73 *24:10 *443:82 0
74 *24:25 *443:82 0
75 *36:10 *443:82 2.54463e-05
76 *39:10 *443:16 0.000124038
77 *61:14 *443:16 0.000130628
78 *104:14 *940:A 4.64934e-05
79 *104:14 *443:16 8.73768e-05
80 *104:14 *443:18 0.000158227
81 *259:188 *1043:A 6.27782e-05
82 *259:188 *443:82 0.000154682
83 *282:37 *979:A 0.000111672
84 *288:18 *443:82 9.57245e-05
85 *383:150 *979:A 8.72115e-06
86 *383:150 *443:82 4.7971e-05
87 *390:14 *623:A_N 0
88 *390:25 *623:A_N 0.000215682
89 *390:25 *940:A 0.000202664
90 *390:134 *443:68 2.19686e-05
91 *390:155 *443:68 0.000366707
92 *390:170 *443:72 0.000973696
93 *397:8 *443:74 1.73659e-05
94 *397:8 *443:82 3.44412e-06
95 *408:18 *443:72 2.44599e-05
96 *408:18 *443:82 0
97 *419:18 *623:A_N 0
98 *420:10 *443:16 0.000257204
99 *428:8 *979:A 4.89392e-05
100 *433:20 *443:16 0.000208968
101 *436:50 *979:A 0.000358446
102 *436:50 *443:82 0.000522067
103 *442:22 *940:A 0.000144102
104 *442:243 *940:A 0.000238537
*RES
1 *994:X *443:16 45.2354 
2 *443:16 *443:18 6.82404 
3 *443:18 *940:A 41.474 
4 *443:18 *623:A_N 28.8014 
5 *443:16 *620:B1_N 9.24915 
6 *994:X *443:60 20.4964 
7 *443:60 *443:68 46.0718 
8 *443:68 *443:72 31.2898 
9 *443:72 *443:74 7.64553 
10 *443:74 *443:82 44.5785 
11 *443:82 *979:A 33.8873 
12 *443:74 *1043:A 14.4725 
13 *443:72 *891:A 16.4116 
*END

*D_NET *430 0.00281028
*CONN
*I *696:A I *D sky130_fd_sc_hd__nor2b_1
*I *698:A I *D sky130_fd_sc_hd__nor2_1
*I *981:X O *D sky130_fd_sc_hd__buf_4
*CAP
1 *696:A 8.40635e-05
2 *698:A 0.000582432
3 *981:X 0
4 *430:4 0.000666495
5 *694:A2 *698:A 0.000163689
6 *694:B2 *698:A 0.000103526
7 *703:D *696:A 6.22703e-05
8 *703:D *698:A 0.000652855
9 *704:D *698:A 0
10 *978:A *698:A 0
11 *981:A *696:A 8.28869e-05
12 *981:A *698:A 3.25584e-05
13 *427:12 *696:A 0.00015511
14 *427:12 *698:A 0.000224395
*RES
1 *981:X *430:4 9.24915 
2 *430:4 *698:A 38.1408 
3 *430:4 *696:A 13.3243 
*END

*D_NET *141 0.00135493
*CONN
*I *661:A I *D sky130_fd_sc_hd__nand2_1
*I *876:X O *D sky130_fd_sc_hd__clkdlybuf4s50_1
*CAP
1 *661:A 0.00041302
2 *876:X 0.00041302
3 *661:A *709:CLK 1.64789e-05
4 *661:A *413:22 0.000264614
5 *661:A *442:128 0.000151553
6 *661:A *442:144 9.62455e-05
*RES
1 *876:X *661:A 30.362 
*END

*D_NET *431 0.00149117
*CONN
*I *697:A1 I *D sky130_fd_sc_hd__a22oi_2
*I *982:X O *D sky130_fd_sc_hd__buf_4
*CAP
1 *697:A1 0.000165807
2 *982:X 0.000165807
3 *697:A1 *445:29 0.000657147
4 *620:A1 *697:A1 6.45538e-05
5 *684:B *697:A1 2.86829e-05
6 *694:A1 *697:A1 6.08467e-05
7 *697:B1 *697:A1 5.03545e-06
8 *982:A *697:A1 8.80168e-05
9 *37:6 *697:A1 0.000255277
*RES
1 *982:X *697:A1 36.4571 
*END

*D_NET *447 0.00471211
*CONN
*I *1054:A I *D sky130_fd_sc_hd__buf_4
*I *593:B I *D sky130_fd_sc_hd__xor2_4
*I *630:A0 I *D sky130_fd_sc_hd__mux2i_1
*I *1001:X O *D sky130_fd_sc_hd__buf_6
*CAP
1 *1054:A 0.000779804
2 *593:B 0.000328252
3 *630:A0 4.56739e-05
4 *1001:X 0
5 *447:10 0.000725396
6 *447:4 0.00113127
7 *1054:A *958:A 3.61666e-05
8 *591:A *447:10 0
9 *630:S *593:B 0.00010387
10 *632:A1 *630:A0 6.50586e-05
11 *632:B1 *593:B 7.53561e-05
12 *632:B1 *630:A0 0.000115934
13 *660:A0 *1054:A 1.84673e-05
14 *660:S *447:10 6.68963e-06
15 *662:A1 *1054:A 2.33652e-05
16 *1001:A *1054:A 2.16355e-05
17 *1001:A *447:10 0.000196653
18 *17:10 *447:10 0.000498065
19 *76:8 *1054:A 0
20 *164:12 *447:10 0.000293637
21 *211:10 *1054:A 8.43875e-05
22 *259:16 *447:10 0.000162422
23 *423:27 *447:10 0
*RES
1 *1001:X *447:4 9.24915 
2 *447:4 *447:10 22.4591 
3 *447:10 *630:A0 11.1059 
4 *447:10 *593:B 17.2065 
5 *447:4 *1054:A 21.5228 
*END

*D_NET *448 0.0053691
*CONN
*I *672:A0 I *D sky130_fd_sc_hd__mux2_4
*I *595:A I *D sky130_fd_sc_hd__nand2_1
*I *1002:X O *D sky130_fd_sc_hd__buf_4
*CAP
1 *672:A0 0.000722351
2 *595:A 0.000283865
3 *1002:X 0.000551141
4 *448:10 0.00155736
5 *595:A *633:S 4.25587e-05
6 *448:10 *455:12 6.50727e-05
7 *595:B *595:A 8.66963e-05
8 *633:A0 *595:A 2.16355e-05
9 *633:A0 *448:10 5.04829e-06
10 *633:A1 *672:A0 0.000169186
11 *633:A1 *448:10 7.61323e-05
12 *636:A1 *672:A0 6.98046e-05
13 *672:S *672:A0 2.67839e-05
14 *673:S *595:A 5.04829e-06
15 *998:A *672:A0 0.000248749
16 *1047:A *448:10 0.000111722
17 *55:12 *595:A 8.88984e-06
18 *55:12 *448:10 2.41679e-05
19 *166:18 *672:A0 0.000124095
20 *220:12 *448:10 0.000154145
21 *220:23 *448:10 0.000132809
22 *390:35 *672:A0 0.000553621
23 *406:23 *672:A0 0.000169186
24 *429:104 *672:A0 0.000159032
*RES
1 *1002:X *448:10 21.2575 
2 *448:10 *595:A 14.4576 
3 *448:10 *672:A0 40.5451 
*END

*D_NET *449 0.00313608
*CONN
*I *657:A1 I *D sky130_fd_sc_hd__mux2i_2
*I *1003:X O *D sky130_fd_sc_hd__buf_4
*CAP
1 *657:A1 0
2 *1003:X 0.00133443
3 *449:16 0.00133443
4 *665:A1 *449:16 0.000121004
5 *665:A2 *449:16 3.51249e-05
6 *665:B1 *449:16 0
7 *76:8 *449:16 1.83992e-05
8 *102:14 *449:16 0.000146225
9 *278:10 *449:16 0.000142795
10 *442:144 *449:16 3.67528e-06
*RES
1 *1003:X *449:16 43.8136 
2 *449:16 *657:A1 9.24915 
*END

*D_NET *451 0.000615575
*CONN
*I *699:A1 I *D sky130_fd_sc_hd__mux2i_1
*I *1005:X O *D sky130_fd_sc_hd__buf_4
*CAP
1 *699:A1 9.89275e-05
2 *1005:X 9.89275e-05
3 *699:A0 *699:A1 0.000107496
4 *701:A2 *699:A1 6.08467e-05
5 *1005:A *699:A1 7.23177e-05
6 *436:64 *699:A1 0.00017706
*RES
1 *1005:X *699:A1 22.7422 
*END

*D_NET *142 0.000718291
*CONN
*I *664:A I *D sky130_fd_sc_hd__nand2_1
*I *877:X O *D sky130_fd_sc_hd__clkdlybuf4s50_1
*CAP
1 *664:A 0.00020638
2 *877:X 0.00020638
3 *664:A *725:DE 6.92705e-05
4 *664:A *278:10 2.55493e-05
5 *664:A *442:144 0.000122416
6 *554:A *664:A 8.82956e-05
*RES
1 *877:X *664:A 33.0196 
*END

*D_NET *450 0.00139366
*CONN
*I *654:A1 I *D sky130_fd_sc_hd__mux2i_1
*I *1004:X O *D sky130_fd_sc_hd__buf_4
*CAP
1 *654:A1 0.000187201
2 *1004:X 0.000187201
3 *654:A1 *492:74 0.000364456
4 *656:A2 *654:A1 0.000115595
5 *687:A *654:A1 0.000355982
6 *727:DE *654:A1 2.57465e-06
7 *893:A *654:A1 6.50586e-05
8 *319:36 *654:A1 0
9 *408:18 *654:A1 0.000115595
*RES
1 *1004:X *654:A1 36.3509 
*END

*D_NET *459 0.0211607
*CONN
*I *725:DE I *D sky130_fd_sc_hd__edfxtp_1
*I *724:DE I *D sky130_fd_sc_hd__edfxtp_1
*I *733:DE I *D sky130_fd_sc_hd__edfxtp_1
*I *732:DE I *D sky130_fd_sc_hd__edfxtp_1
*I *731:DE I *D sky130_fd_sc_hd__edfxtp_1
*I *1013:X O *D sky130_fd_sc_hd__buf_16
*CAP
1 *725:DE 0.000833718
2 *724:DE 0
3 *733:DE 0.000218125
4 *732:DE 1.67259e-05
5 *731:DE 7.60737e-05
6 *1013:X 0
7 *459:65 0.00661218
8 *459:21 0.000641113
9 *459:8 0.00174418
10 *459:4 0.00704031
11 *459:8 *1013:A 3.42081e-05
12 *519:A *459:65 5.83451e-05
13 *538:A *459:65 8.52298e-05
14 *551:A *725:DE 7.34308e-05
15 *551:A *459:65 4.58929e-05
16 *606:A *459:65 1.43499e-05
17 *640:A *459:8 9.02099e-06
18 *640:A *459:21 7.92953e-05
19 *664:A *725:DE 6.92705e-05
20 *675:S *459:21 0
21 *681:S *725:DE 2.19131e-05
22 *689:D *459:65 0
23 *690:A *459:8 0.000352411
24 *690:B *459:8 0.000113019
25 *691:D *459:8 5.91002e-06
26 *724:D *725:DE 0.000385556
27 *724:D *459:65 5.81343e-05
28 *725:D *725:DE 6.64392e-05
29 *725:CLK *725:DE 0.000139981
30 *730:CLK *731:DE 9.43419e-05
31 *730:CLK *459:21 0.000232784
32 *732:D *732:DE 3.42041e-05
33 *732:D *459:21 0
34 *733:D *733:DE 3.34188e-05
35 *869:A *459:8 0.000590684
36 *877:A *725:DE 6.50586e-05
37 *883:A *459:21 2.6434e-05
38 *55:12 *459:65 1.5714e-05
39 *92:16 *731:DE 3.61138e-05
40 *104:14 *733:DE 2.03771e-05
41 *280:16 *725:DE 5.53934e-05
42 *314:22 *459:8 1.03403e-05
43 *314:22 *459:65 1.85244e-05
44 *389:91 *459:21 0
45 *409:27 *459:65 0
46 *432:63 *459:65 0
47 *433:40 *459:21 2.12863e-05
48 *433:88 *459:65 0.000433097
49 *442:80 *459:65 0.000419371
50 *442:95 *459:65 9.15595e-05
51 *442:144 *725:DE 7.50872e-05
52 *444:20 *459:65 9.12416e-06
53 *444:22 *459:65 2.02035e-05
54 *445:51 *733:DE 6.27782e-05
55 *445:53 *459:21 0
*RES
1 *1013:X *459:4 9.24915 
2 *459:4 *459:8 24.6345 
3 *459:8 *731:DE 15.985 
4 *459:8 *459:21 11.798 
5 *459:21 *732:DE 14.153 
6 *459:21 *733:DE 19.113 
7 *459:4 *459:65 31.2762 
8 *459:65 *724:DE 9.24915 
9 *459:65 *725:DE 38.8767 
*END

*D_NET *463 0.00311553
*CONN
*I *985:A I *D sky130_fd_sc_hd__buf_6
*I *984:A I *D sky130_fd_sc_hd__buf_12
*I *1017:X O *D sky130_fd_sc_hd__buf_6
*CAP
1 *985:A 0.00073289
2 *984:A 0.000196553
3 *1017:X 0
4 *463:6 0.000929443
5 *984:A *686:A 0.000143047
6 *985:A *686:A 1.19737e-05
7 *517:B *985:A 0.000362774
8 *740:A2 *985:A 2.02035e-05
9 *750:A *984:A 9.22246e-05
10 *420:64 *984:A 0.000453443
11 *433:20 *984:A 0.000110458
12 *445:12 *984:A 5.53928e-05
13 *445:12 *985:A 7.12632e-06
*RES
1 *1017:X *463:6 13.7491 
2 *463:6 *984:A 21.5719 
3 *463:6 *985:A 22.5942 
*END

*D_NET *143 0.00158685
*CONN
*I *671:A1 I *D sky130_fd_sc_hd__mux2_4
*I *878:X O *D sky130_fd_sc_hd__clkdlybuf4s50_1
*CAP
1 *671:A1 0.000351596
2 *878:X 0.000351596
3 *671:A1 *587:A 0.00027329
4 *671:A1 *587:B 0.000148994
5 *671:A1 *671:A0 3.14978e-05
6 *671:A1 *671:S 0.00011818
7 *671:A1 *729:DE 0.00011557
8 *671:A1 *878:A 0.000187498
9 *671:A1 *433:88 8.62625e-06
*RES
1 *878:X *671:A1 46.4584 
*END

*D_NET *144 0.00129221
*CONN
*I *667:A I *D sky130_fd_sc_hd__nand2_1
*I *879:X O *D sky130_fd_sc_hd__clkdlybuf4s50_1
*CAP
1 *667:A 0.00050049
2 *879:X 0.00050049
3 *667:A resp_msg[11] 9.43419e-05
4 *667:A *879:A 3.18729e-05
5 *667:A *1049:A 3.82228e-05
6 *667:A *383:150 0.000112598
7 *668:B1 *667:A 1.41976e-05
*RES
1 *879:X *667:A 38.5355 
*END

*D_NET *145 0.000465975
*CONN
*I *700:A I *D sky130_fd_sc_hd__nand2_1
*I *880:X O *D sky130_fd_sc_hd__clkdlybuf4s50_1
*CAP
1 *700:A 0.000149623
2 *880:X 0.000149623
3 *700:A *383:140 3.5822e-05
4 *560:A *700:A 0.000130907
*RES
1 *880:X *700:A 30.8842 
*END

*D_NET *146 0.00194021
*CONN
*I *672:A1 I *D sky130_fd_sc_hd__mux2_4
*I *881:X O *D sky130_fd_sc_hd__clkdlybuf4s50_1
*CAP
1 *672:A1 0.000342053
2 *881:X 0.000342053
3 *672:A1 resp_msg[4] 0.000799442
4 *672:A1 *579:A1 0.000211546
5 *672:A1 *390:35 0.000168001
6 *672:A1 *429:104 1.85432e-05
7 *672:A1 *433:40 0
8 *634:A *672:A1 5.20546e-06
9 *714:D *672:A1 2.16355e-05
10 *52:12 *672:A1 3.17291e-05
*RES
1 *881:X *672:A1 40.3096 
*END

*D_NET *474 0.000613353
*CONN
*I *639:S I *D sky130_fd_sc_hd__mux2i_1
*I *1028:X O *D sky130_fd_sc_hd__buf_6
*CAP
1 *639:S 0.000124639
2 *1028:X 0.000124639
3 *638:A1 *639:S 6.50727e-05
4 *641:A2 *639:S 0
5 *690:C *639:S 0
6 *16:8 *639:S 1.65872e-05
7 *433:20 *639:S 0.000115934
8 *442:12 *639:S 0.000135905
9 *442:20 *639:S 3.0577e-05
*RES
1 *1028:X *639:S 31.854 
*END

*D_NET *147 0.0021579
*CONN
*I *673:A1 I *D sky130_fd_sc_hd__mux2_4
*I *882:X O *D sky130_fd_sc_hd__clkdlybuf4s50_1
*CAP
1 *673:A1 0.000665053
2 *882:X 0.000665053
3 *673:A1 *673:A0 3.10342e-05
4 *673:A1 *715:DE 0.000399216
5 *673:A1 *715:CLK 7.66391e-06
6 *673:A1 *403:14 2.91831e-05
7 *673:A1 *435:64 0
8 *637:A *673:A1 0.00035638
9 *954:A *673:A1 4.31603e-06
*RES
1 *882:X *673:A1 39.6789 
*END

*D_NET *121 0.00242101
*CONN
*I *669:A1 I *D sky130_fd_sc_hd__mux2_4
*I *856:X O *D sky130_fd_sc_hd__clkdlybuf4s50_1
*CAP
1 *669:A1 0.000722489
2 *856:X 0.000722489
3 *669:A1 *163:18 8.68786e-05
4 *669:A1 *259:238 0.000350856
5 *669:A1 *389:31 9.92716e-05
6 *669:A1 *433:65 5.20545e-05
7 *88:26 *669:A1 0.000386968
*RES
1 *856:X *669:A1 45.6732 
*END

*D_NET *148 0.00154663
*CONN
*I *674:A1 I *D sky130_fd_sc_hd__mux2_4
*I *883:X O *D sky130_fd_sc_hd__clkdlybuf4s50_1
*CAP
1 *674:A1 0.00059438
2 *883:X 0.00059438
3 *674:A1 *674:A0 6.92705e-05
4 *674:A1 *674:S 5.56461e-05
5 *674:A1 *675:S 7.40084e-05
6 *674:A1 *390:25 6.23423e-05
7 *674:A1 *403:41 0
8 *732:D *674:A1 9.65997e-05
*RES
1 *883:X *674:A1 47.5704 
*END

*D_NET *478 0.00464029
*CONN
*I *987:A I *D sky130_fd_sc_hd__buf_12
*I *1032:X O *D sky130_fd_sc_hd__buf_6
*CAP
1 *987:A 0
2 *1032:X 0.00135417
3 *478:26 0.00135417
4 *516:A2 *478:26 4.57667e-05
5 *520:A *478:26 2.96189e-05
6 *546:B *478:26 0.000311681
7 *560:B *478:26 6.11872e-05
8 *578:A2 *478:26 2.87136e-06
9 *578:B1 *478:26 0.000209636
10 *615:A2 *478:26 4.74572e-05
11 *666:S *478:26 0.000191281
12 *746:A *478:26 3.89593e-05
13 *995:A *478:26 4.35303e-05
14 *1032:A *478:26 0
15 *246:10 *478:26 9.04224e-05
16 *253:25 *478:26 2.94788e-05
17 *343:27 *478:26 0.00077247
18 *432:117 *478:26 5.75886e-05
*RES
1 *1032:X *478:26 43.1396 
2 *478:26 *987:A 9.24915 
*END

*D_NET *481 0.00173408
*CONN
*I *633:S I *D sky130_fd_sc_hd__mux2i_2
*I *1035:X O *D sky130_fd_sc_hd__buf_6
*CAP
1 *633:S 0.000674472
2 *1035:X 0.000674472
3 *531:A *633:S 1.05272e-06
4 *595:A *633:S 4.25587e-05
5 *595:B *633:S 2.22315e-05
6 *606:A *633:S 1.8476e-05
7 *673:S *633:S 0
8 *690:A *633:S 7.65164e-05
9 *954:A *633:S 5.08974e-05
10 *1007:A *633:S 0.000116971
11 *55:12 *633:S 2.15348e-05
12 *470:28 *633:S 3.49022e-05
*RES
1 *1035:X *633:S 44.1001 
*END

*D_NET *482 0.00294746
*CONN
*I *624:S I *D sky130_fd_sc_hd__mux2i_2
*I *1036:X O *D sky130_fd_sc_hd__buf_6
*CAP
1 *624:S 0
2 *1036:X 0.000773688
3 *482:22 0.000773688
4 *482:22 *537:A 4.37416e-05
5 *482:22 *585:B 3.6473e-05
6 *482:22 *624:A1 0.000157297
7 *669:A0 *482:22 1.25215e-05
8 *35:12 *482:22 8.00003e-05
9 *43:12 *482:22 0.000212198
10 *47:12 *482:22 0.000109427
11 *200:8 *482:22 0.000103123
12 *389:45 *482:22 0
13 *406:12 *482:22 0.000183929
14 *433:65 *482:22 0.000276872
15 *435:16 *482:22 0.000109427
16 *442:63 *482:22 7.50722e-05
*RES
1 *1036:X *482:22 47.489 
2 *482:22 *624:S 9.24915 
*END

*D_NET *149 0.0003953
*CONN
*I *675:A1 I *D sky130_fd_sc_hd__mux2_4
*I *884:X O *D sky130_fd_sc_hd__clkdlybuf4s50_1
*CAP
1 *675:A1 8.35645e-05
2 *884:X 8.35645e-05
3 *675:A1 *445:37 3.17325e-05
4 *694:A2 *675:A1 0.000130777
5 *733:D *675:A1 6.56617e-05
*RES
1 *884:X *675:A1 30.4783 
*END

*D_NET *484 0.000836302
*CONN
*I *642:A1 I *D sky130_fd_sc_hd__mux2i_1
*I *1038:X O *D sky130_fd_sc_hd__buf_4
*CAP
1 *642:A1 0.000106732
2 *1038:X 0.000106732
3 *642:A1 *491:26 0.000473372
4 *904:A *642:A1 2.41483e-05
5 *168:16 *642:A1 6.73186e-05
6 *390:134 *642:A1 4.79047e-05
7 *399:18 *642:A1 1.00937e-05
*RES
1 *1038:X *642:A1 24.2372 
*END

*D_NET *150 0.000464227
*CONN
*I *676:A1 I *D sky130_fd_sc_hd__mux2_4
*I *885:X O *D sky130_fd_sc_hd__clkdlybuf4s50_1
*CAP
1 *676:A1 0.000177685
2 *885:X 0.000177685
3 *676:A1 *734:DE 5.71114e-05
4 *676:A1 *885:A 2.85274e-05
5 *676:A1 *904:A 2.32176e-05
*RES
1 *885:X *676:A1 31.4388 
*END

*D_NET *151 0.00144968
*CONN
*I *677:A1 I *D sky130_fd_sc_hd__mux2_4
*I *886:X O *D sky130_fd_sc_hd__dlygate4sd2_1
*CAP
1 *677:A1 0.000360777
2 *886:X 0.000360777
3 *677:A1 *518:A1 2.652e-05
4 *677:A1 *518:A2 6.64392e-05
5 *677:A1 *518:B1 0
6 *677:A1 *677:A0 0.000477694
7 *677:A1 *747:A 1.91391e-05
8 *677:A1 *443:68 0.000138334
9 *26:10 *677:A1 0
*RES
1 *886:X *677:A1 37.5282 
*END

*D_NET *488 0.00230632
*CONN
*I *624:A1 I *D sky130_fd_sc_hd__mux2i_2
*I *1042:X O *D sky130_fd_sc_hd__buf_4
*CAP
1 *624:A1 0.000480539
2 *1042:X 0.000480539
3 *624:A1 *585:B 4.52469e-05
4 resp_msg[0] *624:A1 7.48797e-05
5 *538:A *624:A1 5.49916e-05
6 *538:B *624:A1 0.000200475
7 *584:B *624:A1 1.41291e-05
8 *624:A0 *624:A1 8.01922e-05
9 *671:S *624:A1 9.39633e-05
10 *892:A *624:A1 6.08467e-05
11 *919:A *624:A1 4.99013e-05
12 *966:A *624:A1 0.000120565
13 *1042:A *624:A1 0.000271231
14 *35:12 *624:A1 5.50808e-05
15 *43:12 *624:A1 6.64392e-05
16 *482:22 *624:A1 0.000157297
*RES
1 *1042:X *624:A1 47.0156 
*END

*D_NET *395 0.00308277
*CONN
*I *685:B1 I *D sky130_fd_sc_hd__a221o_1
*I *946:X O *D sky130_fd_sc_hd__buf_4
*CAP
1 *685:B1 0.000454535
2 *946:X 0.000454535
3 *685:B1 *490:10 3.96696e-05
4 *685:B1 *492:14 0.000206696
5 *685:B1 *492:18 7.67734e-06
6 *685:A2 *685:B1 0.000121905
7 *685:B2 *685:B1 1.66771e-05
8 *685:C1 *685:B1 0
9 *695:A *685:B1 6.08467e-05
10 *946:A *685:B1 0.00045778
11 *982:A *685:B1 0.000217173
12 *153:18 *685:B1 8.15707e-05
13 *154:6 *685:B1 0.000963703
*RES
1 *946:X *685:B1 45.9406 
*END

*D_NET *489 0.00449584
*CONN
*I *621:S I *D sky130_fd_sc_hd__mux2_4
*I *679:S I *D sky130_fd_sc_hd__mux2_4
*I *1043:X O *D sky130_fd_sc_hd__buf_6
*CAP
1 *621:S 0.00069087
2 *679:S 3.10032e-05
3 *1043:X 0.000304919
4 *489:12 0.00102679
5 *573:B *679:S 0.000113968
6 *573:B *489:12 4.66492e-05
7 *722:D *679:S 3.82228e-05
8 *722:D *489:12 6.73186e-05
9 *727:D *621:S 0.00021601
10 *931:A *621:S 0.000185286
11 *976:A *621:S 4.01708e-05
12 *259:162 *621:S 0.000630022
13 *259:188 *621:S 2.09495e-05
14 *259:188 *489:12 0.00010208
15 *269:10 *621:S 0.000117097
16 *383:132 *621:S 0
17 *443:82 *621:S 0.000864486
*RES
1 *1043:X *489:12 27.0361 
2 *489:12 *679:S 10.5271 
3 *489:12 *621:S 44.8935 
*END

*D_NET *490 0.00637229
*CONN
*I *685:A1 I *D sky130_fd_sc_hd__a221o_1
*I *697:A2 I *D sky130_fd_sc_hd__a22oi_2
*I *686:A I *D sky130_fd_sc_hd__nor2b_1
*I *1044:X O *D sky130_fd_sc_hd__buf_6
*CAP
1 *685:A1 0.000216219
2 *697:A2 1.313e-05
3 *686:A 0.000349842
4 *1044:X 0.000272939
5 *490:27 0.00128088
6 *490:10 0.00167432
7 *686:A *514:10 0.000552351
8 *490:10 *492:18 0.000307799
9 resp_val *490:10 3.06664e-05
10 *620:A1 *697:A2 6.27782e-05
11 *622:B *685:A1 4.97638e-05
12 *685:B1 *490:10 3.96696e-05
13 *685:B2 *685:A1 3.54342e-05
14 *685:B2 *490:27 0.000102721
15 *685:C1 *685:A1 3.00082e-05
16 *686:B_N *686:A 6.74907e-05
17 *686:B_N *490:10 0.000102415
18 *946:A *490:10 0.000211539
19 *984:A *686:A 0.000143047
20 *985:A *686:A 1.19737e-05
21 *37:6 *697:A2 6.08467e-05
22 *41:10 *685:A1 0.000317001
23 *120:22 *490:27 0
24 *172:10 *490:10 4.32288e-05
25 *173:18 *685:A1 5.04829e-06
26 *390:8 *685:A1 0.000165894
27 *390:8 *490:27 1.85244e-05
28 *443:60 *490:10 5.62448e-05
29 *445:12 *686:A 0.000147645
30 *445:12 *490:10 2.86353e-06
*RES
1 *1044:X *490:10 23.853 
2 *490:10 *686:A 27.0006 
3 *490:10 *490:27 9.30779 
4 *490:27 *697:A2 14.4725 
5 *490:27 *685:A1 21.3173 
*END

*D_NET *492 0.020628
*CONN
*I *1044:A I *D sky130_fd_sc_hd__buf_6
*I *678:S I *D sky130_fd_sc_hd__mux2_4
*I *683:S I *D sky130_fd_sc_hd__mux2_4
*I *677:S I *D sky130_fd_sc_hd__mux2_4
*I *676:S I *D sky130_fd_sc_hd__mux2_4
*I *1046:X O *D sky130_fd_sc_hd__buf_8
*CAP
1 *1044:A 0
2 *678:S 7.62546e-05
3 *683:S 0
4 *677:S 0
5 *676:S 3.6352e-05
6 *1046:X 0.000381912
7 *492:90 0.00121789
8 *492:74 0.00235765
9 *492:58 0.00188474
10 *492:41 0.00177442
11 *492:18 0.00218177
12 *492:14 0.00142163
13 *492:90 *558:B 1.91246e-05
14 resp_msg[9] *492:58 0.000165521
15 *540:B1 *492:74 3.85446e-05
16 *541:C1 *492:74 0.000106158
17 *556:B *492:90 5.44627e-05
18 *557:B *492:90 0.000156001
19 *568:A *492:74 0.000361544
20 *571:A *492:74 4.70005e-05
21 *572:A *492:74 0.000269009
22 *613:A *492:90 0.000115668
23 *614:C1 *492:74 1.03594e-05
24 *614:C1 *492:90 0.000103877
25 *621:A0 *492:74 3.92275e-05
26 *621:A1 *492:74 2.08194e-05
27 *650:B1 *492:41 0.000695742
28 *650:B1 *492:58 1.60442e-05
29 *651:S *492:74 1.3347e-05
30 *652:A *492:58 6.08467e-05
31 *654:A1 *492:74 0.000364456
32 *666:S *492:90 4.00092e-05
33 *676:A0 *492:18 4.04463e-05
34 *676:A0 *492:41 0.000104253
35 *678:A0 *492:74 0.000141811
36 *678:A1 *678:S 1.1781e-05
37 *678:A1 *492:58 0.000109422
38 *683:A0 *492:90 0.000122083
39 *685:B1 *492:14 0.000206696
40 *685:B1 *492:18 7.67734e-06
41 *688:C *492:90 0
42 *710:D *492:90 0
43 *719:D *492:41 0.000136275
44 *719:DE *492:41 9.57529e-05
45 *719:CLK *492:41 0.000110297
46 *735:D *492:58 0.000206081
47 *752:B1 *492:74 0
48 *887:A *492:58 0.000263038
49 *888:A *492:18 4.01938e-05
50 *889:A *492:14 0.000327014
51 *890:A *492:14 3.20069e-06
52 *905:A *492:41 5.481e-05
53 *906:A *492:41 0.000114223
54 *907:A *492:58 0.000314044
55 *908:A *492:14 6.70448e-05
56 *915:A *492:90 0.000415934
57 *935:A *492:74 0.000182542
58 *946:A *492:18 0.000115318
59 *952:A *492:41 0.00016195
60 *953:A *492:41 2.58616e-05
61 *26:10 *492:58 0.000130049
62 *153:18 *492:14 1.50924e-05
63 *154:6 *492:18 6.49963e-05
64 *155:6 *492:14 5.48756e-05
65 *258:10 *492:90 2.41274e-06
66 *259:137 *492:90 0
67 *272:14 *492:90 5.26446e-05
68 *274:14 *492:74 5.44461e-05
69 *278:19 *492:90 0
70 *383:50 *492:14 3.99466e-05
71 *383:81 *492:41 0.000152934
72 *383:81 *492:58 0.000114271
73 *390:155 *492:41 0.000114659
74 *390:170 *492:58 0.000210118
75 *390:211 *492:90 0
76 *436:50 *492:90 0.000122083
77 *436:64 *492:74 0.00104498
78 *443:68 *492:58 7.0179e-06
79 *443:72 *678:S 1.80042e-05
80 *443:72 *492:58 3.15962e-05
81 *446:27 *492:74 0
82 *446:71 *492:74 0.000199667
83 *446:82 *492:74 0.000350819
84 *446:97 *492:74 0.000131452
85 *490:10 *492:18 0.000307799
*RES
1 *1046:X *492:14 29.8442 
2 *492:14 *492:18 17.2409 
3 *492:18 *676:S 10.2378 
4 *492:18 *492:41 35.6498 
5 *492:41 *677:S 9.24915 
6 *492:41 *492:58 30.1868 
7 *492:58 *492:74 47.3856 
8 *492:74 *492:90 43.2995 
9 *492:90 *683:S 9.24915 
10 *492:58 *678:S 11.1059 
11 *492:14 *1044:A 9.24915 
*END

*D_NET *495 0.00150696
*CONN
*I *897:A I *D sky130_fd_sc_hd__buf_2
*I *1049:X O *D sky130_fd_sc_hd__buf_4
*CAP
1 *897:A 0.000271475
2 *1049:X 0.000271475
3 *897:A *778:A 9.9774e-06
4 *897:A *512:12 0.00025233
5 resp_msg[11] *897:A 0.000168186
6 resp_msg[14] *897:A 6.63489e-05
7 *545:A2 *897:A 0.000168186
8 *879:A *897:A 0.000298979
*RES
1 *1049:X *897:A 37.4242 
*END

*D_NET *152 0.000522057
*CONN
*I *678:A1 I *D sky130_fd_sc_hd__mux2_4
*I *887:X O *D sky130_fd_sc_hd__clkdlybuf4s50_1
*CAP
1 *678:A1 6.27988e-05
2 *887:X 6.27988e-05
3 *678:A1 *678:S 1.1781e-05
4 *678:A1 *443:72 0.000275256
5 *678:A1 *492:58 0.000109422
*RES
1 *887:X *678:A1 22.0188 
*END

*D_NET *498 0.000995774
*CONN
*I *972:A I *D sky130_fd_sc_hd__buf_4
*I *1052:X O *D sky130_fd_sc_hd__buf_4
*CAP
1 *972:A 0.000318208
2 *1052:X 0.000318208
3 *603:A1 *972:A 7.76105e-06
4 *1052:A *972:A 0.000235845
5 *30:10 *972:A 0.000115753
*RES
1 *1052:X *972:A 33.8207 
*END

*D_NET *500 0.00408628
*CONN
*I *958:A I *D sky130_fd_sc_hd__buf_4
*I *1054:X O *D sky130_fd_sc_hd__buf_4
*CAP
1 *958:A 0.00113495
2 *1054:X 0.00113495
3 *587:B *958:A 0.000247305
4 *588:B *958:A 1.65872e-05
5 *591:B *958:A 0
6 *630:S *958:A 1.05272e-06
7 *660:A0 *958:A 0.000455558
8 *660:S *958:A 0.000523894
9 *689:C *958:A 0.000110458
10 *689:D *958:A 0.000124831
11 *895:A *958:A 1.91391e-05
12 *957:A *958:A 8.36586e-06
13 *1054:A *958:A 3.61666e-05
14 *159:12 *958:A 9.12416e-06
15 *211:10 *958:A 0.000208621
16 *406:12 *958:A 5.40018e-05
17 *433:88 *958:A 0
18 *436:8 *958:A 1.27831e-06
*RES
1 *1054:X *958:A 45.6255 
*END

*D_NET *154 0.00409989
*CONN
*I *982:A I *D sky130_fd_sc_hd__buf_4
*I *695:A I *D sky130_fd_sc_hd__clkinv_1
*I *888:X O *D sky130_fd_sc_hd__dlygate4sd2_1
*CAP
1 *982:A 0.000365671
2 *695:A 6.88367e-05
3 *888:X 0.00046946
4 *154:6 0.000903968
5 *695:A *685:B1 6.08467e-05
6 *695:A *173:18 0.000167692
7 *982:A *685:B1 0.000217173
8 *982:A *697:A1 8.80168e-05
9 *982:A *908:A 1.74177e-05
10 *982:A *383:35 1.41976e-05
11 *982:A *383:50 0
12 *982:A *445:29 1.4106e-05
13 *154:6 *685:B1 0.000963703
14 *154:6 *888:A 0.000163414
15 *154:6 *946:A 0.000292826
16 *154:6 *173:18 0.000113968
17 *154:6 *492:18 6.49963e-05
18 *620:A1 *982:A 6.36477e-05
19 *153:18 *695:A 2.54243e-05
20 *153:18 *982:A 2.45291e-05
*RES
1 *888:X *154:6 25.5014 
2 *154:6 *695:A 12.0704 
3 *154:6 *982:A 27.8854 
*END

*D_NET *155 0.00361011
*CONN
*I *685:C1 I *D sky130_fd_sc_hd__a221o_1
*I *981:A I *D sky130_fd_sc_hd__buf_4
*I *889:X O *D sky130_fd_sc_hd__clkdlybuf4s50_1
*CAP
1 *685:C1 0.000372377
2 *981:A 0.000743312
3 *889:X 0.000399055
4 *155:6 0.00151474
5 *685:C1 *685:A1 3.00082e-05
6 *685:C1 *685:B1 0
7 *685:C1 *908:A 0
8 *685:C1 *173:18 0.000134976
9 *981:A *696:A 8.28869e-05
10 *981:A *698:A 3.25584e-05
11 *155:6 *889:A 0.000174403
12 *155:6 *492:14 5.48756e-05
13 *622:B *685:C1 6.3657e-05
14 *703:D *981:A 7.25324e-06
15 *1046:A *685:C1 0
*RES
1 *889:X *155:6 16.0732 
2 *155:6 *981:A 20.944 
3 *155:6 *685:C1 26.7815 
*END

*D_NET *507 0.00116476
*CONN
*I *627:S I *D sky130_fd_sc_hd__mux2i_1
*I *1061:X O *D sky130_fd_sc_hd__buf_6
*CAP
1 *627:S 0.000281664
2 *1061:X 0.000281664
3 *594:C *627:S 0
4 *670:A1 *627:S 0.000345162
5 *867:A *627:S 6.92705e-05
6 *259:228 *627:S 6.49003e-05
7 *435:26 *627:S 0.000122098
*RES
1 *1061:X *627:S 36.015 
*END

*D_NET *508 0.000275581
*CONN
*I *636:S I *D sky130_fd_sc_hd__mux2i_1
*I *1062:X O *D sky130_fd_sc_hd__buf_4
*CAP
1 *636:S 3.30199e-05
2 *1062:X 3.30199e-05
3 *673:S *636:S 4.04995e-05
4 *55:12 *636:S 0.000169041
*RES
1 *1062:X *636:S 20.3309 
*END

*D_NET *509 0.00194465
*CONN
*I *692:B I *D sky130_fd_sc_hd__nand2_2
*I *693:A1 I *D sky130_fd_sc_hd__a21oi_4
*I *1063:X O *D sky130_fd_sc_hd__buf_6
*CAP
1 *692:B 0
2 *693:A1 0.000219708
3 *1063:X 0.000212721
4 *509:12 0.000432429
5 *623:B *693:A1 0
6 *697:B1 *693:A1 2.07503e-05
7 *697:B1 *509:12 0
8 *1063:A *509:12 4.58003e-05
9 *383:16 *693:A1 0.000209388
10 *383:16 *509:12 0.000115026
11 *390:14 *693:A1 0.000107586
12 *390:122 *693:A1 1.65872e-05
13 *403:41 *693:A1 0.000453505
14 *403:41 *509:12 0.000111146
*RES
1 *1063:X *509:12 15.5909 
2 *509:12 *693:A1 26.8166 
3 *509:12 *692:B 9.24915 
*END

*D_NET *172 0.00551525
*CONN
*I *685:B2 I *D sky130_fd_sc_hd__a221o_1
*I *686:B_N I *D sky130_fd_sc_hd__nor2b_1
*I *890:X O *D sky130_fd_sc_hd__dlymetal6s2s_1
*CAP
1 *685:B2 0.000713838
2 *686:B_N 0.000512733
3 *890:X 0.000332044
4 *172:10 0.00155862
5 *685:B2 *685:A1 3.54342e-05
6 *685:B2 *685:B1 1.66771e-05
7 *685:B2 *490:27 0.000102721
8 *686:B_N *686:A 6.74907e-05
9 *686:B_N *717:DE 0
10 *686:B_N *750:A 1.07403e-05
11 *686:B_N *443:16 0
12 *686:B_N *490:10 0.000102415
13 *686:B_N *514:10 0.000543627
14 *172:10 resp_val 0
15 *172:10 *888:A 4.12119e-05
16 *172:10 *889:A 0.000466386
17 *172:10 *946:A 0
18 *172:10 *383:50 0.000212192
19 *172:10 *490:10 4.32288e-05
20 *622:B *685:B2 1.1818e-05
21 *643:A *686:B_N 0
22 *643:A *172:10 1.92172e-05
23 *1068:A *686:B_N 0.000210977
24 *39:10 *686:B_N 0.000340919
25 *120:22 *685:B2 0.000172966
*RES
1 *890:X *172:10 25.1015 
2 *172:10 *686:B_N 31.1531 
3 *172:10 *685:B2 22.9838 
*END

*D_NET *358 0.0206453
*CONN
*I *648:S I *D sky130_fd_sc_hd__mux2i_1
*I *645:S I *D sky130_fd_sc_hd__mux2i_1
*I *642:S I *D sky130_fd_sc_hd__mux2i_1
*I *666:S I *D sky130_fd_sc_hd__mux2i_1
*I *660:S I *D sky130_fd_sc_hd__mux2i_2
*I *909:X O *D sky130_fd_sc_hd__buf_8
*CAP
1 *648:S 0
2 *645:S 3.64011e-05
3 *642:S 0.000768616
4 *666:S 0.00100161
5 *660:S 0.00149749
6 *909:X 0.000486105
7 *358:82 0.00125112
8 *358:72 0.00136217
9 *358:22 0.00371431
10 *358:16 0.0026174
11 *642:S *645:A0 1.58551e-05
12 *660:S *958:A 0.000523894
13 *660:S *433:88 0
14 *660:S *436:37 0.000554661
15 *660:S *447:10 6.68963e-06
16 *666:S *558:B 0
17 *666:S *710:CLK 0.00018574
18 *666:S *390:211 0
19 *666:S *478:26 0.000191281
20 *666:S *492:90 4.00092e-05
21 *358:16 *909:A 4.15931e-05
22 *358:22 *763:A1 6.90427e-05
23 *358:22 *909:A 2.68045e-05
24 *358:22 *432:95 3.96853e-05
25 *358:72 *741:C1 4.21817e-05
26 *358:72 *755:A 7.74639e-05
27 *358:72 *384:18 4.20854e-05
28 *358:72 *392:16 5.51483e-06
29 *358:72 *399:18 0.000160617
30 *358:72 *491:26 3.79805e-05
31 *358:82 *648:A0 0.000213725
32 *358:82 *392:16 1.65872e-05
33 *358:82 *399:18 0.000260374
34 *517:A *642:S 7.34948e-06
35 *518:A2 *358:82 0.00011818
36 *542:A2 *358:16 4.11568e-05
37 *563:A *358:72 1.16596e-05
38 *564:C *358:72 9.04224e-05
39 *647:A2 *642:S 0.000260374
40 *650:A2 *358:82 1.77537e-06
41 *668:A2 *666:S 4.23858e-05
42 *740:A2 *642:S 5.0715e-05
43 *747:A *358:22 0.000369946
44 *754:A *358:72 0.000370032
45 *770:A *358:82 4.0752e-05
46 *773:D *358:72 4.63385e-05
47 *776:C1 *358:16 6.08467e-05
48 *780:C1 *358:16 0.000527604
49 *780:C1 *358:22 1.9415e-05
50 *886:A *358:72 0.000199368
51 *906:A *358:82 6.28484e-05
52 *915:A *666:S 4.34267e-05
53 *916:A *358:72 0.000662323
54 *939:A *660:S 0
55 *939:A *666:S 0
56 *991:A *358:72 0.000470947
57 *27:12 *358:82 0
58 *168:16 *642:S 0.000120584
59 *170:16 *358:82 9.24241e-05
60 *238:10 *358:72 0.00032238
61 *265:10 *358:72 8.72537e-06
62 *266:10 *358:72 0.000300814
63 *267:10 *358:72 0.000134512
64 *315:10 *642:S 5.56878e-05
65 *315:10 *358:82 2.82885e-05
66 *343:27 *666:S 0.000758831
67 *350:26 *358:16 3.81542e-05
*RES
1 *909:X *358:16 19.6129 
2 *358:16 *358:22 3.22067 
3 *358:22 *660:S 21.6755 
4 *358:22 *666:S 22.3317 
5 *358:16 *358:72 43.243 
6 *358:72 *358:82 19.6252 
7 *358:82 *642:S 31.2027 
8 *358:82 *645:S 10.2378 
9 *358:72 *648:S 9.24915 
*END

*D_NET *153 0.00242723
*CONN
*I *1046:A I *D sky130_fd_sc_hd__buf_8
*I *994:A I *D sky130_fd_sc_hd__buf_12
*I *622:A I *D sky130_fd_sc_hd__or2_4
*I *702:Q O *D sky130_fd_sc_hd__dfxtp_4
*CAP
1 *1046:A 0.000159231
2 *994:A 9.94866e-05
3 *622:A 0
4 *702:Q 0.00089953
5 *153:18 0.000839786
6 *994:A resp_val 8.63397e-05
7 *1046:A *685:C1 0
8 *153:18 resp_val 7.60183e-05
9 *153:18 *685:B1 8.15707e-05
10 *153:18 *695:A 2.54243e-05
11 *153:18 *982:A 2.45291e-05
12 *153:18 *173:18 8.06587e-05
13 *153:18 *383:50 9.48572e-06
14 *153:18 *492:14 1.50924e-05
15 *696:B_N *1046:A 0
16 *41:10 *994:A 3.00829e-05
*RES
1 *702:Q *153:18 33.0835 
2 *153:18 *622:A 9.24915 
3 *153:18 *994:A 12.191 
4 *702:Q *1046:A 30.8842 
*END

*D_NET *362 0.00331432
*CONN
*I *909:A I *D sky130_fd_sc_hd__buf_8
*I *913:X O *D sky130_fd_sc_hd__buf_6
*CAP
1 *909:A 0.00109091
2 *913:X 0.00109091
3 *909:A *516:B2 2.12266e-05
4 *909:A *744:D 0
5 *909:A *762:D 5.481e-05
6 *775:A2 *909:A 0.000309568
7 *776:C1 *909:A 5.481e-05
8 *780:A1 *909:A 0
9 *780:A2 *909:A 0.000108812
10 *780:C1 *909:A 9.43145e-06
11 *913:A *909:A 5.03545e-06
12 *251:8 *909:A 1.44751e-05
13 *251:31 *909:A 0
14 *284:20 *909:A 0.000138585
15 *284:33 *909:A 6.3609e-05
16 *311:44 *909:A 0.000156946
17 *341:16 *909:A 0.000126788
18 *358:16 *909:A 4.15931e-05
19 *358:22 *909:A 2.68045e-05
*RES
1 *913:X *909:A 46.6136 
*END

*D_NET *514 0.00450817
*CONN
*I *1013:A I *D sky130_fd_sc_hd__buf_16
*I *1068:X O *D sky130_fd_sc_hd__buf_12
*CAP
1 *1013:A 0.000425163
2 *1068:X 0.00063234
3 *514:10 0.0010575
4 *529:A2 *514:10 0.000152995
5 *529:B1 *514:10 2.64657e-05
6 *686:A *514:10 0.000552351
7 *686:B_N *514:10 0.000543627
8 *690:A *1013:A 1.03403e-05
9 *691:A *514:10 0.000416787
10 *750:A *514:10 4.12243e-05
11 *950:A *514:10 0
12 *259:305 *514:10 1.0779e-05
13 *314:22 *1013:A 0.000591158
14 *432:63 *514:10 1.32315e-05
15 *459:8 *1013:A 3.42081e-05
*RES
1 *1068:X *514:10 40.8438 
2 *514:10 *1013:A 19.8348 
*END

*D_NET *364 0.000323255
*CONN
*I *894:A I *D sky130_fd_sc_hd__buf_6
*I *915:X O *D sky130_fd_sc_hd__buf_4
*CAP
1 *894:A 6.11056e-05
2 *915:X 6.11056e-05
3 *560:A *894:A 5.47093e-05
4 *1049:A *894:A 8.12759e-05
5 *258:23 *894:A 6.50586e-05
*RES
1 *915:X *894:A 20.8855 
*END

*D_NET *156 0.00266997
*CONN
*I *919:A I *D sky130_fd_sc_hd__buf_4
*I *1042:A I *D sky130_fd_sc_hd__buf_4
*I *538:Y O *D sky130_fd_sc_hd__xnor2_2
*CAP
1 *919:A 0.000381072
2 *1042:A 0.000298822
3 *538:Y 0
4 *156:4 0.000679894
5 *919:A *538:B 2.82201e-05
6 *919:A *584:B 5.51672e-05
7 *919:A *624:A0 0.000272361
8 *919:A *624:A1 4.99013e-05
9 *919:A *892:A 0.000270908
10 *919:A *945:A 0.000226463
11 *1042:A resp_msg[0] 8.62625e-06
12 *1042:A *624:A1 0.000271231
13 *1042:A *671:S 0.00011818
14 *1042:A *415:12 9.12416e-06
*RES
1 *538:Y *156:4 9.24915 
2 *156:4 *1042:A 25.4289 
3 *156:4 *919:A 29.8574 
*END

*D_NET *122 0.00163405
*CONN
*I *679:A1 I *D sky130_fd_sc_hd__mux2_4
*I *857:X O *D sky130_fd_sc_hd__clkdlybuf4s50_1
*CAP
1 *679:A1 0.000614926
2 *857:X 0.000614926
3 *679:A1 *383:132 7.3783e-05
4 *679:A1 *390:180 5.39635e-06
5 *679:A1 *390:182 6.34777e-05
6 *679:A1 *408:18 6.77948e-06
7 *679:A1 *443:82 0.000132669
8 *24:10 *679:A1 0.000122098
*RES
1 *857:X *679:A1 39.8916 
*END

*D_NET *157 0.00389184
*CONN
*I *1004:A I *D sky130_fd_sc_hd__buf_4
*I *893:A I *D sky130_fd_sc_hd__buf_2
*I *753:Y O *D sky130_fd_sc_hd__xnor2_1
*CAP
1 *1004:A 0
2 *893:A 0.000226359
3 *753:Y 0.000721421
4 *157:20 0.00094778
5 *893:A *621:A0 0.000706331
6 *893:A *654:A1 6.50586e-05
7 *893:A *687:A 0.000189966
8 *893:A *699:A0 2.57365e-05
9 *893:A *752:A2 0
10 *893:A *259:162 2.20702e-05
11 *893:A *425:8 7.60137e-05
12 *157:20 *711:DE 1.94771e-05
13 *157:20 *711:CLK 0.000299901
14 *157:20 *753:A 0.000111722
15 *157:20 *319:36 0.000139435
16 *157:20 *335:10 6.22259e-05
17 *157:20 *336:16 6.56365e-05
18 *621:A1 *157:20 0
19 *711:D *157:20 5.85665e-05
20 *961:A *893:A 0.000154145
*RES
1 *753:Y *157:20 42.3372 
2 *157:20 *893:A 20.1724 
3 *157:20 *1004:A 9.24915 
*END

*D_NET *368 0.0027144
*CONN
*I *892:A I *D sky130_fd_sc_hd__buf_2
*I *919:X O *D sky130_fd_sc_hd__buf_4
*CAP
1 *892:A 0.000837251
2 *919:X 0.000837251
3 *892:A *587:A 0.00016258
4 *892:A *624:A0 2.26329e-05
5 *892:A *624:A1 6.08467e-05
6 *892:A *671:S 0.000171288
7 *892:A *415:12 1.65872e-05
8 resp_msg[0] *892:A 4.66876e-05
9 *523:A *892:A 0
10 *538:A *892:A 0
11 *919:A *892:A 0.000270908
12 *945:A *892:A 2.15348e-05
13 *196:8 *892:A 0.000266832
14 *260:10 *892:A 0
*RES
1 *919:X *892:A 45.1 
*END

*D_NET *158 0.00646073
*CONN
*I *1003:A I *D sky130_fd_sc_hd__buf_4
*I *915:A I *D sky130_fd_sc_hd__buf_4
*I *761:Y O *D sky130_fd_sc_hd__xnor2_2
*CAP
1 *1003:A 0.000685887
2 *915:A 0.000692158
3 *761:Y 0
4 *158:4 0.00137805
5 *915:A *545:A1 0.000165668
6 *915:A *560:B 0.000413073
7 *915:A *614:C1 0.000286102
8 *915:A *666:S 4.34267e-05
9 *915:A *688:B 4.17276e-05
10 *915:A *688:C 6.50727e-05
11 *915:A *777:A 0.00021218
12 *915:A *258:23 0.000200894
13 *915:A *278:19 0.000156387
14 *915:A *492:90 0.000415934
15 *1003:A *554:B 1.00981e-05
16 *1003:A *559:B 0.000433202
17 *1003:A *615:A1 0
18 *1003:A *666:A0 1.06805e-05
19 *1003:A *688:B 6.50586e-05
20 *1003:A *709:DE 0
21 *1003:A *772:B 0
22 *1003:A *257:12 0.000947893
23 *1003:A *278:10 4.89469e-06
24 *1003:A *442:144 0.000122378
25 *554:A *1003:A 4.24529e-05
26 *7:18 *1003:A 1.77537e-06
27 *8:10 *1003:A 6.57373e-05
*RES
1 *761:Y *158:4 9.24915 
2 *158:4 *915:A 40.4569 
3 *158:4 *1003:A 42.6666 
*END

*D_NET *159 0.00444677
*CONN
*I *660:A1 I *D sky130_fd_sc_hd__mux2i_2
*I *895:A I *D sky130_fd_sc_hd__buf_2
*I *764:Y O *D sky130_fd_sc_hd__xnor2_2
*CAP
1 *660:A1 0
2 *895:A 0.000774255
3 *764:Y 0.000504804
4 *159:12 0.00127906
5 *895:A *536:A 0.000288805
6 *895:A *630:S 0
7 *895:A *658:B 0
8 *895:A *707:CLK 7.37431e-05
9 *895:A *865:A 7.14073e-06
10 *895:A *958:A 1.91391e-05
11 *895:A *205:22 0.000175061
12 *895:A *442:118 0.000375913
13 *159:12 *536:A 0.000342016
14 *159:12 *590:A 4.90388e-05
15 *159:12 *958:A 9.12416e-06
16 *159:12 *341:16 6.92705e-05
17 *159:12 *378:12 0.000159506
18 *159:12 *436:8 0
19 *658:A *895:A 0.000242836
20 *662:A1 *895:A 8.70622e-06
21 *939:A *159:12 6.83542e-05
*RES
1 *764:Y *159:12 28.6609 
2 *159:12 *895:A 32.6982 
3 *159:12 *660:A1 13.7491 
*END

*D_NET *160 0.00245316
*CONN
*I *896:A I *D sky130_fd_sc_hd__buf_2
*I *663:A1 I *D sky130_fd_sc_hd__mux2i_1
*I *772:Y O *D sky130_fd_sc_hd__xnor2_1
*CAP
1 *896:A 0.000415641
2 *663:A1 0
3 *772:Y 0.000185869
4 *160:6 0.00060151
5 *896:A resp_msg[13] 4.51913e-05
6 *896:A *545:A2 5.71992e-05
7 *896:A *657:A0 0.000648932
8 *896:A *682:S 6.08502e-05
9 *160:6 *657:A0 0.00027078
10 *160:6 *772:A 0.000160942
11 *76:8 *896:A 6.24474e-06
*RES
1 *772:Y *160:6 14.4094 
2 *160:6 *663:A1 9.24915 
3 *160:6 *896:A 30.0906 
*END

*D_NET *161 0.00387026
*CONN
*I *1049:A I *D sky130_fd_sc_hd__buf_4
*I *910:A I *D sky130_fd_sc_hd__buf_4
*I *777:Y O *D sky130_fd_sc_hd__xnor2_1
*CAP
1 *1049:A 0.000653381
2 *910:A 0.00036051
3 *777:Y 0
4 *161:4 0.00101389
5 *910:A *545:B1 0.000123582
6 *910:A *560:B 0.000311303
7 *910:A *666:A1 6.08467e-05
8 *910:A *778:B 0.00015607
9 *910:A *253:25 3.90891e-05
10 *1049:A *560:B 0.000366667
11 *1049:A *894:A 8.12759e-05
12 *1049:A *979:A 0.000209283
13 *1049:A *258:23 1.777e-05
14 *1049:A *383:150 0.000383533
15 *1049:A *443:82 4.87198e-05
16 *560:A *1049:A 6.11359e-06
17 *667:A *1049:A 3.82228e-05
*RES
1 *777:Y *161:4 9.24915 
2 *161:4 *910:A 26.38 
3 *161:4 *1049:A 33.4449 
*END

*D_NET *162 0.00245179
*CONN
*I *1005:A I *D sky130_fd_sc_hd__buf_4
*I *898:A I *D sky130_fd_sc_hd__dlygate4sd2_1
*I *613:Y O *D sky130_fd_sc_hd__xnor2_1
*CAP
1 *1005:A 0.000577491
2 *898:A 2.50285e-05
3 *613:Y 0.000146971
4 *162:10 0.000749491
5 *898:A *545:B1 2.16355e-05
6 *898:A *545:A1 2.16355e-05
7 *1005:A *614:A3 0
8 *1005:A *699:A0 7.40248e-05
9 *1005:A *699:A1 7.23177e-05
10 *1005:A *390:192 0.000215088
11 *1005:A *436:50 5.83624e-05
12 *1005:A *436:64 0.000113572
13 *1005:A *443:82 2.2766e-06
14 *162:10 *545:B1 0.000158357
15 *162:10 *390:192 7.65861e-05
16 *162:10 *436:50 3.14544e-05
17 *701:A2 *1005:A 0.000107496
*RES
1 *613:Y *162:10 16.9985 
2 *162:10 *898:A 14.4725 
3 *162:10 *1005:A 26.464 
*END

*D_NET *163 0.00522396
*CONN
*I *627:A1 I *D sky130_fd_sc_hd__mux2i_1
*I *899:A I *D sky130_fd_sc_hd__buf_2
*I *537:Y O *D sky130_fd_sc_hd__xnor2_4
*CAP
1 *627:A1 0
2 *899:A 0.000296721
3 *537:Y 0.00101848
4 *163:18 0.0013152
5 *899:A resp_msg[1] 0.0001712
6 *163:18 *259:238 0.000362295
7 *163:18 *389:16 0
8 *163:18 *389:45 9.90413e-05
9 *163:18 *406:12 0.000361532
10 *163:18 *424:41 3.51868e-05
11 *629:A2 *899:A 6.1708e-05
12 *669:A1 *163:18 8.68786e-05
13 *670:A1 *899:A 6.08467e-05
14 *670:A1 *163:18 0.000420638
15 *728:D *899:A 0.000109427
16 *18:10 *163:18 3.79836e-05
17 *47:12 *899:A 0.000167603
18 *129:16 *899:A 0.000154145
19 *129:16 *163:18 0.000465078
*RES
1 *537:Y *163:18 43.8966 
2 *163:18 *899:A 27.2105 
3 *163:18 *627:A1 9.24915 
*END

*D_NET *164 0.00223041
*CONN
*I *630:A1 I *D sky130_fd_sc_hd__mux2i_1
*I *900:A I *D sky130_fd_sc_hd__buf_2
*I *536:Y O *D sky130_fd_sc_hd__xnor2_4
*CAP
1 *630:A1 1.93778e-05
2 *900:A 0.000376881
3 *536:Y 0.000283942
4 *164:12 0.0006802
5 *900:A resp_msg[2] 1.07248e-05
6 *900:A *630:S 0
7 *900:A *632:A2 1.05272e-06
8 *900:A *671:A0 6.80619e-05
9 *164:12 *536:A 7.77744e-05
10 *164:12 *671:A0 0
11 *164:12 *205:22 0.000244328
12 *164:12 *447:10 0.000293637
13 *591:A *164:12 0
14 *632:A1 *900:A 2.41916e-05
15 *632:B1 *630:A1 6.50727e-05
16 *632:B1 *900:A 4.82966e-05
17 *713:D *900:A 9.35753e-06
18 *713:D *164:12 3.67528e-06
19 *17:10 *164:12 1.99382e-05
20 *32:12 *900:A 3.89332e-06
*RES
1 *536:Y *164:12 27.4514 
2 *164:12 *900:A 25.9228 
3 *164:12 *630:A1 9.97254 
*END

*D_NET *165 0.00555569
*CONN
*I *633:A1 I *D sky130_fd_sc_hd__mux2i_2
*I *901:A I *D sky130_fd_sc_hd__buf_2
*I *532:Y O *D sky130_fd_sc_hd__xnor2_4
*CAP
1 *633:A1 0.00039216
2 *901:A 0.000612379
3 *532:Y 0.000204574
4 *165:14 0.00120911
5 *633:A1 *527:B1 0.00013832
6 *633:A1 *532:A 0.000165352
7 *633:A1 *605:B 0.000169093
8 *633:A1 *672:A0 0.000169186
9 *633:A1 *690:A 8.62625e-06
10 *633:A1 *406:23 0.000135864
11 *633:A1 *448:10 7.61323e-05
12 *901:A *532:A 0.000922588
13 *901:A *629:A1 4.43691e-05
14 *901:A *933:A 2.41483e-05
15 *901:A *213:16 0.000154145
16 *901:A *442:46 0.000490509
17 *165:14 *527:B1 4.61207e-05
18 *165:14 *933:A 4.33655e-05
19 *165:14 *213:16 0.000220183
20 *165:14 *429:16 0.000152207
21 *165:14 *442:46 3.99086e-06
22 *629:A2 *901:A 1.03434e-05
23 *635:B1 *901:A 2.32594e-05
24 *712:D *901:A 6.50586e-05
25 *16:12 *165:14 7.28994e-06
26 *52:12 *633:A1 0
27 *55:12 *633:A1 6.73186e-05
*RES
1 *532:Y *165:14 25.2708 
2 *165:14 *901:A 29.8659 
3 *165:14 *633:A1 32.7103 
*END

*D_NET *166 0.004176
*CONN
*I *902:A I *D sky130_fd_sc_hd__clkbuf_2
*I *636:A1 I *D sky130_fd_sc_hd__mux2i_1
*I *531:X O *D sky130_fd_sc_hd__xor2_2
*CAP
1 *902:A 0.000231121
2 *636:A1 0.000395288
3 *531:X 0.000684725
4 *166:18 0.00131113
5 *636:A1 *636:A0 0.000113968
6 *636:A1 *672:A0 6.98046e-05
7 *636:A1 *390:35 0.000139435
8 *636:A1 *453:10 5.82465e-05
9 *902:A *595:B 0
10 *902:A *435:32 0
11 *166:18 *531:B 2.16355e-05
12 *166:18 *605:A 0.000540371
13 *166:18 *672:A0 0.000124095
14 *166:18 *229:10 2.8212e-05
15 *166:18 *470:28 2.16355e-05
16 *599:C *166:18 0.000322365
17 *55:12 *636:A1 0.000113968
*RES
1 *531:X *166:18 36.9654 
2 *166:18 *636:A1 26.7953 
3 *166:18 *902:A 23.4032 
*END

*D_NET *123 0.00259419
*CONN
*I *680:A1 I *D sky130_fd_sc_hd__mux2_4
*I *858:X O *D sky130_fd_sc_hd__clkdlybuf4s50_1
*CAP
1 *680:A1 0.000457051
2 *858:X 0.000457051
3 *680:A1 *688:B 0.000212337
4 *680:A1 *929:A 0.000850249
5 *680:A1 *378:12 5.1674e-06
6 *680:A1 *413:22 0.000612333
*RES
1 *858:X *680:A1 44.486 
*END

*D_NET *167 0.00641408
*CONN
*I *639:A1 I *D sky130_fd_sc_hd__mux2i_1
*I *903:A I *D sky130_fd_sc_hd__buf_2
*I *525:X O *D sky130_fd_sc_hd__xor2_2
*CAP
1 *639:A1 0
2 *903:A 0.00116436
3 *525:X 0.00130708
4 *167:16 0.00247144
5 *903:A *519:A 5.57228e-05
6 *903:A *690:A 0.000205651
7 *903:A *690:C 3.77804e-05
8 *903:A *715:CLK 0.000109421
9 *903:A *314:22 0
10 *903:A *389:10 0.000138334
11 *903:A *405:8 0.000153559
12 *903:A *442:20 0
13 *903:A *442:22 0.00012661
14 *903:A *442:32 8.36586e-06
15 *167:16 *519:A 0.000190652
16 *167:16 *690:C 5.33358e-06
17 *167:16 *740:A2 1.07248e-05
18 *167:16 *239:10 2.26579e-05
19 *167:16 *311:20 6.52404e-05
20 *167:16 *384:18 0
21 *167:16 *432:63 2.22553e-05
22 *599:C *903:A 0.000169
23 *637:A *903:A 0.000111352
24 *954:A *903:A 3.8543e-05
25 *55:12 *903:A 0
*RES
1 *525:X *167:16 24.8015 
2 *167:16 *903:A 46.4682 
3 *167:16 *639:A1 13.7491 
*END

*D_NET *168 0.00338086
*CONN
*I *904:A I *D sky130_fd_sc_hd__buf_2
*I *1038:A I *D sky130_fd_sc_hd__buf_4
*I *521:X O *D sky130_fd_sc_hd__xor2_2
*CAP
1 *904:A 0.000453866
2 *1038:A 0
3 *521:X 0.000316378
4 *168:16 0.000770244
5 *904:A *642:A1 2.41483e-05
6 *904:A *734:DE 7.6885e-05
7 *904:A *885:A 8.62625e-06
8 *904:A *390:134 0
9 *904:A *399:18 2.65667e-05
10 *904:A *434:35 0
11 *168:16 *521:A 0.000300911
12 *168:16 *521:B 5.62568e-05
13 *168:16 *611:A 0.00014119
14 *168:16 *611:B 2.35192e-05
15 *168:16 *642:A1 6.73186e-05
16 *168:16 *642:S 0.000120584
17 *168:16 *740:A2 4.19013e-06
18 *168:16 *938:A 6.27782e-05
19 *168:16 *316:18 0.000227773
20 *168:16 *390:134 1.61631e-05
21 *168:16 *399:18 7.24449e-05
22 *168:16 *420:64 1.58551e-05
23 *168:16 *434:8 0
24 *647:A2 *904:A 0
25 *647:A2 *168:16 0
26 *676:A1 *904:A 2.32176e-05
27 *718:D *904:A 0.000536834
28 *28:10 *904:A 0
29 *28:10 *168:16 3.51113e-05
*RES
1 *521:X *168:16 30.9719 
2 *168:16 *1038:A 9.24915 
3 *168:16 *904:A 32.4316 
*END

*D_NET *169 0.00530482
*CONN
*I *905:A I *D sky130_fd_sc_hd__buf_2
*I *645:A1 I *D sky130_fd_sc_hd__mux2i_1
*I *515:X O *D sky130_fd_sc_hd__xor2_2
*CAP
1 *905:A 0.000412631
2 *645:A1 0
3 *515:X 0.00107849
4 *169:14 0.00149112
5 *905:A *676:A0 0.000154145
6 *905:A *392:16 2.16355e-05
7 *905:A *399:18 0.000160617
8 *905:A *402:8 0.000190042
9 *905:A *434:8 0.000174491
10 *905:A *491:26 1.80647e-05
11 *905:A *492:41 5.481e-05
12 *169:14 *522:B2 0
13 *169:14 *522:A1 0.000101472
14 *169:14 *522:A2 3.98854e-05
15 *169:14 *600:A2 1.17054e-05
16 *169:14 *515:A 0.00027359
17 *169:14 *689:D 1.5714e-05
18 *169:14 *943:A 0
19 *169:14 *1033:A 0.00011758
20 *169:14 *238:24 6.48631e-05
21 *169:14 *320:22 0.000114659
22 *169:14 *376:12 1.55462e-05
23 *169:14 *402:8 4.95263e-05
24 *169:14 *418:33 0
25 *169:14 *501:24 7.57919e-05
26 *602:A1 *169:14 0
27 *647:B1 *905:A 0.000114659
28 *750:B *905:A 0.000292728
29 *750:B *169:14 0.0001621
30 *953:A *905:A 9.89537e-05
*RES
1 *515:X *169:14 42.1363 
2 *169:14 *645:A1 13.7491 
3 *169:14 *905:A 39.2139 
*END

*D_NET *170 0.00777902
*CONN
*I *906:A I *D sky130_fd_sc_hd__buf_2
*I *648:A1 I *D sky130_fd_sc_hd__mux2i_1
*I *617:Y O *D sky130_fd_sc_hd__xnor2_4
*CAP
1 *906:A 0.000669142
2 *648:A1 1.47608e-05
3 *617:Y 0.00158669
4 *170:16 0.00227059
5 *648:A1 *392:16 6.08467e-05
6 *648:A1 *491:26 6.08467e-05
7 *906:A resp_msg[8] 0.000113096
8 *906:A *650:A1 9.90229e-05
9 *906:A *719:CLK 0.000261406
10 *906:A *872:A 0.00012772
11 *906:A *358:82 6.28484e-05
12 *906:A *383:67 9.05489e-05
13 *906:A *390:155 6.10778e-05
14 *906:A *401:14 3.6526e-05
15 *906:A *401:28 1.03986e-05
16 *906:A *434:35 0.000181102
17 *906:A *446:105 0.000125695
18 *906:A *492:41 0.000114223
19 *170:16 *518:A2 3.93117e-06
20 *170:16 *651:S 0.000135011
21 *170:16 *754:A 0
22 *170:16 *1030:A 0.00100567
23 *170:16 *358:82 9.24241e-05
24 *170:16 *390:180 7.52853e-05
25 *170:16 *401:28 2.85382e-05
26 *170:16 *432:95 5.40891e-05
27 *170:16 *446:27 7.71052e-06
28 *572:A *170:16 9.54707e-05
29 *646:A *906:A 3.31745e-05
30 *650:A2 *906:A 2.83576e-06
31 *650:B1 *906:A 0.000298336
32 *11:10 *906:A 0
33 *27:12 *170:16 0
*RES
1 *617:Y *170:16 31.1504 
2 *170:16 *648:A1 14.4725 
3 *170:16 *906:A 47.512 
*END

*D_NET *171 0.00165819
*CONN
*I *651:A1 I *D sky130_fd_sc_hd__mux2i_1
*I *907:A I *D sky130_fd_sc_hd__buf_2
*I *747:Y O *D sky130_fd_sc_hd__xnor2_2
*CAP
1 *651:A1 2.64046e-05
2 *907:A 0.000314408
3 *747:Y 5.96497e-05
4 *171:8 0.000400462
5 *907:A resp_msg[9] 4.70559e-05
6 *907:A *873:A 8.36586e-06
7 *907:A *390:170 0.000314044
8 *907:A *492:58 0.000314044
9 *649:A *907:A 0.000147764
10 *649:A *171:8 2.59976e-05
*RES
1 *747:Y *171:8 15.0438 
2 *171:8 *907:A 23.6453 
3 *171:8 *651:A1 14.4819 
*END

*D_NET *173 0.0037064
*CONN
*I *946:A I *D sky130_fd_sc_hd__buf_4
*I *908:A I *D sky130_fd_sc_hd__buf_2
*I *684:Y O *D sky130_fd_sc_hd__nor2_4
*CAP
1 *946:A 0.000338585
2 *908:A 5.19292e-05
3 *684:Y 0.000507689
4 *173:18 0.000898203
5 *908:A *492:14 6.70448e-05
6 *946:A *685:B1 0.00045778
7 *946:A *490:10 0.000211539
8 *946:A *492:18 0.000115318
9 *173:18 *685:A1 5.04829e-06
10 *173:18 *390:8 0.000113309
11 *622:B *173:18 6.08467e-05
12 *643:A *946:A 6.36416e-05
13 *685:C1 *908:A 0
14 *685:C1 *173:18 0.000134976
15 *695:A *173:18 0.000167692
16 *982:A *908:A 1.74177e-05
17 *41:10 *173:18 7.92757e-06
18 *153:18 *173:18 8.06587e-05
19 *154:6 *946:A 0.000292826
20 *154:6 *173:18 0.000113968
21 *172:10 *946:A 0
*RES
1 *684:Y *173:18 29.4718 
2 *173:18 *908:A 19.6659 
3 *173:18 *946:A 28.3225 
*END

*D_NET *124 0.0034101
*CONN
*I *681:A1 I *D sky130_fd_sc_hd__mux2_4
*I *859:X O *D sky130_fd_sc_hd__clkdlybuf4s50_1
*CAP
1 *681:A1 0
2 *859:X 0.000603731
3 *124:16 0.000603731
4 *124:16 *551:B 0
5 *124:16 *559:B 7.28257e-05
6 *124:16 *681:S 0.000204766
7 *124:16 *709:DE 0.000504004
8 *124:16 *725:CLK 0.000111722
9 *124:16 *772:B 8.42554e-06
10 *124:16 *187:10 4.33618e-05
11 *124:16 *259:50 9.21337e-05
12 *124:16 *444:76 0.000164815
13 *576:B *124:16 5.52256e-05
14 *709:D *124:16 0.000324887
15 *724:D *124:16 8.14711e-05
16 *8:10 *124:16 0
17 *76:8 *124:16 0.000539003
*RES
1 *859:X *124:16 42.3287 
2 *124:16 *681:A1 9.24915 
*END

*D_NET *125 0.000848675
*CONN
*I *682:A1 I *D sky130_fd_sc_hd__mux2_4
*I *860:X O *D sky130_fd_sc_hd__clkdlybuf4s50_1
*CAP
1 *682:A1 0.00034767
2 *860:X 0.00034767
3 *963:A *682:A1 5.20546e-06
4 *6:10 *682:A1 0.000148129
*RES
1 *860:X *682:A1 33.6572 
*END

*D_NET *126 0.00124644
*CONN
*I *683:A1 I *D sky130_fd_sc_hd__mux2_4
*I *861:X O *D sky130_fd_sc_hd__dlygate4sd2_1
*CAP
1 *683:A1 0.000444884
2 *861:X 0.000444884
3 *683:A0 *683:A1 0.000172569
4 *102:14 *683:A1 0.000184106
*RES
1 *861:X *683:A1 29.8074 
*END

*D_NET *127 0.00234086
*CONN
*I *621:A1 I *D sky130_fd_sc_hd__mux2_4
*I *862:X O *D sky130_fd_sc_hd__clkdlybuf4s50_1
*CAP
1 *621:A1 0.000682449
2 *862:X 0.000682449
3 *621:A1 *541:C1 7.14746e-05
4 *621:A1 *157:20 0
5 *621:A1 *492:74 2.08194e-05
6 *711:D *621:A1 0.000883672
*RES
1 *862:X *621:A1 44.3876 
*END

*D_NET *259 0.0495385
*CONN
*I *564:B I *D sky130_fd_sc_hd__xnor3_2
*I *566:B I *D sky130_fd_sc_hd__xor2_1
*I *599:B I *D sky130_fd_sc_hd__xnor3_2
*I *608:A I *D sky130_fd_sc_hd__xor2_2
*I *750:A I *D sky130_fd_sc_hd__xor2_2
*I *612:A I *D sky130_fd_sc_hd__xor2_4
*I *606:B I *D sky130_fd_sc_hd__xor2_1
*I *594:A I *D sky130_fd_sc_hd__xnor3_2
*I *596:B I *D sky130_fd_sc_hd__xor2_1
*I *586:A I *D sky130_fd_sc_hd__xnor2_2
*I *582:C I *D sky130_fd_sc_hd__xor3_1
*I *569:B I *D sky130_fd_sc_hd__xor2_1
*I *567:A I *D sky130_fd_sc_hd__xnor3_2
*I *573:B I *D sky130_fd_sc_hd__xor2_2
*I *561:A I *D sky130_fd_sc_hd__xor2_2
*I *555:A I *D sky130_fd_sc_hd__xor2_2
*I *591:B I *D sky130_fd_sc_hd__xor3_1
*I *588:B I *D sky130_fd_sc_hd__xor2_2
*I *559:B I *D sky130_fd_sc_hd__xor2_2
*I *576:A I *D sky130_fd_sc_hd__xor2_2
*I *552:B I *D sky130_fd_sc_hd__xor2_1
*I *593:A I *D sky130_fd_sc_hd__xor2_4
*I *737:HI O *D sky130_fd_sc_hd__conb_1
*CAP
1 *564:B 0
2 *566:B 0.000395188
3 *599:B 0.000128075
4 *608:A 0
5 *750:A 0.00117814
6 *612:A 0.000109238
7 *606:B 0.000103798
8 *594:A 0
9 *596:B 0.000342244
10 *586:A 0
11 *582:C 0.000131291
12 *569:B 0.000270474
13 *567:A 0.000205905
14 *573:B 0.000825427
15 *561:A 0
16 *555:A 0.000356051
17 *591:B 0.000179622
18 *588:B 0.00107359
19 *559:B 0.00102918
20 *576:A 0
21 *552:B 0.000230617
22 *593:A 0
23 *737:HI 0.00027907
24 *259:369 0.000769283
25 *259:318 0.00120993
26 *259:305 0.000539372
27 *259:286 0.000845913
28 *259:280 0.00111123
29 *259:238 0.000617957
30 *259:228 0.00118531
31 *259:220 0.00130912
32 *259:188 0.000793794
33 *259:162 0.0016696
34 *259:137 0.00222784
35 *259:110 0.00201115
36 *259:77 0.0011999
37 *259:50 0.00141396
38 *259:22 0.000496758
39 *259:16 0.00194905
40 *259:10 0.00150912
41 *552:B *551:B 0.000237867
42 *552:B *444:76 0.000163428
43 *555:A *688:C 0.000405789
44 *555:A *860:A 7.62627e-06
45 *555:A *412:8 0.000182172
46 *555:A *436:50 7.57449e-05
47 *559:B *772:A 5.04829e-06
48 *559:B *772:B 4.66889e-05
49 *559:B *414:10 3.56986e-05
50 *566:B *262:12 6.27718e-05
51 *566:B *443:68 0.00035344
52 *569:B *569:A 0.000488871
53 *569:B *397:8 7.73683e-05
54 *569:B *408:18 0.000158981
55 *573:B *679:S 0.000113968
56 *573:B *384:18 0.000279249
57 *573:B *489:12 4.66492e-05
58 *588:B *958:A 1.65872e-05
59 *588:B *406:12 6.09211e-05
60 *591:B *591:C 0.000107496
61 *591:B *958:A 0
62 *591:B *510:16 0.000234332
63 *596:B *947:A 0
64 *596:B *389:16 0
65 *596:B *429:16 0.000111654
66 *596:B *435:26 0
67 *596:B *435:32 0.00018731
68 *606:B *606:A 2.52838e-05
69 *606:B *304:18 0.000301361
70 *606:B *460:20 7.78924e-05
71 *612:A *419:18 5.87521e-05
72 *750:A *521:A 0.000597615
73 *750:A *950:A 0.000340286
74 *750:A *984:A 9.22246e-05
75 *750:A *420:64 0.000114562
76 *750:A *501:24 9.25416e-05
77 *750:A *514:10 4.12243e-05
78 *259:10 *592:A 0
79 *259:10 *388:10 6.3657e-05
80 *259:16 *591:C 0.00020553
81 *259:16 *707:DE 5.90159e-05
82 *259:16 *999:A 5.84505e-05
83 *259:16 *423:27 0
84 *259:16 *444:49 5.20218e-05
85 *259:16 *447:10 0.000162422
86 *259:22 *707:DE 3.87022e-06
87 *259:22 *858:A 0.000167838
88 *259:22 *929:A 2.74405e-05
89 *259:22 *413:22 0.000370099
90 *259:22 *444:47 3.30101e-05
91 *259:50 *707:DE 1.83541e-05
92 *259:50 *330:27 7.43654e-05
93 *259:50 *390:211 1.68812e-05
94 *259:50 *390:234 5.15222e-05
95 *259:50 *444:20 0
96 *259:110 *272:14 6.30748e-05
97 *259:137 *560:B 7.17686e-05
98 *259:137 *613:B 0.000627696
99 *259:137 *688:C 0.000156869
100 *259:137 *269:10 3.16391e-05
101 *259:137 *390:192 0.000257378
102 *259:137 *390:211 3.32982e-05
103 *259:137 *436:64 0
104 *259:137 *492:90 0
105 *259:162 *621:S 0.000630022
106 *259:162 *687:A 3.82228e-05
107 *259:162 *699:A0 3.82228e-05
108 *259:162 *857:A 0.00023578
109 *259:162 *269:10 1.07248e-05
110 *259:162 *383:132 0
111 *259:162 *390:182 2.64856e-05
112 *259:162 *425:8 8.90311e-06
113 *259:162 *436:64 0
114 *259:188 *621:S 2.09495e-05
115 *259:188 *1043:A 6.27782e-05
116 *259:188 *443:82 0.000154682
117 *259:188 *489:12 0.00010208
118 *259:220 *260:10 0.000155293
119 *259:220 *389:45 3.20264e-05
120 *259:220 *406:12 0.000102677
121 *259:220 *424:41 9.84506e-05
122 *259:220 *442:46 0
123 *259:228 *627:S 6.49003e-05
124 *259:238 *433:65 0.000163928
125 *259:238 *435:26 0
126 *259:280 *583:A 2.5386e-05
127 *259:280 *388:10 5.05841e-05
128 *259:280 *388:22 0
129 *259:286 *388:22 0.000686333
130 *259:286 *493:14 0.000468835
131 *259:305 *950:A 0.000182199
132 *259:305 *388:22 0.000356239
133 *259:305 *432:63 1.15993e-05
134 *259:305 *433:20 0.000294227
135 *259:305 *493:14 0.000377457
136 *259:305 *514:10 1.0779e-05
137 *259:369 *384:18 3.58208e-05
138 *259:369 *392:16 0.000576765
139 *259:369 *476:16 2.65831e-05
140 resp_msg[10] *259:162 6.92705e-05
141 *529:A2 *259:305 8.03699e-06
142 *530:A *259:280 0
143 *556:B *259:137 4.55844e-05
144 *558:A *259:137 4.34248e-05
145 *564:A *259:369 6.3657e-05
146 *567:C *567:A 5.49983e-05
147 *571:B *259:369 7.84038e-05
148 *573:A *573:B 0.000427505
149 *576:B *559:B 9.81288e-06
150 *579:B1 *259:280 0.000203716
151 *579:B1 *259:286 9.11425e-05
152 *581:A2 *259:280 0.000101148
153 *582:B *259:238 6.13567e-05
154 *586:B *582:C 0
155 *587:B *588:B 0.000297054
156 *604:A *612:A 0.000105182
157 *604:A *259:318 3.82228e-05
158 *608:B *612:A 0.000346779
159 *608:B *259:318 9.52298e-05
160 *649:A *566:B 0.000171617
161 *659:B1 *259:50 0.000117877
162 *669:A0 *259:238 0.000319308
163 *669:A1 *259:238 0.000350856
164 *670:A1 *259:228 0.000171288
165 *683:A0 *555:A 7.14746e-05
166 *683:A0 *259:137 0.000122083
167 *686:B_N *750:A 1.07403e-05
168 *708:D *259:22 0.000275684
169 *710:D *259:137 4.21215e-05
170 *722:D *573:B 5.97399e-05
171 *727:D *259:162 0.000181333
172 *750:B *750:A 2.65732e-05
173 *893:A *259:162 2.20702e-05
174 *957:A *259:228 1.43848e-05
175 *957:A *259:280 2.91038e-05
176 *959:A *569:B 8.36429e-06
177 *965:A *559:B 0.00015339
178 *968:A *566:B 3.06627e-05
179 *986:A *259:10 0
180 *992:A *259:280 9.63996e-05
181 *1001:A *259:77 0.000113909
182 *1002:A *259:280 0.000306188
183 *1003:A *559:B 0.000433202
184 *1008:A *259:280 0
185 *1059:A *259:10 6.3657e-05
186 *1:10 *259:369 4.3116e-06
187 *8:10 *559:B 2.40834e-05
188 *10:10 *567:A 4.47179e-05
189 *10:10 *259:188 0.000104639
190 *16:12 *259:220 3.31733e-05
191 *18:10 *259:238 2.30281e-05
192 *20:10 *259:137 0.0001122
193 *25:10 *569:B 0
194 *26:10 *566:B 0.000201445
195 *31:6 *596:B 3.95582e-05
196 *39:10 *750:A 0.000139684
197 *76:8 *559:B 1.83294e-06
198 *76:8 *259:50 7.09967e-05
199 *80:18 *552:B 9.80747e-05
200 *80:18 *259:22 0.000140487
201 *88:26 *582:C 0.00021459
202 *88:26 *259:238 0
203 *102:14 *259:110 0.000160617
204 *107:10 *259:220 5.71729e-05
205 *107:10 *259:305 2.93597e-05
206 *124:16 *559:B 7.28257e-05
207 *124:16 *259:50 9.21337e-05
208 *129:16 *259:220 7.55477e-05
209 *129:16 *259:228 0.00083423
210 *163:18 *259:238 0.000362295
211 *182:8 *573:B 5.79739e-05
212 *182:8 *259:369 0.000253275
213 *187:10 *559:B 9.28161e-05
214 *204:6 *588:B 0.000114584
215 *213:10 *259:228 7.64978e-05
216 *219:14 *606:B 4.79321e-06
217 *229:10 *599:B 4.97617e-05
218 *229:10 *259:286 6.55124e-05
*RES
1 *737:HI *259:10 20.0418 
2 *259:10 *259:16 20.3631 
3 *259:16 *259:22 19.9675 
4 *259:22 *593:A 9.24915 
5 *259:22 *552:B 16.8207 
6 *259:16 *259:50 22.8551 
7 *259:50 *576:A 9.24915 
8 *259:50 *559:B 26.2359 
9 *259:10 *259:77 8.55102 
10 *259:77 *588:B 12.1651 
11 *259:77 *591:B 23.8507 
12 *559:B *259:110 10.7333 
13 *259:110 *555:A 25.6205 
14 *259:110 *259:137 35.4186 
15 *259:137 *561:A 13.7491 
16 *259:137 *259:162 32.5046 
17 *259:162 *573:B 19.0282 
18 *259:162 *259:188 14.8114 
19 *259:188 *567:A 13.8789 
20 *259:188 *569:B 28.8014 
21 *588:B *259:220 18.6724 
22 *259:220 *259:228 18.7268 
23 *259:228 *259:238 22.4911 
24 *259:238 *582:C 22.1574 
25 *259:238 *586:A 9.24915 
26 *259:228 *596:B 23.506 
27 *259:220 *594:A 9.24915 
28 *259:220 *259:280 27.2281 
29 *259:280 *259:286 18.9612 
30 *259:286 *606:B 17.8243 
31 *259:286 *259:305 19.8399 
32 *259:305 *612:A 14.6023 
33 *259:305 *259:318 1.278 
34 *259:318 *750:A 45.748 
35 *259:318 *608:A 9.24915 
36 *259:280 *599:B 12.2151 
37 *573:B *259:369 21.6199 
38 *259:369 *566:B 30.53 
39 *259:369 *564:B 9.24915 
*END

*D_NET *260 0.00498538
*CONN
*I *523:A I *D sky130_fd_sc_hd__clkinv_1
*I *538:A I *D sky130_fd_sc_hd__xnor2_2
*I *738:HI O *D sky130_fd_sc_hd__conb_1
*CAP
1 *523:A 0.000303747
2 *538:A 0.000397275
3 *738:HI 0.000415254
4 *260:10 0.00111628
5 *523:A *533:A1 7.09666e-06
6 *523:A *587:A 0.000170685
7 *523:A *671:S 0.000169872
8 *523:A *729:DE 0
9 *523:A *892:A 0
10 *523:A *433:65 0.00013243
11 *523:A *433:88 0
12 *538:A *624:A1 5.49916e-05
13 *538:A *892:A 0
14 *538:A *415:12 9.55484e-05
15 *538:A *442:80 0.000663076
16 *538:A *459:65 8.52298e-05
17 *260:10 *892:A 0
18 *260:10 *933:A 0.000109421
19 *260:10 *389:45 0.000159469
20 *260:10 *415:12 0.000178171
21 *260:10 *435:16 7.9359e-05
22 resp_msg[0] *523:A 1.84293e-05
23 *533:A2 *523:A 5.04829e-06
24 *538:B *523:A 0.000180515
25 *966:A *538:A 2.65667e-05
26 *1039:A *260:10 0.000136545
27 *35:12 *538:A 2.29823e-05
28 *107:10 *260:10 0.000141718
29 *194:10 *260:10 0.000160384
30 *259:220 *260:10 0.000155293
*RES
1 *738:HI *260:10 28.4862 
2 *260:10 *538:A 25.3501 
3 *260:10 *523:A 32.8197 
*END

*D_NET *342 0.000376943
*CONN
*P req_msg[0] I
*I *856:A I *D sky130_fd_sc_hd__clkdlybuf4s50_1
*CAP
1 req_msg[0] 0.000157845
2 *856:A 0.000157845
3 *856:A *429:32 0
4 *863:A *856:A 6.12524e-05
*RES
1 req_msg[0] *856:A 19.3737 
*END

*D_NET *339 0.00100705
*CONN
*P req_msg[10] I
*I *857:A I *D sky130_fd_sc_hd__clkdlybuf4s50_1
*CAP
1 req_msg[10] 0.000385634
2 *857:A 0.000385634
3 *259:162 *857:A 0.00023578
*RES
1 req_msg[10] *857:A 21.9854 
*END

*D_NET *333 0.00144752
*CONN
*P req_msg[11] I
*I *858:A I *D sky130_fd_sc_hd__clkdlybuf4s50_1
*CAP
1 req_msg[11] 0.000291853
2 *858:A 0.000291853
3 *858:A *442:118 6.08467e-05
4 *858:A *442:128 0
5 *858:A *444:28 0
6 *858:A *444:47 0.000508528
7 resp_msg[12] *858:A 6.57513e-05
8 *662:B1 *858:A 6.08467e-05
9 *929:A *858:A 0
10 *259:22 *858:A 0.000167838
*RES
1 req_msg[11] *858:A 25.5622 
*END

*D_NET *330 0.00315192
*CONN
*P req_msg[12] I
*I *859:A I *D sky130_fd_sc_hd__clkdlybuf4s50_1
*CAP
1 req_msg[12] 0.0012056
2 *859:A 0
3 *330:27 0.0012056
4 *330:27 *709:DE 5.37077e-05
5 *330:27 *723:CLK 0
6 *330:27 *726:CLK 9.04906e-05
7 *330:27 *390:211 0.000136293
8 *330:27 *390:234 2.16355e-05
9 *330:27 *442:144 0
10 *330:27 *444:16 0
11 *330:27 *444:20 0
12 *330:27 *444:28 0
13 *659:B1 *330:27 5.46597e-05
14 *681:A0 *330:27 4.54106e-05
15 *724:D *330:27 0.000108397
16 *964:A *330:27 0
17 *22:10 *330:27 1.34046e-05
18 *23:10 *330:27 6.27031e-05
19 *76:8 *330:27 1.4091e-06
20 *80:18 *330:27 6.69064e-05
21 *259:50 *330:27 7.43654e-05
22 *282:22 *330:27 1.13359e-05
*RES
1 req_msg[12] *330:27 41.3222 
2 *330:27 *859:A 9.24915 
*END

*D_NET *327 0.00116552
*CONN
*P req_msg[13] I
*I *860:A I *D sky130_fd_sc_hd__clkdlybuf4s50_1
*CAP
1 req_msg[13] 0.000520905
2 *860:A 0.000520905
3 *860:A *682:S 0
4 *860:A *412:8 0
5 resp_msg[13] *860:A 4.34306e-05
6 *555:B *860:A 5.82008e-05
7 *555:A *860:A 7.62627e-06
8 *6:10 *860:A 1.44467e-05
*RES
1 req_msg[13] *860:A 21.7996 
*END

*D_NET *318 0.000525251
*CONN
*P req_msg[14] I
*I *861:A I *D sky130_fd_sc_hd__dlygate4sd2_1
*CAP
1 req_msg[14] 0.00024893
2 *861:A 0.00024893
3 *861:A *979:A 7.18816e-06
4 resp_msg[11] *861:A 0
5 resp_msg[14] *861:A 0
6 *545:A2 *861:A 2.02035e-05
7 *879:A *861:A 0
*RES
1 req_msg[14] *861:A 18.1717 
*END

*D_NET *317 0.00131206
*CONN
*P req_msg[15] I
*I *862:A I *D sky130_fd_sc_hd__clkdlybuf4s50_1
*CAP
1 req_msg[15] 0.00032818
2 *862:A 0.00032818
3 *862:A *383:132 3.07837e-05
4 resp_msg[10] *862:A 0
5 *711:D *862:A 0.000501334
6 *921:A *862:A 6.08467e-05
7 *2:10 *862:A 6.27332e-05
*RES
1 req_msg[15] *862:A 25.5038 
*END

*D_NET *312 0.000511413
*CONN
*P req_msg[16] I
*I *863:A I *D sky130_fd_sc_hd__clkdlybuf4s50_1
*CAP
1 req_msg[16] 0.000193624
2 *863:A 0.000193624
3 *863:A *856:A 6.12524e-05
4 *863:A *429:32 0
5 *43:12 *863:A 6.29116e-05
*RES
1 req_msg[16] *863:A 22.0969 
*END

*D_NET *309 0.000285561
*CONN
*P req_msg[17] I
*I *864:A I *D sky130_fd_sc_hd__clkdlybuf4s50_1
*CAP
1 req_msg[17] 6.06399e-05
2 *864:A 6.06399e-05
3 *864:A *429:20 1.5714e-05
4 resp_msg[1] *864:A 4.10489e-05
5 *629:A2 *864:A 6.08467e-05
6 *728:D *864:A 0
7 *867:A *864:A 4.66716e-05
*RES
1 req_msg[17] *864:A 18.3596 
*END

*D_NET *303 0.00171641
*CONN
*P req_msg[18] I
*I *865:A I *D sky130_fd_sc_hd__clkdlybuf4s50_1
*CAP
1 req_msg[18] 0.000715799
2 *865:A 0.000715799
3 *865:A *631:B 2.57986e-05
4 *865:A *442:110 0
5 resp_msg[2] *865:A 2.79993e-05
6 *631:A *865:A 0.000169733
7 *658:A *865:A 0
8 *713:D *865:A 7.86825e-06
9 *875:A *865:A 0
10 *895:A *865:A 7.14073e-06
11 *17:10 *865:A 4.27168e-05
12 *205:22 *865:A 3.5534e-06
*RES
1 req_msg[18] *865:A 39.7246 
*END

*D_NET *302 0.000283956
*CONN
*P req_msg[19] I
*I *866:A I *D sky130_fd_sc_hd__clkdlybuf4s50_1
*CAP
1 req_msg[19] 0.000102841
2 *866:A 0.000102841
3 *866:A *429:104 4.10791e-05
4 resp_msg[1] *866:A 0
5 resp_msg[3] *866:A 3.71946e-05
*RES
1 req_msg[19] *866:A 18.7749 
*END

*D_NET *298 0.0016034
*CONN
*P req_msg[1] I
*I *867:A I *D sky130_fd_sc_hd__clkdlybuf4s50_1
*CAP
1 req_msg[1] 0.000533083
2 *867:A 0.000533083
3 *867:A *627:A0 1.2693e-05
4 *867:A *627:S 6.92705e-05
5 *867:A *864:A 4.66716e-05
6 *867:A *389:16 1.47684e-05
7 resp_msg[1] *867:A 1.31145e-05
8 *670:A1 *867:A 0.000380712
*RES
1 req_msg[1] *867:A 23.2198 
*END

*D_NET *297 0.000817021
*CONN
*P req_msg[20] I
*I *868:A I *D sky130_fd_sc_hd__clkdlybuf4s50_1
*CAP
1 req_msg[20] 0.000223504
2 *868:A 0.000223504
3 resp_msg[4] *868:A 0.000310032
4 *637:A *868:A 0
5 *882:A *868:A 5.99807e-05
*RES
1 req_msg[20] *868:A 23.111 
*END

*D_NET *296 0.0022596
*CONN
*P req_msg[21] I
*I *869:A I *D sky130_fd_sc_hd__clkdlybuf4s50_1
*CAP
1 req_msg[21] 0.00039056
2 *869:A 0.00039056
3 *869:A *940:A 0.000639258
4 *869:A *445:53 0.000162584
5 *869:A *459:8 0.000590684
6 resp_msg[5] *869:A 4.10489e-05
7 *640:A *869:A 2.8212e-05
8 *883:A *869:A 1.66948e-05
*RES
1 req_msg[21] *869:A 30.8581 
*END

*D_NET *295 0.000318247
*CONN
*P req_msg[22] I
*I *870:A I *D sky130_fd_sc_hd__clkdlybuf4s50_1
*CAP
1 req_msg[22] 9.18179e-05
2 *870:A 9.18179e-05
3 *888:A *870:A 1.37145e-05
4 *889:A *870:A 0.000120897
5 *890:A *870:A 0
*RES
1 req_msg[22] *870:A 16.3872 
*END

*D_NET *294 0.000354064
*CONN
*P req_msg[23] I
*I *871:A I *D sky130_fd_sc_hd__clkdlybuf4s50_1
*CAP
1 req_msg[23] 0.000133386
2 *871:A 0.000133386
3 *871:A resp_msg[7] 0
4 *871:A *383:59 6.50727e-05
5 *871:A *434:35 2.22198e-05
6 resp_msg[6] *871:A 0
*RES
1 req_msg[23] *871:A 17.1106 
*END

*D_NET *281 0.00212937
*CONN
*P req_msg[24] I
*I *872:A I *D sky130_fd_sc_hd__clkdlybuf4s50_1
*CAP
1 req_msg[24] 0.000575769
2 *872:A 0.000575769
3 *872:A resp_msg[8] 0.00011734
4 *872:A *390:155 6.08467e-05
5 *872:A *446:105 0.000122098
6 *650:A2 *872:A 0.000399114
7 *650:B1 *872:A 0.000150716
8 *886:A *872:A 0
9 *906:A *872:A 0.00012772
10 *11:10 *872:A 0
*RES
1 req_msg[24] *872:A 36.2219 
*END

*D_NET *279 0.00125869
*CONN
*P req_msg[25] I
*I *873:A I *D sky130_fd_sc_hd__clkdlybuf4s50_1
*CAP
1 req_msg[25] 0.000396169
2 *873:A 0.000396169
3 *873:A resp_msg[9] 0.00014221
4 *873:A *720:CLK 5.53934e-05
5 *873:A *434:56 0.000260388
6 *720:D *873:A 0
7 *886:A *873:A 0
8 *907:A *873:A 8.36586e-06
*RES
1 req_msg[25] *873:A 32.2373 
*END

*D_NET *277 0.000779757
*CONN
*P req_msg[26] I
*I *874:A I *D sky130_fd_sc_hd__clkdlybuf4s50_1
*CAP
1 req_msg[26] 0.000307984
2 *874:A 0.000307984
3 resp_msg[10] *874:A 1.67063e-05
4 *655:A *874:A 0.000147083
*RES
1 req_msg[26] *874:A 23.9057 
*END

*D_NET *275 0.000361034
*CONN
*P req_msg[27] I
*I *875:A I *D sky130_fd_sc_hd__clkdlybuf4s50_1
*CAP
1 req_msg[27] 0.000180517
2 *875:A 0.000180517
3 *875:A *865:A 0
4 *876:A *875:A 0
*RES
1 req_msg[27] *875:A 18.1948 
*END

*D_NET *273 0.000392185
*CONN
*P req_msg[28] I
*I *876:A I *D sky130_fd_sc_hd__clkdlybuf4s50_1
*CAP
1 req_msg[28] 0.00013552
2 *876:A 0.00013552
3 *876:A *875:A 0
4 resp_msg[12] *876:A 0.000121145
*RES
1 req_msg[28] *876:A 18.1948 
*END

*D_NET *271 0.000773552
*CONN
*P req_msg[29] I
*I *877:A I *D sky130_fd_sc_hd__clkdlybuf4s50_1
*CAP
1 req_msg[29] 0.000340963
2 *877:A 0.000340963
3 *877:A *709:DE 0
4 *877:A *725:DE 6.50586e-05
5 *877:A *725:CLK 2.65667e-05
6 *877:A *278:10 0
*RES
1 req_msg[29] *877:A 22.6555 
*END

*D_NET *270 0.00233778
*CONN
*P req_msg[2] I
*I *878:A I *D sky130_fd_sc_hd__clkdlybuf4s50_1
*CAP
1 req_msg[2] 0.000936262
2 *878:A 0.000936262
3 *878:A *689:C 2.41274e-06
4 *878:A *729:DE 0
5 *878:A *423:27 0
6 resp_msg[2] *878:A 0
7 *535:B *878:A 6.50727e-05
8 *587:B *878:A 2.64915e-05
9 *671:A1 *878:A 0.000187498
10 *729:D *878:A 0.000183778
11 *32:12 *878:A 0
*RES
1 req_msg[2] *878:A 35.7709 
*END

*D_NET *268 0.00161457
*CONN
*P req_msg[30] I
*I *879:A I *D sky130_fd_sc_hd__clkdlybuf4s50_1
*CAP
1 req_msg[30] 0.000620473
2 *879:A 0.000620473
3 *879:A *861:A 0
4 *879:A *897:A 0.000298979
5 resp_msg[11] *879:A 4.27752e-05
6 *667:A *879:A 3.18729e-05
*RES
1 req_msg[30] *879:A 31.7954 
*END

*D_NET *263 0.000902981
*CONN
*P req_msg[31] I
*I *880:A I *D sky130_fd_sc_hd__clkdlybuf4s50_1
*CAP
1 req_msg[31] 0.000389741
2 *880:A 0.000389741
3 *880:A *699:A0 2.18679e-05
4 *880:A *443:82 1.91246e-05
5 resp_msg[15] *880:A 8.2506e-05
*RES
1 req_msg[31] *880:A 18.5541 
*END

*D_NET *261 0.00162268
*CONN
*P req_msg[3] I
*I *881:A I *D sky130_fd_sc_hd__clkdlybuf4s50_1
*CAP
1 req_msg[3] 0.000584378
2 *881:A 0.000584378
3 *881:A *389:16 0.000209652
4 *881:A *433:40 0
5 *881:A *442:32 1.8472e-05
6 resp_msg[3] *881:A 0.000169128
7 resp_msg[4] *881:A 0
8 *634:A *881:A 1.8326e-05
9 *635:B1 *881:A 3.60099e-05
10 *730:D *881:A 2.33103e-06
*RES
1 req_msg[3] *881:A 22.3679 
*END

*D_NET *245 0.000421502
*CONN
*P req_msg[4] I
*I *882:A I *D sky130_fd_sc_hd__clkdlybuf4s50_1
*CAP
1 req_msg[4] 0.000171433
2 *882:A 0.000171433
3 *882:A *715:CLK 2.87136e-06
4 *882:A *730:CLK 9.52916e-06
5 *882:A *868:A 5.99807e-05
6 resp_msg[4] *882:A 6.25468e-06
*RES
1 req_msg[4] *882:A 18.3574 
*END

*D_NET *244 0.000447247
*CONN
*P req_msg[5] I
*I *883:A I *D sky130_fd_sc_hd__clkdlybuf4s50_1
*CAP
1 req_msg[5] 0.00016955
2 *883:A 0.00016955
3 *883:A *869:A 1.66948e-05
4 *883:A *459:21 2.6434e-05
5 resp_msg[5] *883:A 0
6 *640:A *883:A 6.50176e-05
*RES
1 req_msg[5] *883:A 18.7727 
*END

*D_NET *243 0.000318886
*CONN
*P req_msg[6] I
*I *884:A I *D sky130_fd_sc_hd__clkdlybuf4s50_1
*CAP
1 req_msg[6] 0.000159443
2 *884:A 0.000159443
3 *884:A *445:45 0
4 *694:A2 *884:A 0
*RES
1 req_msg[6] *884:A 19.035 
*END

*D_NET *241 0.000903001
*CONN
*P req_msg[7] I
*I *885:A I *D sky130_fd_sc_hd__clkdlybuf4s50_1
*CAP
1 req_msg[7] 0.000241072
2 *885:A 0.000241072
3 *885:A *383:50 0.000383703
4 *885:A *434:35 0
5 resp_msg[6] *885:A 0
6 *676:A1 *885:A 2.85274e-05
7 *904:A *885:A 8.62625e-06
*RES
1 req_msg[7] *885:A 21.342 
*END

*D_NET *236 0.00229447
*CONN
*P req_msg[8] I
*I *886:A I *D sky130_fd_sc_hd__dlygate4sd2_1
*CAP
1 req_msg[8] 0.000821122
2 *886:A 0.000821122
3 *886:A *872:A 0
4 *886:A *873:A 0
5 *886:A *262:12 4.90235e-05
6 *886:A *265:10 0.00011557
7 *886:A *358:72 0.000199368
8 *886:A *434:56 2.24571e-05
9 *886:A *443:68 0
10 *886:A *491:26 1.55462e-05
11 *564:C *886:A 0.000130056
12 *735:D *886:A 0
13 *11:10 *886:A 0.000120204
*RES
1 req_msg[8] *886:A 35.0247 
*END

*D_NET *234 0.00101896
*CONN
*P req_msg[9] I
*I *887:A I *D sky130_fd_sc_hd__clkdlybuf4s50_1
*CAP
1 req_msg[9] 0.000318901
2 *887:A 0.000318901
3 *887:A *720:DE 0
4 *887:A *390:180 0
5 *887:A *434:56 0
6 *887:A *443:72 0.000118116
7 *887:A *492:58 0.000263038
8 *176:16 *887:A 0
*RES
1 req_msg[9] *887:A 23.0663 
*END

*D_NET *217 0.000895183
*CONN
*P req_rdy O
*I *891:X O *D sky130_fd_sc_hd__dlygate4sd2_1
*CAP
1 req_rdy 0.000436029
2 *891:X 0.000436029
3 req_rdy *569:A 5.04829e-06
4 *176:16 req_rdy 1.8078e-05
*RES
1 *891:X req_rdy 20.7169 
*END

*D_NET *232 0.00167288
*CONN
*P req_val I
*I *888:A I *D sky130_fd_sc_hd__dlygate4sd2_1
*CAP
1 req_val 0.000518189
2 *888:A 0.000518189
3 *888:A resp_val 0.000306497
4 *888:A *870:A 1.37145e-05
5 *888:A *492:18 4.01938e-05
6 *889:A *888:A 0
7 *890:A *888:A 7.14746e-05
8 *154:6 *888:A 0.000163414
9 *172:10 *888:A 4.12119e-05
*RES
1 req_val *888:A 34.7638 
*END

*D_NET *230 0.00238063
*CONN
*P reset I
*I *889:A I *D sky130_fd_sc_hd__clkdlybuf4s50_1
*CAP
1 reset 0.000341064
2 *889:A 0.000341064
3 *889:A *870:A 0.000120897
4 *889:A *888:A 0
5 *889:A *383:50 7.49016e-05
6 *889:A *492:14 0.000327014
7 *643:A *889:A 0.000489932
8 *890:A *889:A 4.49673e-05
9 *155:6 *889:A 0.000174403
10 *172:10 *889:A 0.000466386
*RES
1 reset *889:A 29.9852 
*END

*D_NET *215 0.0015422
*CONN
*P resp_msg[0] O
*I *892:X O *D sky130_fd_sc_hd__buf_2
*CAP
1 resp_msg[0] 0.000689768
2 *892:X 0.000689768
3 resp_msg[0] *523:A 1.84293e-05
4 resp_msg[0] *624:A1 7.48797e-05
5 resp_msg[0] *671:S 1.40434e-05
6 resp_msg[0] *892:A 4.66876e-05
7 *713:D resp_msg[0] 0
8 *1042:A resp_msg[0] 8.62625e-06
*RES
1 *892:X resp_msg[0] 27.8739 
*END

*D_NET *212 0.000677111
*CONN
*P resp_msg[10] O
*I *893:X O *D sky130_fd_sc_hd__buf_2
*CAP
1 resp_msg[10] 0.000263211
2 *893:X 0.000263211
3 resp_msg[10] *862:A 0
4 resp_msg[10] *874:A 1.67063e-05
5 resp_msg[10] *259:162 6.92705e-05
6 resp_msg[10] *383:132 0
7 resp_msg[10] *425:8 6.47133e-05
*RES
1 *893:X resp_msg[10] 22.7964 
*END

*D_NET *210 0.00133873
*CONN
*P resp_msg[11] O
*I *894:X O *D sky130_fd_sc_hd__buf_6
*CAP
1 resp_msg[11] 0.000380337
2 *894:X 0.000380337
3 resp_msg[11] *545:A2 0.000148623
4 resp_msg[11] *861:A 0
5 resp_msg[11] *879:A 4.27752e-05
6 resp_msg[11] *897:A 0.000168186
7 resp_msg[14] resp_msg[11] 0.000124126
8 *667:A resp_msg[11] 9.43419e-05
*RES
1 *894:X resp_msg[11] 26.6625 
*END

*D_NET *205 0.0043568
*CONN
*P resp_msg[12] O
*I *895:X O *D sky130_fd_sc_hd__buf_2
*CAP
1 resp_msg[12] 0.00022065
2 *895:X 0.000791903
3 *205:22 0.00101255
4 resp_msg[12] *858:A 6.57513e-05
5 resp_msg[12] *876:A 0.000121145
6 resp_msg[12] *211:10 0.000141792
7 resp_msg[12] *444:47 0.000508528
8 *205:22 *536:A 5.51483e-06
9 *205:22 *658:B 0.000138787
10 *205:22 *865:A 3.5534e-06
11 *205:22 *442:118 0.000411006
12 *591:A *205:22 4.61732e-05
13 *631:A resp_msg[12] 6.3259e-05
14 *662:B1 *205:22 0.000406794
15 *895:A *205:22 0.000175061
16 *164:12 *205:22 0.000244328
*RES
1 *895:X *205:22 46.1151 
2 *205:22 resp_msg[12] 15.5897 
*END

*D_NET *203 0.000458518
*CONN
*P resp_msg[13] O
*I *896:X O *D sky130_fd_sc_hd__buf_2
*CAP
1 resp_msg[13] 0.000184948
2 *896:X 0.000184948
3 resp_msg[13] *860:A 4.34306e-05
4 *896:A resp_msg[13] 4.51913e-05
*RES
1 *896:X resp_msg[13] 19.5267 
*END

*D_NET *201 0.00185556
*CONN
*P resp_msg[14] O
*I *897:X O *D sky130_fd_sc_hd__buf_2
*CAP
1 resp_msg[14] 0.000571169
2 *897:X 0.000571169
3 resp_msg[14] resp_msg[11] 0.000124126
4 resp_msg[14] *545:A2 0.000196412
5 resp_msg[14] *861:A 0
6 resp_msg[14] *897:A 6.63489e-05
7 resp_msg[14] *979:A 1.02634e-05
8 resp_msg[14] *383:150 0.000160001
9 resp_msg[14] *512:12 0.00015607
*RES
1 *897:X resp_msg[14] 25.5447 
*END

*D_NET *192 0.00137769
*CONN
*P resp_msg[15] O
*I *898:X O *D sky130_fd_sc_hd__dlygate4sd2_1
*CAP
1 resp_msg[15] 0.000433264
2 *898:X 0.000433264
3 resp_msg[15] *545:B1 1.43848e-05
4 resp_msg[15] *545:A1 6.08467e-05
5 resp_msg[15] *880:A 8.2506e-05
6 resp_msg[15] *288:18 0.000173104
7 resp_msg[15] *443:82 0.000180324
*RES
1 *898:X resp_msg[15] 22.0313 
*END

*D_NET *188 0.00130445
*CONN
*P resp_msg[1] O
*I *899:X O *D sky130_fd_sc_hd__buf_2
*CAP
1 resp_msg[1] 0.000289769
2 *899:X 0.000289769
3 resp_msg[1] *864:A 4.10489e-05
4 resp_msg[1] *866:A 0
5 resp_msg[1] *867:A 1.31145e-05
6 resp_msg[1] *429:20 0.000358592
7 *728:D resp_msg[1] 6.27782e-05
8 *899:A resp_msg[1] 0.0001712
9 *47:12 resp_msg[1] 7.81768e-05
*RES
1 *899:X resp_msg[1] 24.7414 
*END

*D_NET *186 0.000830051
*CONN
*P resp_msg[2] O
*I *900:X O *D sky130_fd_sc_hd__buf_2
*CAP
1 resp_msg[2] 0.00038066
2 *900:X 0.00038066
3 resp_msg[2] *865:A 2.79993e-05
4 resp_msg[2] *878:A 0
5 *713:D resp_msg[2] 0
6 *900:A resp_msg[2] 1.07248e-05
7 *32:12 resp_msg[2] 3.00073e-05
*RES
1 *900:X resp_msg[2] 23.2755 
*END

*D_NET *183 0.00180679
*CONN
*P resp_msg[3] O
*I *901:X O *D sky130_fd_sc_hd__buf_2
*CAP
1 resp_msg[3] 0.000374916
2 *901:X 0.000374916
3 resp_msg[3] *866:A 3.71946e-05
4 resp_msg[3] *881:A 0.000169128
5 resp_msg[3] *390:35 0.000262252
6 resp_msg[3] *390:49 0.000164826
7 resp_msg[3] *433:40 0.000423553
*RES
1 *901:X resp_msg[3] 25.6462 
*END

*D_NET *181 0.00409011
*CONN
*P resp_msg[4] O
*I *902:X O *D sky130_fd_sc_hd__clkbuf_2
*CAP
1 resp_msg[4] 0.00130343
2 *902:X 0.00130343
3 resp_msg[4] *579:A1 0.000154987
4 resp_msg[4] *730:CLK 0
5 resp_msg[4] *868:A 0.000310032
6 resp_msg[4] *881:A 0
7 resp_msg[4] *882:A 6.25468e-06
8 resp_msg[4] *429:104 0.000212532
9 *637:A resp_msg[4] 0
10 *672:A1 resp_msg[4] 0.000799442
*RES
1 *902:X resp_msg[4] 43.0349 
*END

*D_NET *177 0.00189691
*CONN
*P resp_msg[5] O
*I *903:X O *D sky130_fd_sc_hd__buf_2
*CAP
1 resp_msg[5] 0.000657399
2 *903:X 0.000657399
3 resp_msg[5] *715:CLK 6.55124e-05
4 resp_msg[5] *869:A 4.10489e-05
5 resp_msg[5] *883:A 0
6 resp_msg[5] *389:10 0.000135599
7 resp_msg[5] *389:91 3.57291e-06
8 *730:D resp_msg[5] 0.000336381
*RES
1 *903:X resp_msg[5] 26.1237 
*END

*D_NET *175 0.000437146
*CONN
*P resp_msg[6] O
*I *904:X O *D sky130_fd_sc_hd__buf_2
*CAP
1 resp_msg[6] 0.000147702
2 *904:X 0.000147702
3 resp_msg[6] *871:A 0
4 resp_msg[6] *885:A 0
5 resp_msg[6] *383:50 0.000122378
6 resp_msg[6] *383:59 1.61631e-05
7 resp_msg[6] *434:35 3.20069e-06
*RES
1 *904:X resp_msg[6] 16.8347 
*END

*D_NET *354 0.000941226
*CONN
*P resp_msg[7] O
*I *905:X O *D sky130_fd_sc_hd__buf_2
*CAP
1 resp_msg[7] 0.000370372
2 *905:X 0.000370372
3 resp_msg[7] *676:A0 0.000123176
4 resp_msg[7] *383:67 7.73065e-05
5 resp_msg[7] *434:35 0
6 *647:B1 resp_msg[7] 0
7 *871:A resp_msg[7] 0
*RES
1 *905:X resp_msg[7] 21.8205 
*END

*D_NET *355 0.00160587
*CONN
*P resp_msg[8] O
*I *906:X O *D sky130_fd_sc_hd__buf_2
*CAP
1 resp_msg[8] 0.000625445
2 *906:X 0.000625445
3 resp_msg[8] *719:CLK 9.23267e-05
4 resp_msg[8] *383:67 1.09973e-05
5 resp_msg[8] *434:56 2.12235e-05
6 *872:A resp_msg[8] 0.00011734
7 *906:A resp_msg[8] 0.000113096
*RES
1 *906:X resp_msg[8] 27.5059 
*END

*D_NET *356 0.00121226
*CONN
*P resp_msg[9] O
*I *907:X O *D sky130_fd_sc_hd__buf_2
*CAP
1 resp_msg[9] 0.000428737
2 *907:X 0.000428737
3 resp_msg[9] *492:58 0.000165521
4 *735:D resp_msg[9] 0
5 *873:A resp_msg[9] 0.00014221
6 *907:A resp_msg[9] 4.70559e-05
*RES
1 *907:X resp_msg[9] 23.6914 
*END

*D_NET *226 0.00197671
*CONN
*P resp_rdy I
*I *890:A I *D sky130_fd_sc_hd__dlymetal6s2s_1
*CAP
1 resp_rdy 0.000549681
2 *890:A 0.000549681
3 *890:A resp_val 1.05138e-05
4 *890:A *870:A 0
5 *890:A *888:A 7.14746e-05
6 *890:A *889:A 4.49673e-05
7 *890:A *383:50 0.000747194
8 *890:A *492:14 3.20069e-06
*RES
1 resp_rdy *890:A 33.9067 
*END

*D_NET *357 0.00257969
*CONN
*P resp_val O
*I *908:X O *D sky130_fd_sc_hd__buf_2
*CAP
1 resp_val 0.00100641
2 *908:X 0.00100641
3 resp_val *383:50 2.83365e-05
4 resp_val *443:16 2.84892e-05
5 resp_val *490:10 3.06664e-05
6 *888:A resp_val 0.000306497
7 *890:A resp_val 1.05138e-05
8 *994:A resp_val 8.63397e-05
9 *153:18 resp_val 7.60183e-05
10 *172:10 resp_val 0
*RES
1 *908:X resp_val 42.2145 
*END
