*SPEF "ieee 1481-1999"
*DESIGN "gcd"
*DATE "06:28:05 Thursday October 08, 2026"
*VENDOR "The OpenROAD Project"
*PROGRAM "OpenROAD"
*VERSION "unknown"
*DESIGN_FLOW "NAME_SCOPE LOCAL" "PIN_CAP NONE"
*DIVIDER /
*DELIMITER :
*BUS_DELIMITER []
*T_UNIT 1 NS
*C_UNIT 1 PF
*R_UNIT 1 OHM
*L_UNIT 1 HENRY

*NAME_MAP
*1 _000_
*2 _001_
*3 _002_
*4 _003_
*5 _004_
*6 _005_
*7 _006_
*8 _007_
*9 _008_
*10 _009_
*11 _010_
*12 _011_
*13 _012_
*14 _013_
*15 _014_
*16 _015_
*17 _016_
*18 _017_
*19 _018_
*20 _019_
*21 _020_
*22 _021_
*23 _022_
*24 _023_
*27 _026_
*29 _028_
*30 _029_
*31 _030_
*32 _031_
*33 _032_
*34 _033_
*35 _034_
*36 _035_
*37 _036_
*38 _037_
*39 _038_
*40 _039_
*41 _040_
*42 _041_
*43 _042_
*44 _043_
*45 _044_
*46 _045_
*47 _046_
*48 _047_
*49 _048_
*50 _049_
*51 _050_
*52 _051_
*53 _052_
*54 _053_
*55 _054_
*56 _055_
*57 _056_
*58 _057_
*59 _058_
*61 _060_
*62 _061_
*63 _062_
*64 _063_
*65 _064_
*66 _065_
*67 _066_
*68 _067_
*69 _068_
*70 _069_
*71 _070_
*72 _071_
*73 _072_
*74 _073_
*75 _074_
*76 _075_
*77 _076_
*79 _078_
*80 _079_
*81 _080_
*82 _081_
*83 _082_
*84 _083_
*85 _084_
*86 _085_
*87 _086_
*88 _087_
*89 _088_
*90 _089_
*92 _091_
*93 _092_
*94 _093_
*95 _094_
*96 _095_
*98 _097_
*99 _098_
*100 _099_
*101 _100_
*102 _101_
*104 _103_
*106 _105_
*107 _106_
*108 _107_
*109 _108_
*110 _109_
*111 _110_
*112 _111_
*113 _112_
*114 _113_
*115 _114_
*116 _115_
*117 _116_
*118 _117_
*119 _118_
*120 _119_
*121 _120_
*122 _121_
*123 _122_
*124 _123_
*125 _124_
*126 _125_
*127 _126_
*128 _127_
*129 _128_
*130 _129_
*131 _130_
*132 _131_
*133 _132_
*134 _133_
*135 _134_
*136 _135_
*137 _136_
*138 _137_
*139 _138_
*140 _139_
*141 _140_
*142 _141_
*143 _142_
*144 _143_
*145 _144_
*146 _145_
*147 _146_
*148 _147_
*149 _148_
*150 _149_
*151 _150_
*152 _151_
*153 _152_
*154 _153_
*155 _154_
*156 _155_
*157 _156_
*158 _157_
*159 _158_
*160 _159_
*161 _160_
*162 _161_
*163 _162_
*164 _163_
*165 clk
*418 clknet_0_clk
*417 clknet_2_0__leaf_clk
*416 clknet_2_1__leaf_clk
*415 clknet_2_2__leaf_clk
*414 clknet_2_3__leaf_clk
*166 ctrl\$a_reg_en\[0\]
*167 ctrl\$b_reg_en\[0\]
*168 ctrl\.state\.out\[1\]
*169 ctrl\.state\.out\[2\]
*170 dpath\.a_lt_b\$in0\[0\]
*171 dpath\.a_lt_b\$in0\[10\]
*172 dpath\.a_lt_b\$in0\[11\]
*173 dpath\.a_lt_b\$in0\[12\]
*174 dpath\.a_lt_b\$in0\[13\]
*175 dpath\.a_lt_b\$in0\[14\]
*176 dpath\.a_lt_b\$in0\[15\]
*177 dpath\.a_lt_b\$in0\[1\]
*178 dpath\.a_lt_b\$in0\[2\]
*179 dpath\.a_lt_b\$in0\[3\]
*180 dpath\.a_lt_b\$in0\[4\]
*181 dpath\.a_lt_b\$in0\[5\]
*182 dpath\.a_lt_b\$in0\[6\]
*183 dpath\.a_lt_b\$in0\[7\]
*184 dpath\.a_lt_b\$in0\[8\]
*185 dpath\.a_lt_b\$in0\[9\]
*186 dpath\.a_lt_b\$in1\[0\]
*187 dpath\.a_lt_b\$in1\[10\]
*188 dpath\.a_lt_b\$in1\[11\]
*189 dpath\.a_lt_b\$in1\[12\]
*190 dpath\.a_lt_b\$in1\[13\]
*191 dpath\.a_lt_b\$in1\[14\]
*192 dpath\.a_lt_b\$in1\[15\]
*193 dpath\.a_lt_b\$in1\[1\]
*194 dpath\.a_lt_b\$in1\[2\]
*195 dpath\.a_lt_b\$in1\[3\]
*196 dpath\.a_lt_b\$in1\[4\]
*197 dpath\.a_lt_b\$in1\[5\]
*198 dpath\.a_lt_b\$in1\[6\]
*199 dpath\.a_lt_b\$in1\[7\]
*200 dpath\.a_lt_b\$in1\[8\]
*201 dpath\.a_lt_b\$in1\[9\]
*202 dpath\.a_mux\$out\[0\]
*203 dpath\.a_mux\$out\[10\]
*204 dpath\.a_mux\$out\[11\]
*205 dpath\.a_mux\$out\[12\]
*206 dpath\.a_mux\$out\[13\]
*207 dpath\.a_mux\$out\[14\]
*208 dpath\.a_mux\$out\[15\]
*209 dpath\.a_mux\$out\[1\]
*210 dpath\.a_mux\$out\[2\]
*211 dpath\.a_mux\$out\[3\]
*212 dpath\.a_mux\$out\[4\]
*213 dpath\.a_mux\$out\[5\]
*214 dpath\.a_mux\$out\[6\]
*215 dpath\.a_mux\$out\[7\]
*216 dpath\.a_mux\$out\[8\]
*217 dpath\.a_mux\$out\[9\]
*218 dpath\.b_mux\$out\[0\]
*219 dpath\.b_mux\$out\[10\]
*220 dpath\.b_mux\$out\[11\]
*221 dpath\.b_mux\$out\[12\]
*222 dpath\.b_mux\$out\[13\]
*223 dpath\.b_mux\$out\[14\]
*224 dpath\.b_mux\$out\[15\]
*225 dpath\.b_mux\$out\[1\]
*226 dpath\.b_mux\$out\[2\]
*227 dpath\.b_mux\$out\[3\]
*228 dpath\.b_mux\$out\[4\]
*229 dpath\.b_mux\$out\[5\]
*230 dpath\.b_mux\$out\[6\]
*231 dpath\.b_mux\$out\[7\]
*232 dpath\.b_mux\$out\[8\]
*233 dpath\.b_mux\$out\[9\]
*234 net1
*243 net10
*244 net11
*245 net12
*246 net13
*247 net14
*419 net140
*420 net141
*334 net142
*335 net143
*336 net144
*423 net148
*338 net149
*248 net15
*340 net150
*341 net151
*342 net152
*343 net153
*339 net156
*346 net157
*337 net158
*424 net159
*249 net16
*347 net160
*348 net162
*349 net163
*350 net164
*351 net165
*352 net166
*353 net167
*354 net168
*355 net169
*250 net17
*356 net170
*357 net171
*426 net172
*359 net173
*360 net174
*361 net175
*362 net176
*363 net177
*364 net178
*365 net179
*251 net18
*366 net180
*358 net181
*367 net182
*427 net183
*368 net184
*369 net185
*371 net186
*372 net187
*373 net188
*374 net189
*252 net19
*375 net190
*377 net192
*378 net193
*380 net194
*382 net195
*381 net196
*370 net198
*384 net199
*235 net2
*253 net20
*385 net200
*387 net201
*388 net202
*389 net203
*390 net204
*386 net205
*392 net206
*391 net207
*394 net208
*396 net209
*254 net21
*398 net210
*399 net211
*400 net212
*401 net213
*402 net214
*397 net215
*403 net216
*395 net217
*404 net218
*405 net219
*255 net22
*407 net221
*393 net222
*408 net223
*409 net224
*410 net225
*411 net227
*412 net228
*428 net229
*256 net23
*430 net231
*413 net232
*432 net234
*433 net235
*434 net236
*435 net237
*436 net238
*257 net24
*422 net241
*437 net242
*438 net245
*258 net25
*440 net252
*441 net253
*259 net26
*443 net264
*260 net27
*444 net271
*445 net274
*446 net279
*261 net28
*447 net280
*448 net281
*449 net282
*452 net285
*453 net286
*262 net29
*455 net292
*456 net293
*457 net294
*458 net296
*459 net297
*460 net298
*461 net299
*236 net3
*263 net30
*462 net300
*264 net31
*333 net312
*463 net314
*464 net315
*465 net316
*466 net317
*467 net318
*468 net319
*265 net32
*469 net320
*421 net324
*267 net33
*344 net332
*439 net333
*268 net34
*442 net343
*345 net344
*470 net347
*431 net348
*425 net349
*285 net35
*376 net350
*471 net351
*379 net352
*472 net357
*450 net358
*266 net36
*451 net360
*454 net361
*406 net362
*269 net37
*270 net38
*271 net39
*237 net4
*272 net40
*273 net41
*274 net42
*275 net43
*276 net44
*277 net45
*278 net46
*279 net47
*280 net48
*281 net49
*238 net5
*282 net50
*283 net51
*284 net52
*286 net53
*239 net6
*240 net7
*241 net8
*242 net9
*105 req_msg[0]
*103 req_msg[10]
*97 req_msg[11]
*91 req_msg[12]
*78 req_msg[13]
*60 req_msg[14]
*28 req_msg[15]
*26 req_msg[16]
*25 req_msg[17]
*289 req_msg[18]
*290 req_msg[19]
*291 req_msg[1]
*292 req_msg[20]
*293 req_msg[21]
*294 req_msg[22]
*295 req_msg[23]
*296 req_msg[24]
*297 req_msg[25]
*298 req_msg[26]
*299 req_msg[27]
*300 req_msg[28]
*301 req_msg[29]
*302 req_msg[2]
*303 req_msg[30]
*304 req_msg[31]
*305 req_msg[3]
*306 req_msg[4]
*307 req_msg[5]
*308 req_msg[6]
*309 req_msg[7]
*310 req_msg[8]
*311 req_msg[9]
*315 req_rdy
*312 req_val
*313 reset
*316 resp_msg[0]
*317 resp_msg[10]
*318 resp_msg[11]
*319 resp_msg[12]
*320 resp_msg[13]
*321 resp_msg[14]
*322 resp_msg[15]
*323 resp_msg[1]
*324 resp_msg[2]
*325 resp_msg[3]
*326 resp_msg[4]
*327 resp_msg[5]
*328 resp_msg[6]
*329 resp_msg[7]
*330 resp_msg[8]
*331 resp_msg[9]
*314 resp_rdy
*332 resp_val
*935 FILLER_0_0
*988 FILLER_0_118
*989 FILLER_0_137
*990 FILLER_0_151
*991 FILLER_0_159
*889 FILLER_0_16
*992 FILLER_0_163
*993 FILLER_0_165
*982 FILLER_0_20
*983 FILLER_0_31
*984 FILLER_0_36
*985 FILLER_0_40
*986 FILLER_0_50
*987 FILLER_0_88
*1075 FILLER_10_0
*1082 FILLER_10_103
*1083 FILLER_10_125
*1084 FILLER_10_138
*1085 FILLER_10_146
*1086 FILLER_10_151
*1087 FILLER_10_163
*1088 FILLER_10_165
*1076 FILLER_10_29
*1077 FILLER_10_36
*1078 FILLER_10_62
*1079 FILLER_10_64
*1080 FILLER_10_78
*1081 FILLER_10_80
*1089 FILLER_11_0
*1091 FILLER_11_11
*1094 FILLER_11_160
*1095 FILLER_11_164
*1090 FILLER_11_2
*1092 FILLER_11_52
*1093 FILLER_11_85
*1100 FILLER_12_102
*1101 FILLER_12_113
*1102 FILLER_12_140
*1103 FILLER_12_145
*1104 FILLER_12_151
*1105 FILLER_12_159
*1106 FILLER_12_163
*1107 FILLER_12_165
*1097 FILLER_12_28
*1098 FILLER_12_60
*1096 FILLER_12_8
*1099 FILLER_12_97
*1111 FILLER_13_121
*1108 FILLER_13_16
*1112 FILLER_13_163
*1113 FILLER_13_165
*1109 FILLER_13_92
*1110 FILLER_13_96
*1117 FILLER_14_114
*1118 FILLER_14_116
*1119 FILLER_14_140
*1120 FILLER_14_149
*1121 FILLER_14_151
*1122 FILLER_14_163
*1123 FILLER_14_165
*1114 FILLER_14_22
*1115 FILLER_14_46
*1116 FILLER_14_63
*1124 FILLER_15_0
*1131 FILLER_15_107
*1132 FILLER_15_121
*1133 FILLER_15_123
*1134 FILLER_15_133
*1126 FILLER_15_45
*1127 FILLER_15_53
*1128 FILLER_15_61
*1125 FILLER_15_8
*1129 FILLER_15_81
*1130 FILLER_15_91
*1135 FILLER_16_0
*1137 FILLER_16_11
*1140 FILLER_16_129
*1141 FILLER_16_140
*1142 FILLER_16_146
*1143 FILLER_16_151
*1144 FILLER_16_159
*1145 FILLER_16_163
*1146 FILLER_16_165
*1136 FILLER_16_2
*1138 FILLER_16_28
*1139 FILLER_16_73
*1147 FILLER_17_0
*1152 FILLER_17_119
*1148 FILLER_17_28
*1149 FILLER_17_36
*1150 FILLER_17_64
*1151 FILLER_17_77
*1153 FILLER_18_0
*1155 FILLER_18_11
*1162 FILLER_18_128
*1156 FILLER_18_13
*1163 FILLER_18_130
*1164 FILLER_18_151
*1165 FILLER_18_159
*1166 FILLER_18_163
*1167 FILLER_18_165
*1154 FILLER_18_2
*1157 FILLER_18_24
*1158 FILLER_18_31
*1159 FILLER_18_42
*1160 FILLER_18_85
*1161 FILLER_18_89
*1171 FILLER_19_117
*1172 FILLER_19_119
*1173 FILLER_19_127
*1174 FILLER_19_143
*1175 FILLER_19_157
*1169 FILLER_19_16
*1170 FILLER_19_70
*1168 FILLER_19_9
*994 FILLER_1_0
*1002 FILLER_1_121
*1003 FILLER_1_130
*1004 FILLER_1_138
*995 FILLER_1_25
*996 FILLER_1_27
*997 FILLER_1_31
*998 FILLER_1_58
*999 FILLER_1_69
*1000 FILLER_1_87
*1001 FILLER_1_96
*1176 FILLER_20_0
*1187 FILLER_20_120
*1188 FILLER_20_147
*1189 FILLER_20_149
*1190 FILLER_20_157
*1191 FILLER_20_165
*1179 FILLER_20_18
*1180 FILLER_20_20
*1181 FILLER_20_27
*1182 FILLER_20_29
*1183 FILLER_20_31
*1184 FILLER_20_35
*1177 FILLER_20_4
*1178 FILLER_20_6
*1185 FILLER_20_65
*1186 FILLER_20_91
*1195 FILLER_21_106
*1196 FILLER_21_118
*1197 FILLER_21_121
*1198 FILLER_21_129
*1192 FILLER_21_13
*1199 FILLER_21_131
*1193 FILLER_21_40
*1194 FILLER_21_61
*1203 FILLER_22_102
*1204 FILLER_22_143
*1205 FILLER_22_147
*1206 FILLER_22_149
*1207 FILLER_22_165
*1200 FILLER_22_29
*1201 FILLER_22_31
*1202 FILLER_22_52
*1208 FILLER_23_0
*1218 FILLER_23_162
*1209 FILLER_23_2
*1210 FILLER_23_25
*1211 FILLER_23_32
*1212 FILLER_23_34
*1213 FILLER_23_41
*1214 FILLER_23_46
*1215 FILLER_23_48
*1216 FILLER_23_59
*1217 FILLER_23_94
*1219 FILLER_24_0
*1231 FILLER_24_113
*1232 FILLER_24_115
*1233 FILLER_24_120
*1234 FILLER_24_135
*1220 FILLER_24_14
*1235 FILLER_24_140
*1236 FILLER_24_164
*1221 FILLER_24_18
*1222 FILLER_24_29
*1223 FILLER_24_31
*1224 FILLER_24_51
*1225 FILLER_24_53
*1226 FILLER_24_63
*1227 FILLER_24_71
*1228 FILLER_24_76
*1229 FILLER_24_91
*1230 FILLER_24_93
*1237 FILLER_25_0
*1245 FILLER_25_119
*1246 FILLER_25_129
*1247 FILLER_25_133
*1248 FILLER_25_140
*1238 FILLER_25_2
*1239 FILLER_25_39
*1240 FILLER_25_47
*1241 FILLER_25_51
*1242 FILLER_25_61
*1243 FILLER_25_65
*1244 FILLER_25_93
*1249 FILLER_26_0
*1262 FILLER_26_139
*1263 FILLER_26_147
*1264 FILLER_26_149
*1265 FILLER_26_151
*1266 FILLER_26_159
*1251 FILLER_26_16
*1267 FILLER_26_163
*1268 FILLER_26_165
*1252 FILLER_26_20
*1253 FILLER_26_55
*1254 FILLER_26_59
*1255 FILLER_26_65
*1256 FILLER_26_73
*1257 FILLER_26_75
*1250 FILLER_26_8
*1258 FILLER_26_84
*1259 FILLER_26_88
*1260 FILLER_26_91
*1261 FILLER_26_95
*1005 FILLER_2_0
*1011 FILLER_2_115
*1012 FILLER_2_149
*1007 FILLER_2_15
*1013 FILLER_2_155
*1014 FILLER_2_163
*1015 FILLER_2_165
*1008 FILLER_2_19
*1006 FILLER_2_2
*1009 FILLER_2_62
*1010 FILLER_2_88
*1016 FILLER_3_0
*1021 FILLER_3_101
*1022 FILLER_3_133
*1023 FILLER_3_141
*1018 FILLER_3_21
*1019 FILLER_3_25
*1020 FILLER_3_40
*1017 FILLER_3_8
*1025 FILLER_4_118
*1026 FILLER_4_131
*1027 FILLER_4_133
*1028 FILLER_4_157
*1029 FILLER_4_165
*1024 FILLER_4_24
*1030 FILLER_5_0
*1036 FILLER_5_159
*1037 FILLER_5_163
*1038 FILLER_5_165
*1031 FILLER_5_51
*1032 FILLER_5_59
*1033 FILLER_5_67
*1034 FILLER_5_75
*1035 FILLER_5_80
*1039 FILLER_6_0
*1044 FILLER_6_102
*1045 FILLER_6_114
*1046 FILLER_6_121
*1047 FILLER_6_125
*1048 FILLER_6_151
*1049 FILLER_6_153
*1050 FILLER_6_164
*1040 FILLER_6_28
*1041 FILLER_6_49
*1042 FILLER_6_74
*1043 FILLER_6_98
*1051 FILLER_7_0
*1053 FILLER_7_11
*1054 FILLER_7_153
*1055 FILLER_7_163
*1056 FILLER_7_165
*1052 FILLER_7_2
*1057 FILLER_8_0
*1061 FILLER_8_115
*1062 FILLER_8_117
*1063 FILLER_8_127
*1064 FILLER_8_140
*1065 FILLER_8_148
*1066 FILLER_8_151
*1067 FILLER_8_165
*1058 FILLER_8_2
*1060 FILLER_8_47
*1059 FILLER_8_7
*1069 FILLER_9_12
*1073 FILLER_9_163
*1074 FILLER_9_165
*1070 FILLER_9_56
*1071 FILLER_9_61
*1072 FILLER_9_75
*1068 FILLER_9_8
*723 TAP_TAPCELL_ROW_0_0
*724 TAP_TAPCELL_ROW_0_1
*725 TAP_TAPCELL_ROW_0_2
*726 TAP_TAPCELL_ROW_0_3
*727 TAP_TAPCELL_ROW_0_4
*750 TAP_TAPCELL_ROW_10_27
*751 TAP_TAPCELL_ROW_10_28
*752 TAP_TAPCELL_ROW_10_29
*753 TAP_TAPCELL_ROW_11_30
*754 TAP_TAPCELL_ROW_11_31
*755 TAP_TAPCELL_ROW_12_32
*756 TAP_TAPCELL_ROW_12_33
*757 TAP_TAPCELL_ROW_12_34
*758 TAP_TAPCELL_ROW_13_35
*759 TAP_TAPCELL_ROW_13_36
*760 TAP_TAPCELL_ROW_14_37
*761 TAP_TAPCELL_ROW_14_38
*762 TAP_TAPCELL_ROW_14_39
*763 TAP_TAPCELL_ROW_15_40
*764 TAP_TAPCELL_ROW_15_41
*765 TAP_TAPCELL_ROW_16_42
*766 TAP_TAPCELL_ROW_16_43
*767 TAP_TAPCELL_ROW_16_44
*768 TAP_TAPCELL_ROW_17_45
*769 TAP_TAPCELL_ROW_17_46
*770 TAP_TAPCELL_ROW_18_47
*771 TAP_TAPCELL_ROW_18_48
*772 TAP_TAPCELL_ROW_18_49
*773 TAP_TAPCELL_ROW_19_50
*774 TAP_TAPCELL_ROW_19_51
*728 TAP_TAPCELL_ROW_1_5
*729 TAP_TAPCELL_ROW_1_6
*775 TAP_TAPCELL_ROW_20_52
*776 TAP_TAPCELL_ROW_20_53
*777 TAP_TAPCELL_ROW_20_54
*778 TAP_TAPCELL_ROW_21_55
*779 TAP_TAPCELL_ROW_21_56
*780 TAP_TAPCELL_ROW_22_57
*781 TAP_TAPCELL_ROW_22_58
*782 TAP_TAPCELL_ROW_22_59
*783 TAP_TAPCELL_ROW_23_60
*784 TAP_TAPCELL_ROW_23_61
*785 TAP_TAPCELL_ROW_24_62
*786 TAP_TAPCELL_ROW_24_63
*787 TAP_TAPCELL_ROW_24_64
*788 TAP_TAPCELL_ROW_25_65
*789 TAP_TAPCELL_ROW_25_66
*790 TAP_TAPCELL_ROW_26_67
*791 TAP_TAPCELL_ROW_26_68
*792 TAP_TAPCELL_ROW_26_69
*793 TAP_TAPCELL_ROW_26_70
*794 TAP_TAPCELL_ROW_26_71
*730 TAP_TAPCELL_ROW_2_7
*731 TAP_TAPCELL_ROW_2_8
*732 TAP_TAPCELL_ROW_2_9
*733 TAP_TAPCELL_ROW_3_10
*734 TAP_TAPCELL_ROW_3_11
*735 TAP_TAPCELL_ROW_4_12
*736 TAP_TAPCELL_ROW_4_13
*737 TAP_TAPCELL_ROW_4_14
*738 TAP_TAPCELL_ROW_5_15
*739 TAP_TAPCELL_ROW_5_16
*740 TAP_TAPCELL_ROW_6_17
*741 TAP_TAPCELL_ROW_6_18
*742 TAP_TAPCELL_ROW_6_19
*743 TAP_TAPCELL_ROW_7_20
*744 TAP_TAPCELL_ROW_7_21
*745 TAP_TAPCELL_ROW_8_22
*746 TAP_TAPCELL_ROW_8_23
*747 TAP_TAPCELL_ROW_8_24
*748 TAP_TAPCELL_ROW_9_25
*749 TAP_TAPCELL_ROW_9_26
*473 _164_
*474 _165_
*475 _166_
*476 _167_
*477 _168_
*478 _169_
*479 _170_
*480 _171_
*481 _172_
*482 _173_
*483 _174_
*484 _175_
*485 _176_
*486 _177_
*487 _178_
*488 _179_
*489 _180_
*490 _181_
*491 _182_
*492 _183_
*493 _184_
*494 _185_
*495 _186_
*496 _187_
*497 _188_
*498 _189_
*499 _190_
*502 _193_
*503 _194_
*505 _196_
*506 _197_
*507 _198_
*508 _199_
*509 _200_
*510 _201_
*511 _202_
*512 _203_
*513 _204_
*514 _205_
*515 _206_
*516 _207_
*517 _208_
*518 _209_
*519 _210_
*520 _211_
*521 _212_
*522 _213_
*523 _214_
*524 _215_
*525 _216_
*526 _217_
*527 _218_
*528 _219_
*529 _220_
*530 _221_
*531 _222_
*532 _223_
*533 _224_
*534 _225_
*535 _226_
*536 _227_
*537 _228_
*538 _229_
*539 _230_
*540 _231_
*541 _232_
*542 _233_
*543 _234_
*544 _235_
*545 _236_
*546 _237_
*547 _238_
*548 _239_
*549 _240_
*551 _242_
*552 _243_
*553 _244_
*554 _245_
*555 _246_
*556 _247_
*557 _248_
*558 _249_
*559 _250_
*560 _251_
*561 _252_
*562 _253_
*563 _254_
*564 _255_
*565 _256_
*566 _257_
*567 _258_
*568 _259_
*570 _261_
*571 _262_
*572 _263_
*573 _264_
*574 _265_
*575 _266_
*576 _267_
*577 _268_
*578 _269_
*579 _270_
*580 _271_
*581 _272_
*583 _274_
*584 _275_
*585 _276_
*586 _277_
*587 _278_
*589 _280_
*590 _281_
*591 _282_
*592 _283_
*593 _284_
*594 _285_
*595 _286_
*596 _287_
*597 _288_
*599 _290_
*600 _291_
*602 _293_
*603 _294_
*604 _295_
*605 _296_
*606 _297_
*607 _298_
*608 _299_
*609 _300_
*610 _301_
*611 _302_
*612 _303_
*613 _304_
*614 _305_
*615 _306_
*616 _307_
*617 _308_
*618 _309_
*619 _310_
*620 _311_
*621 _312_
*622 _313_
*623 _314_
*624 _315_
*625 _316_
*626 _317_
*627 _318_
*628 _319_
*629 _320_
*630 _321_
*631 _322_
*632 _323_
*633 _324_
*634 _325_
*635 _326_
*636 _327_
*637 _328_
*638 _329_
*639 _330_
*640 _331_
*641 _332_
*642 _333_
*643 _334_
*644 _335_
*645 _336_
*646 _337_
*647 _338_
*648 _339_
*649 _340_
*650 _341_
*651 _342_
*652 _343_
*653 _344_
*654 _345_
*655 _346_
*656 _347_
*657 _348_
*658 _349_
*659 _350_
*660 _351_
*661 _352_
*662 _353_
*663 _354_
*664 _355_
*665 _356_
*666 _357_
*667 _358_
*668 _359_
*669 _360_
*670 _361_
*671 _362_
*672 _363_
*673 _364_
*674 _365_
*675 _366_
*676 _367_
*677 _368_
*678 _369_
*679 _370_
*680 _371_
*681 _372_
*682 _373_
*683 _374_
*684 _375_
*685 _376_
*686 _377_
*687 _378_
*924 clkbuf_0_clk
*923 clkbuf_2_0__f_clk
*922 clkbuf_2_1__f_clk
*921 clkbuf_2_2__f_clk
*920 clkbuf_2_3__f_clk
*937 clkload0
*938 clkload1
*939 clkload2
*967 clone296
*688 ctrl\.state\.out\[0\]\$_DFF_P_
*689 ctrl\.state\.out\[1\]\$_DFF_P_
*690 ctrl\.state\.out\[2\]\$_DFF_P_
*691 dpath\.a_reg\.out\[0\]\$_DFFE_PP_
*692 dpath\.a_reg\.out\[10\]\$_DFFE_PP_
*693 dpath\.a_reg\.out\[11\]\$_DFFE_PP_
*694 dpath\.a_reg\.out\[12\]\$_DFFE_PP_
*695 dpath\.a_reg\.out\[13\]\$_DFFE_PP_
*696 dpath\.a_reg\.out\[14\]\$_DFFE_PP_
*697 dpath\.a_reg\.out\[15\]\$_DFFE_PP_
*698 dpath\.a_reg\.out\[1\]\$_DFFE_PP_
*699 dpath\.a_reg\.out\[2\]\$_DFFE_PP_
*700 dpath\.a_reg\.out\[3\]\$_DFFE_PP_
*701 dpath\.a_reg\.out\[4\]\$_DFFE_PP_
*702 dpath\.a_reg\.out\[5\]\$_DFFE_PP_
*703 dpath\.a_reg\.out\[6\]\$_DFFE_PP_
*704 dpath\.a_reg\.out\[7\]\$_DFFE_PP_
*705 dpath\.a_reg\.out\[8\]\$_DFFE_PP_
*706 dpath\.a_reg\.out\[9\]\$_DFFE_PP_
*707 dpath\.b_reg\.out\[0\]\$_DFFE_PP_
*708 dpath\.b_reg\.out\[10\]\$_DFFE_PP_
*709 dpath\.b_reg\.out\[11\]\$_DFFE_PP_
*710 dpath\.b_reg\.out\[12\]\$_DFFE_PP_
*711 dpath\.b_reg\.out\[13\]\$_DFFE_PP_
*712 dpath\.b_reg\.out\[14\]\$_DFFE_PP_
*713 dpath\.b_reg\.out\[15\]\$_DFFE_PP_
*714 dpath\.b_reg\.out\[1\]\$_DFFE_PP_
*715 dpath\.b_reg\.out\[2\]\$_DFFE_PP_
*716 dpath\.b_reg\.out\[3\]\$_DFFE_PP_
*717 dpath\.b_reg\.out\[4\]\$_DFFE_PP_
*718 dpath\.b_reg\.out\[5\]\$_DFFE_PP_
*719 dpath\.b_reg\.out\[6\]\$_DFFE_PP_
*720 dpath\.b_reg\.out\[7\]\$_DFFE_PP_
*721 dpath\.b_reg\.out\[8\]\$_DFFE_PP_
*722 dpath\.b_reg\.out\[9\]\$_DFFE_PP_
*601 input1
*795 input10
*796 input11
*797 input12
*798 input13
*799 input14
*800 input15
*801 input16
*802 input17
*803 input18
*804 input19
*598 input2
*805 input20
*806 input21
*807 input22
*808 input23
*809 input24
*810 input25
*811 input26
*812 input27
*813 input28
*814 input29
*588 input3
*815 input30
*816 input31
*817 input32
*818 input33
*819 input34
*820 input35
*582 input4
*569 input5
*550 input6
*504 input7
*501 input8
*500 input9
*821 output36
*822 output37
*823 output38
*824 output39
*825 output40
*826 output41
*827 output42
*828 output43
*829 output44
*830 output45
*831 output46
*832 output47
*833 output48
*834 output49
*835 output50
*836 output51
*837 output52
*838 output53
*925 place140
*926 place141
*840 place142
*841 place143
*842 place144
*929 place148
*844 place149
*846 place150
*847 place151
*848 place152
*849 place153
*845 place156
*852 place157
*843 place158
*930 place159
*853 place160
*854 place162
*855 place163
*856 place164
*857 place165
*858 place166
*859 place167
*860 place168
*861 place169
*862 place170
*863 place171
*932 place172
*865 place173
*866 place174
*867 place175
*868 place176
*869 place177
*870 place178
*871 place179
*872 place180
*864 place181
*873 place182
*933 place183
*874 place184
*875 place185
*877 place186
*878 place187
*879 place188
*880 place189
*881 place190
*883 place192
*884 place193
*886 place194
*888 place195
*887 place196
*876 place198
*890 place199
*891 place200
*893 place201
*894 place202
*895 place203
*896 place204
*892 place205
*898 place206
*897 place207
*900 place208
*902 place209
*904 place210
*905 place211
*906 place212
*907 place213
*908 place214
*903 place215
*909 place216
*901 place217
*910 place218
*911 place219
*913 place221
*899 place222
*914 place223
*915 place224
*916 place225
*917 place227
*918 place228
*934 place229
*936 place231
*919 place232
*941 rebuffer234
*942 rebuffer235
*943 rebuffer236
*944 rebuffer237
*945 rebuffer238
*928 rebuffer241
*946 rebuffer242
*947 rebuffer245
*949 rebuffer252
*950 rebuffer253
*952 rebuffer264
*953 rebuffer271
*954 rebuffer274
*955 rebuffer279
*956 rebuffer280
*957 rebuffer281
*958 rebuffer282
*961 rebuffer285
*962 rebuffer286
*964 rebuffer292
*965 rebuffer293
*966 rebuffer294
*968 rebuffer297
*969 rebuffer298
*970 rebuffer299
*971 rebuffer300
*839 rebuffer312
*972 rebuffer314
*973 rebuffer315
*974 rebuffer316
*975 rebuffer317
*976 rebuffer318
*977 rebuffer319
*978 rebuffer320
*927 rebuffer324
*850 rebuffer332
*948 rebuffer333
*951 rebuffer343
*851 rebuffer344
*979 rebuffer347
*940 rebuffer348
*931 rebuffer349
*882 rebuffer350
*980 rebuffer351
*885 rebuffer352
*981 rebuffer357
*959 rebuffer358
*960 rebuffer360
*963 rebuffer361
*912 rebuffer362

*PORTS
clk I
req_msg[0] I
req_msg[10] I
req_msg[11] I
req_msg[12] I
req_msg[13] I
req_msg[14] I
req_msg[15] I
req_msg[16] I
req_msg[17] I
req_msg[18] I
req_msg[19] I
req_msg[1] I
req_msg[20] I
req_msg[21] I
req_msg[22] I
req_msg[23] I
req_msg[24] I
req_msg[25] I
req_msg[26] I
req_msg[27] I
req_msg[28] I
req_msg[29] I
req_msg[2] I
req_msg[30] I
req_msg[31] I
req_msg[3] I
req_msg[4] I
req_msg[5] I
req_msg[6] I
req_msg[7] I
req_msg[8] I
req_msg[9] I
req_rdy O
req_val I
reset I
resp_msg[0] O
resp_msg[10] O
resp_msg[11] O
resp_msg[12] O
resp_msg[13] O
resp_msg[14] O
resp_msg[15] O
resp_msg[1] O
resp_msg[2] O
resp_msg[3] O
resp_msg[4] O
resp_msg[5] O
resp_msg[6] O
resp_msg[7] O
resp_msg[8] O
resp_msg[9] O
resp_rdy I
resp_val O

*D_NET *1 0.000406171
*CONN
*I *688:D I *D sky130_fd_sc_hd__dfxtp_2
*I *669:X O *D sky130_fd_sc_hd__a221o_1
*CAP
1 *688:D 0.000150906
2 *669:X 0.000150906
3 *688:D *669:A2 6.43959e-05
4 *688:D *678:A1 1.77537e-06
5 *688:D *678:B1 0
6 *688:D *690:CLK 1.87611e-05
7 *688:D *428:14 3.18826e-06
8 *688:D *451:16 3.072e-06
9 *688:D *451:18 1.31657e-05
*RES
1 *669:X *688:D 31.1072 
*END

*D_NET *2 0.00125318
*CONN
*I *689:D I *D sky130_fd_sc_hd__dfxtp_1
*I *678:Y O *D sky130_fd_sc_hd__a21oi_2
*CAP
1 *689:D 0.000306104
2 *678:Y 0.000306104
3 *689:D *668:A 0
4 *689:D *678:A1 5.41377e-05
5 *689:D *678:B1 5.41377e-05
6 *689:D *687:A0 0.000310724
7 *689:D *689:CLK 0.000115021
8 *689:D *918:A 0.000106947
9 *689:D *192:30 0
10 *689:D *417:87 0
*RES
1 *678:Y *689:D 37.4515 
*END

*D_NET *3 0.000702871
*CONN
*I *690:D I *D sky130_fd_sc_hd__dfxtp_2
*I *681:Y O *D sky130_fd_sc_hd__nor2b_1
*CAP
1 *690:D 0.000198714
2 *681:Y 0.000198714
3 *690:D *680:A2 0.000137606
4 *690:D *842:A 1.93122e-05
5 *690:D *357:18 0.000148525
*RES
1 *681:Y *690:D 33.7115 
*END

*D_NET *4 0.00152877
*CONN
*I *486:A I *D sky130_fd_sc_hd__xnor2_1
*I *473:X O *D sky130_fd_sc_hd__xor2_1
*CAP
1 *486:A 0.000589164
2 *473:X 0.000589164
3 *486:A *486:B 0.000350445
4 *486:A *357:175 0
*RES
1 *473:X *486:A 41.8551 
*END

*D_NET *5 0.00371362
*CONN
*I *482:A1 I *D sky130_fd_sc_hd__o31ai_4
*I *533:B1 I *D sky130_fd_sc_hd__o221ai_1
*I *975:A I *D sky130_fd_sc_hd__buf_6
*I *474:X O *D sky130_fd_sc_hd__and2b_2
*CAP
1 *482:A1 0.000104747
2 *533:B1 0.000284079
3 *975:A 0
4 *474:X 0.000497457
5 *5:12 0.000284079
6 *5:10 0.000602203
7 *482:A1 *477:B_N 0.00021548
8 *482:A1 *480:A_N 0.000107496
9 *482:A1 *480:B 1.65872e-05
10 *482:A1 *482:A2 6.08467e-05
11 *482:A1 *155:12 0.000217486
12 *533:B1 *479:C1 0.000154145
13 *533:B1 *494:A 7.27437e-05
14 *533:B1 *533:A1 0
15 *533:B1 *466:23 3.92058e-05
16 *5:10 *474:B 6.27718e-05
17 *5:10 *477:B_N 0.000279424
18 *5:10 *155:12 0.000275932
19 *5:10 *178:18 0.000438933
*RES
1 *474:X *5:10 25.0332 
2 *5:10 *5:12 4.5 
3 *5:12 *975:A 9.24915 
4 *5:12 *533:B1 16.676 
5 *5:10 *482:A1 18.9354 
*END

*D_NET *6 0.00237633
*CONN
*I *492:A1 I *D sky130_fd_sc_hd__a21oi_1
*I *479:A2 I *D sky130_fd_sc_hd__a211oi_4
*I *475:Y O *D sky130_fd_sc_hd__nand2b_4
*CAP
1 *492:A1 7.7537e-05
2 *479:A2 0.000118386
3 *475:Y 0.000438065
4 *6:10 0.000633988
5 *479:A2 resp_msg[15] 3.00174e-06
6 *479:A2 *494:C 0.000106105
7 *479:A2 *178:29 0.0002751
8 *479:A2 *374:8 0.000186142
9 *492:A1 *492:B1 0.000109421
10 *6:10 *475:B 0.000111722
11 *6:10 *494:C 2.10465e-05
12 *6:10 *910:A 1.43848e-05
13 *6:10 *9:10 9.24241e-05
14 *6:10 *178:29 0.000176355
15 *6:10 *404:16 1.26555e-05
*RES
1 *475:Y *6:10 21.8478 
2 *6:10 *479:A2 19.3184 
3 *6:10 *492:A1 15.0271 
*END

*D_NET *7 0.00714393
*CONN
*I *881:A I *D sky130_fd_sc_hd__buf_6
*I *479:A1 I *D sky130_fd_sc_hd__a211oi_4
*I *476:Y O *D sky130_fd_sc_hd__nor2b_4
*CAP
1 *881:A 0.000332939
2 *479:A1 0.000716327
3 *476:Y 0.000703624
4 *7:10 0.00175289
5 *479:A1 resp_msg[15] 0.000168075
6 *479:A1 *474:A_N 0.000546968
7 *479:A1 *474:B 2.08274e-05
8 *479:A1 *497:A 0.000313103
9 *479:A1 *178:18 9.81626e-05
10 *479:A1 *417:31 3.0884e-05
11 *881:A *475:B 2.16355e-05
12 *881:A *192:34 0.000191556
13 *881:A *245:14 0.000263959
14 *881:A *428:54 4.4462e-06
15 *881:A *428:62 0.000181914
16 *7:10 *476:B_N 0.000324137
17 *7:10 *497:A 0.000157391
18 *7:10 *673:C 0.000267259
19 *7:10 *905:A 6.3657e-05
20 *7:10 *245:14 3.22732e-05
21 *7:10 *353:50 0.000523679
22 *7:10 *357:39 0.000107496
23 *7:10 *399:6 0.000271674
24 *7:10 *399:10 1.92172e-05
25 *7:10 *428:62 2.98316e-05
*RES
1 *476:Y *7:10 35.7157 
2 *7:10 *479:A1 30.0497 
3 *7:10 *881:A 25.8553 
*END

*D_NET *8 0.00402512
*CONN
*I *479:B1 I *D sky130_fd_sc_hd__a211oi_4
*I *880:A I *D sky130_fd_sc_hd__buf_4
*I *477:Y O *D sky130_fd_sc_hd__nor2b_4
*CAP
1 *479:B1 0
2 *880:A 0.000485957
3 *477:Y 0.000363869
4 *8:8 0.000849826
5 *880:A *477:B_N 0.000173791
6 *880:A *479:C1 3.55179e-05
7 *880:A *656:B 2.69795e-05
8 *880:A *699:CLK 0
9 *880:A *700:D 0
10 *880:A *795:A 0.00018584
11 *880:A *830:A 0.000201911
12 *880:A *155:12 5.65671e-05
13 *880:A *164:12 5.85117e-05
14 *880:A *277:24 0
15 *880:A *357:92 0.000557425
16 *8:8 *477:B_N 0.000652568
17 *8:8 *479:C1 0.000376357
18 *8:8 *533:C1 0
*RES
1 *477:Y *8:8 26.3777 
2 *8:8 *880:A 30.3191 
3 *8:8 *479:B1 4.5 
*END

*D_NET *9 0.00301988
*CONN
*I *479:C1 I *D sky130_fd_sc_hd__a211oi_4
*I *492:B1 I *D sky130_fd_sc_hd__a21oi_1
*I *478:Y O *D sky130_fd_sc_hd__nor2b_2
*CAP
1 *479:C1 0.000496931
2 *492:B1 0.000143756
3 *478:Y 0.000142177
4 *9:10 0.000782865
5 *479:C1 *489:A 0
6 *479:C1 *493:B1 4.66492e-05
7 *479:C1 *494:A 6.40814e-05
8 *479:C1 *20:6 0.000160617
9 *479:C1 *466:23 0
10 *492:B1 *492:A2 0.000160047
11 *492:B1 *20:6 6.3623e-05
12 *9:10 *477:A 5.54078e-05
13 *9:10 *164:12 4.2996e-05
14 *9:10 *178:29 3.31736e-05
15 *9:10 *404:16 5.96936e-05
16 *492:A1 *492:B1 0.000109421
17 *533:B1 *479:C1 0.000154145
18 *880:A *479:C1 3.55179e-05
19 *6:10 *9:10 9.24241e-05
20 *8:8 *479:C1 0.000376357
*RES
1 *478:Y *9:10 23.4032 
2 *9:10 *492:B1 13.7583 
3 *9:10 *479:C1 31.6095 
*END

*D_NET *10 0.00313898
*CONN
*I *968:A I *D sky130_fd_sc_hd__buf_4
*I *482:A3 I *D sky130_fd_sc_hd__o31ai_4
*I *533:B2 I *D sky130_fd_sc_hd__o221ai_1
*I *479:Y O *D sky130_fd_sc_hd__a211oi_4
*CAP
1 *968:A 0.000298098
2 *482:A3 0
3 *533:B2 0
4 *479:Y 0.000256616
5 *10:19 0.000381313
6 *10:10 0.000339831
7 *968:A *489:B 0.000520532
8 *968:A *534:A 0.000165563
9 *968:A *672:A 7.66108e-05
10 *968:A *48:10 3.587e-06
11 *968:A *48:14 5.03545e-06
12 *968:A *386:39 4.52431e-05
13 *10:10 *489:A 4.83617e-06
14 *10:10 *489:B 0.000317829
15 *10:10 *672:A 6.41417e-05
16 *10:10 *891:A 4.00002e-05
17 *10:10 *178:16 0.000257494
18 *10:10 *277:24 3.21615e-05
19 *10:10 *466:23 4.4196e-06
20 *10:19 *489:B 0.000229255
21 *10:19 *534:A 8.62625e-06
22 *10:19 *672:A 8.77922e-05
*RES
1 *479:Y *10:10 22.6755 
2 *10:10 *533:B2 13.7491 
3 *10:10 *10:19 3.90826 
4 *10:19 *482:A3 13.7491 
5 *10:19 *968:A 25.4817 
*END

*D_NET *11 0.00120451
*CONN
*I *534:A I *D sky130_fd_sc_hd__nand2_1
*I *482:A2 I *D sky130_fd_sc_hd__o31ai_4
*I *480:X O *D sky130_fd_sc_hd__and2b_1
*CAP
1 *534:A 8.25159e-05
2 *482:A2 0.000146351
3 *480:X 6.3835e-05
4 *482:A2 *480:A_N 8.95863e-05
5 *482:A2 *480:B 0.000263116
6 *534:A *480:A_N 0.000107496
7 *534:A *480:B 4.23858e-05
8 *534:A *672:A 0.00017419
9 *482:A1 *482:A2 6.08467e-05
10 *968:A *534:A 0.000165563
11 *10:19 *534:A 8.62625e-06
*RES
1 *480:X *482:A2 22.0188 
2 *482:A2 *534:A 31.854 
*END

*D_NET *12 0.000991124
*CONN
*I *482:B1 I *D sky130_fd_sc_hd__o31ai_4
*I *481:Y O *D sky130_fd_sc_hd__nand2b_1
*CAP
1 *482:B1 0.000214087
2 *481:Y 0.000214087
3 *482:B1 *538:B1 0.000204043
4 *482:B1 *13:8 7.6768e-05
5 *482:B1 *13:19 0.000170419
6 *482:B1 *48:10 0.000111722
*RES
1 *481:Y *482:B1 34.5146 
*END

*D_NET *13 0.00297004
*CONN
*I *540:A1 I *D sky130_fd_sc_hd__a211oi_2
*I *951:A I *D sky130_fd_sc_hd__buf_4
*I *538:A1 I *D sky130_fd_sc_hd__a21oi_4
*I *482:Y O *D sky130_fd_sc_hd__o31ai_4
*CAP
1 *540:A1 0.000122712
2 *951:A 1.98947e-05
3 *538:A1 0
4 *482:Y 9.8046e-05
5 *13:19 0.000458629
6 *13:8 0.000414069
7 *540:A1 *540:A2 0.000188517
8 *540:A1 *540:B1 5.43353e-05
9 *540:A1 *639:A 4.89251e-05
10 *540:A1 *639:B 9.085e-06
11 *540:A1 *675:A 5.0715e-05
12 *951:A *639:B 6.08467e-05
13 *951:A *47:16 2.16355e-05
14 *13:8 *480:A_N 7.34948e-06
15 *13:8 *480:B 0.000364342
16 *13:8 *538:B1 0.000169041
17 *13:8 *48:10 7.6719e-06
18 *13:19 *538:A2 0.000415218
19 *13:19 *538:B1 9.5549e-05
20 *13:19 *540:A2 0.000107643
21 *13:19 *540:B1 8.62474e-06
22 *482:B1 *13:8 7.6768e-05
23 *482:B1 *13:19 0.000170419
*RES
1 *482:Y *13:8 14.4335 
2 *13:8 *538:A1 9.24915 
3 *13:8 *13:19 15.4998 
4 *13:19 *951:A 14.4725 
5 *13:19 *540:A1 18.9354 
*END

*D_NET *14 0.00208038
*CONN
*I *879:A I *D sky130_fd_sc_hd__buf_4
*I *536:B I *D sky130_fd_sc_hd__and2_1
*I *483:X O *D sky130_fd_sc_hd__or2b_1
*CAP
1 *879:A 0
2 *536:B 2.86583e-05
3 *483:X 0.000258475
4 *14:14 0.000287133
5 *536:B *536:A 0.00016386
6 *536:B *890:A 6.27718e-05
7 *536:B *198:22 1.15389e-05
8 *536:B *373:10 6.27782e-05
9 *14:14 *483:A 0.000107496
10 *14:14 *485:A2 0.000216458
11 *14:14 *536:A 6.27718e-05
12 *14:14 *937:A 0.000320494
13 *14:14 *980:A 0.000250415
14 *14:14 *47:16 0.000149
15 *14:14 *372:44 1.39717e-06
16 *14:14 *373:10 9.71388e-05
*RES
1 *483:X *14:14 28.3197 
2 *14:14 *536:B 11.0817 
3 *14:14 *879:A 9.24915 
*END

*D_NET *15 0.00281745
*CONN
*I *878:A I *D sky130_fd_sc_hd__buf_4
*I *537:A2 I *D sky130_fd_sc_hd__a21boi_0
*I *484:X O *D sky130_fd_sc_hd__or2b_1
*CAP
1 *878:A 0.000325235
2 *537:A2 0
3 *484:X 0.000638537
4 *15:10 0.000963772
5 *878:A *47:16 0.000181934
6 *878:A *416:10 1.3262e-05
7 *15:10 *484:A 2.87868e-05
8 *15:10 *484:B_N 0
9 *15:10 *520:A1 6.36477e-05
10 *15:10 *653:B 0
11 *15:10 *654:B1 0.000342548
12 *15:10 *196:23 0
13 *15:10 *197:26 0
14 *15:10 *353:96 3.20999e-05
15 *15:10 *416:10 5.14335e-05
16 *15:10 *416:18 0.000145875
17 *15:10 *416:26 3.0317e-05
*RES
1 *484:X *15:10 30.8384 
2 *15:10 *537:A2 13.7491 
3 *15:10 *878:A 21.5691 
*END

*D_NET *16 0.00259023
*CONN
*I *486:B I *D sky130_fd_sc_hd__xnor2_1
*I *485:Y O *D sky130_fd_sc_hd__a21boi_2
*CAP
1 *486:B 0.00088316
2 *485:Y 0.00088316
3 *486:B resp_msg[4] 0
4 *486:B *876:A 5.0124e-05
5 *486:B *198:22 0.000423344
6 *486:B *357:175 0
7 *486:A *486:B 0.000350445
*RES
1 *485:Y *486:B 45.4912 
*END

*D_NET *17 0.00127922
*CONN
*I *488:A I *D sky130_fd_sc_hd__xor2_2
*I *487:Y O *D sky130_fd_sc_hd__nand2_1
*CAP
1 *488:A 0.00030765
2 *487:Y 0.00030765
3 *488:A *485:B1_N 0.000394092
4 *488:A *372:12 1.55025e-05
5 *488:A *416:97 0.000127164
6 *488:A *449:44 0.000127164
*RES
1 *487:Y *488:A 34.3512 
*END

*D_NET *18 0.000591255
*CONN
*I *491:B I *D sky130_fd_sc_hd__xnor2_2
*I *489:Y O *D sky130_fd_sc_hd__nor2_4
*CAP
1 *491:B 0.000198482
2 *489:Y 0.000198482
3 *491:B *480:B 0
4 *491:B *490:B 0.000161956
5 *491:B *872:A 3.15977e-05
6 *491:B *418:49 7.3644e-07
*RES
1 *489:Y *491:B 32.4086 
*END

*D_NET *19 0.00131055
*CONN
*I *491:A I *D sky130_fd_sc_hd__xnor2_2
*I *490:Y O *D sky130_fd_sc_hd__xnor2_1
*CAP
1 *491:A 0.000569069
2 *490:Y 0.000569069
3 *491:A *480:B 5.50858e-05
4 *491:A *490:A 1.4091e-06
5 *491:A *490:B 3.93995e-05
6 *491:A *278:16 5.05228e-05
7 *491:A *418:49 2.59982e-05
*RES
1 *490:Y *491:A 36.433 
*END

*D_NET *20 0.00162146
*CONN
*I *493:B1 I *D sky130_fd_sc_hd__o21ai_0
*I *494:B I *D sky130_fd_sc_hd__or3_1
*I *492:Y O *D sky130_fd_sc_hd__a21oi_1
*CAP
1 *493:B1 0.000141805
2 *494:B 0
3 *492:Y 0.000295752
4 *20:6 0.000437557
5 *493:B1 *495:A 7.60183e-05
6 *493:B1 *977:A 3.34118e-05
7 *493:B1 *155:12 6.34746e-05
8 *493:B1 *164:12 0.000263989
9 *20:6 *492:A2 3.85659e-05
10 *479:C1 *493:B1 4.66492e-05
11 *479:C1 *20:6 0.000160617
12 *492:B1 *20:6 6.3623e-05
*RES
1 *492:Y *20:6 13.8548 
2 *20:6 *494:B 9.24915 
3 *20:6 *493:B1 23.7113 
*END

*D_NET *21 0.000966624
*CONN
*I *495:B I *D sky130_fd_sc_hd__nand2_1
*I *493:Y O *D sky130_fd_sc_hd__o21ai_0
*CAP
1 *495:B 0.000123966
2 *493:Y 0.000123966
3 *495:B *493:A1 0.000194519
4 *495:B *495:A 0.000416677
5 *495:B *977:A 0.000107496
*RES
1 *493:Y *495:B 24.2372 
*END

*D_NET *22 0.00142616
*CONN
*I *495:A I *D sky130_fd_sc_hd__nand2_1
*I *494:X O *D sky130_fd_sc_hd__or3_1
*CAP
1 *495:A 0.00039866
2 *494:X 0.00039866
3 *495:A *493:A1 2.74378e-05
4 *495:A *891:A 3.60363e-05
5 *495:A *155:12 7.26748e-05
6 *493:B1 *495:A 7.60183e-05
7 *495:B *495:A 0.000416677
*RES
1 *494:X *495:A 35.6185 
*END

*D_NET *23 0.000971748
*CONN
*I *497:B I *D sky130_fd_sc_hd__xnor2_1
*I *496:Y O *D sky130_fd_sc_hd__xnor2_2
*CAP
1 *497:B 0.000212379
2 *496:Y 0.000212379
3 *497:B *496:B 6.08467e-05
4 *497:B *714:D 8.44848e-05
5 *497:B *245:14 0.000367588
6 *497:B *419:69 3.407e-05
*RES
1 *496:Y *497:B 35.0367 
*END

*D_NET *24 0.00210348
*CONN
*I *877:A I *D sky130_fd_sc_hd__buf_4
*I *564:A I *D sky130_fd_sc_hd__maj3_1
*I *499:Y O *D sky130_fd_sc_hd__inv_1
*CAP
1 *877:A 2.21696e-05
2 *564:A 0.00020039
3 *499:Y 9.63366e-05
4 *24:6 0.000318896
5 *564:A *564:B 6.27718e-05
6 *564:A *590:A1 0.000184842
7 *564:A *590:A2 1.57187e-05
8 *564:A *590:B1 1.39714e-05
9 *564:A *590:C1 9.87648e-05
10 *564:A *74:8 0.000590246
11 *24:6 *499:A 5.83114e-05
12 *24:6 *590:B1 3.81549e-05
13 *24:6 *590:C1 1.88014e-05
14 *24:6 *74:8 0.000384104
*RES
1 *499:Y *24:6 13.5775 
2 *24:6 *564:A 18.8462 
3 *24:6 *877:A 9.82786 
*END

*D_NET *27 0.00088543
*CONN
*I *503:B1 I *D sky130_fd_sc_hd__o21ai_1
*I *502:Y O *D sky130_fd_sc_hd__nand2_2
*CAP
1 *503:B1 0.000264534
2 *502:Y 0.000264534
3 *503:B1 *586:B 0
4 *503:B1 *595:A 0.000252308
5 *503:B1 *348:12 9.13603e-05
6 *503:B1 *448:27 1.2693e-05
*RES
1 *502:Y *503:B1 32.6874 
*END

*D_NET *29 0.00566603
*CONN
*I *570:B I *D sky130_fd_sc_hd__maj3_2
*I *509:A1 I *D sky130_fd_sc_hd__o21ai_2
*I *507:Y O *D sky130_fd_sc_hd__inv_1
*CAP
1 *570:B 2.28265e-05
2 *509:A1 0.000473025
3 *507:Y 0.000957049
4 *29:10 0.0014529
5 *509:A1 *677:B1 4.29794e-05
6 *509:A1 *936:A 0.000168546
7 *509:A1 *77:10 0.000324699
8 *509:A1 *169:23 5.53934e-05
9 *509:A1 *436:14 1.28326e-05
10 *509:A1 *447:8 3.27437e-05
11 *509:A1 *457:28 0.000320883
12 *570:B *570:A 0.000109421
13 *570:B *570:C 0.000109421
14 *29:10 *927:A 0.00084373
15 *29:10 *932:A 7.99862e-05
16 *29:10 *77:10 3.53929e-05
17 *29:10 *77:23 0.000380097
18 *29:10 *79:10 7.10767e-05
19 *29:10 *89:10 4.31703e-05
20 *29:10 *407:14 0.000118485
21 *29:10 *457:28 1.13712e-05
*RES
1 *507:Y *29:10 34.0392 
2 *29:10 *509:A1 30.3485 
3 *29:10 *570:B 15.0271 
*END

*D_NET *30 0.00697611
*CONN
*I *509:B1 I *D sky130_fd_sc_hd__o21ai_2
*I *508:Y O *D sky130_fd_sc_hd__nand2_4
*CAP
1 *509:B1 0.00169065
2 *508:Y 0.00169065
3 *509:B1 *508:A 0
4 *509:B1 *558:C 9.84452e-05
5 *509:B1 *572:A 8.20833e-07
6 *509:B1 *607:B1 0
7 *509:B1 *693:DE 0.00160609
8 *509:B1 *697:DE 0.00187669
9 *509:B1 *85:10 7.86825e-06
10 *509:B1 *188:38 0
11 *509:B1 *220:14 4.89469e-06
12 *509:B1 *420:25 0
13 *509:B1 *458:40 0
*RES
1 *508:Y *509:B1 45.1945 
*END

*D_NET *31 0.00445804
*CONN
*I *616:A I *D sky130_fd_sc_hd__xnor2_2
*I *547:A I *D sky130_fd_sc_hd__maj3_1
*I *512:A1 I *D sky130_fd_sc_hd__o21ai_2
*I *510:Y O *D sky130_fd_sc_hd__inv_1
*CAP
1 *616:A 0
2 *547:A 0.000613084
3 *512:A1 0.000425617
4 *510:Y 0.000184916
5 *31:22 0.000853785
6 *512:A1 *510:A 5.82259e-05
7 *512:A1 *512:B1 7.92329e-05
8 *512:A1 *117:22 2.41274e-06
9 *512:A1 *341:20 0.000144652
10 *547:A *572:B 0.000348785
11 *547:A *607:A2 0.000196623
12 *547:A *694:DE 2.33103e-06
13 *547:A *81:16 2.02035e-05
14 *547:A *271:18 0.000705925
15 *547:A *394:58 6.27782e-05
16 *547:A *394:62 0.000250678
17 *547:A *406:20 8.92568e-06
18 *547:A *420:72 8.19079e-05
19 *547:A *426:8 0
20 *547:A *426:101 0
21 *31:22 *117:22 0.000108085
22 *31:22 *341:20 0.000247097
23 *31:22 *394:58 6.27718e-05
*RES
1 *510:Y *512:A1 23.984 
2 *512:A1 *31:22 17.1824 
3 *31:22 *547:A 41.9824 
4 *31:22 *616:A 9.24915 
*END

*D_NET *32 0.00237081
*CONN
*I *512:B1 I *D sky130_fd_sc_hd__o21ai_2
*I *511:Y O *D sky130_fd_sc_hd__nand2_4
*CAP
1 *512:B1 0.000577388
2 *511:Y 0.000577388
3 *512:B1 *510:A 0.000218282
4 *512:B1 *511:A 0.000660657
5 *512:B1 *619:A 5.23435e-05
6 *512:B1 *620:B1 8.36586e-06
7 *512:B1 *341:20 0.000120505
8 *512:B1 *426:46 2.09501e-05
9 *512:B1 *426:61 5.57012e-05
10 *512:A1 *512:B1 7.92329e-05
*RES
1 *511:Y *512:B1 43.0025 
*END

*D_NET *33 0.00596869
*CONN
*I *516:A1 I *D sky130_fd_sc_hd__o21ai_1
*I *615:A1 I *D sky130_fd_sc_hd__o311a_1
*I *613:A I *D sky130_fd_sc_hd__or3_1
*I *543:A I *D sky130_fd_sc_hd__maj3_1
*I *514:Y O *D sky130_fd_sc_hd__inv_1
*CAP
1 *516:A1 4.69552e-05
2 *615:A1 0
3 *613:A 5.5613e-05
4 *543:A 0.000548929
5 *514:Y 0
6 *33:20 0.000838891
7 *33:14 0.00063345
8 *33:4 0.000446056
9 *516:A1 *514:A 3.92244e-05
10 *543:A *543:C 0.000282671
11 *543:A *548:A1 0.00085654
12 *543:A *611:A 6.3657e-05
13 *543:A *612:A 1.65872e-05
14 *543:A *612:B 6.08467e-05
15 *543:A *612:C 3.20678e-05
16 *543:A *674:A 0.000359191
17 *543:A *51:22 0.000277554
18 *543:A *52:6 7.56374e-05
19 *543:A *183:33 3.67351e-05
20 *613:A *612:A 1.41976e-05
21 *613:A *612:B 3.33861e-05
22 *613:A *612:C 4.19058e-05
23 *613:A *614:B1 6.50727e-05
24 *613:A *614:B2 0
25 *613:A *183:33 7.92757e-06
26 *613:A *427:24 0
27 *33:14 *514:A 5.17217e-05
28 *33:14 *615:B1 0.000192188
29 *33:14 *873:A 6.50727e-05
30 *33:14 *933:A 0.000365133
31 *33:14 *200:22 0.000111824
32 *33:14 *427:8 4.97617e-05
33 *33:20 *614:A1 1.21028e-05
34 *33:20 *614:A2 0.00013286
35 *33:20 *615:A3 4.57241e-06
36 *33:20 *37:10 0
37 *33:20 *112:12 9.24241e-05
38 *33:20 *378:12 4.85348e-05
39 *33:20 *378:46 9.39578e-06
*RES
1 *514:Y *33:4 9.24915 
2 *33:4 *33:14 14.1665 
3 *33:14 *33:20 14.8502 
4 *33:20 *543:A 31.795 
5 *33:20 *613:A 11.6605 
6 *33:14 *615:A1 9.24915 
7 *33:4 *516:A1 10.8286 
*END

*D_NET *34 0.000424505
*CONN
*I *516:B1 I *D sky130_fd_sc_hd__o21ai_1
*I *515:Y O *D sky130_fd_sc_hd__nand2_1
*CAP
1 *516:B1 0.000123881
2 *515:Y 0.000123881
3 *516:B1 *517:S 3.06627e-05
4 *516:B1 *531:A 6.36477e-05
5 *516:B1 *704:DE 0
6 *516:B1 *406:70 8.24328e-05
*RES
1 *515:Y *516:B1 30.4689 
*END

*D_NET *35 0.00202502
*CONN
*I *875:A I *D sky130_fd_sc_hd__buf_4
*I *531:A I *D sky130_fd_sc_hd__or4_4
*I *525:X O *D sky130_fd_sc_hd__xor2_1
*CAP
1 *875:A 0.000106455
2 *531:A 0.000250819
3 *525:X 0.000126159
4 *35:6 0.000483433
5 *531:A *515:B 7.92757e-06
6 *531:A *41:20 6.08467e-05
7 *531:A *406:59 0.00057852
8 *531:A *406:70 1.88014e-05
9 *875:A *514:A 5.71992e-05
10 *875:A *184:12 0.000161318
11 *875:A *406:70 5.14448e-05
12 *35:6 *515:B 5.84504e-05
13 *516:B1 *531:A 6.36477e-05
*RES
1 *525:X *35:6 12.191 
2 *35:6 *531:A 17.2065 
3 *35:6 *875:A 22.1574 
*END

*D_NET *36 0.00202044
*CONN
*I *531:B I *D sky130_fd_sc_hd__or4_4
*I *874:A I *D sky130_fd_sc_hd__buf_4
*I *526:X O *D sky130_fd_sc_hd__xor2_1
*CAP
1 *531:B 0.000267738
2 *874:A 0.000181082
3 *526:X 8.10069e-05
4 *36:8 0.000529826
5 *531:B *615:A3 4.69495e-06
6 *531:B *615:B1 1.28513e-05
7 *531:B *635:B 0.000138335
8 *531:B *704:CLK 4.05936e-05
9 *531:B *41:20 0.000321291
10 *531:B *122:12 0
11 *531:B *427:24 4.44921e-05
12 *874:A *635:B 0.000245973
13 *874:A *704:CLK 0.00010676
14 *36:8 *183:25 4.58003e-05
*RES
1 *526:X *36:8 15.0271 
2 *36:8 *874:A 19.9053 
3 *36:8 *531:B 21.8099 
*END

*D_NET *37 0.00364401
*CONN
*I *529:A_N I *D sky130_fd_sc_hd__nand2b_1
*I *933:A I *D sky130_fd_sc_hd__buf_4
*I *527:Y O *D sky130_fd_sc_hd__nor2b_1
*CAP
1 *529:A_N 0.000203757
2 *933:A 0.000110528
3 *527:Y 0.000462125
4 *37:10 0.00077641
5 *529:A_N *531:D 0.000161956
6 *529:A_N *615:A3 4.31485e-06
7 *529:A_N *615:B1 6.97183e-05
8 *529:A_N *615:C1 2.77564e-05
9 *529:A_N *622:A 0
10 *529:A_N *626:A0 3.00174e-06
11 *529:A_N *873:A 0
12 *529:A_N *406:59 0.000161956
13 *933:A *873:A 6.92705e-05
14 *933:A *200:22 0.000379792
15 *933:A *427:8 0.000113968
16 *37:10 *614:A1 0.000341808
17 *37:10 *614:B1 0.000130534
18 *37:10 *614:B2 1.41689e-05
19 *37:10 *615:C1 8.3506e-05
20 *37:10 *635:A 4.20149e-05
21 *37:10 *888:A 3.57646e-05
22 *37:10 *950:A 6.27782e-05
23 *37:10 *122:12 0
24 *37:10 *427:24 2.37478e-05
25 *33:14 *933:A 0.000365133
26 *33:20 *37:10 0
*RES
1 *527:Y *37:10 26.6914 
2 *37:10 *933:A 20.7661 
3 *37:10 *529:A_N 19.9053 
*END

*D_NET *38 0.00101523
*CONN
*I *529:B I *D sky130_fd_sc_hd__nand2b_1
*I *873:A I *D sky130_fd_sc_hd__buf_4
*I *528:Y O *D sky130_fd_sc_hd__nand2b_1
*CAP
1 *529:B 3.5672e-06
2 *873:A 0.000172156
3 *528:Y 0.000187018
4 *38:10 0.000362741
5 *529:B *531:D 1.47046e-05
6 *529:B *406:59 1.47046e-05
7 *873:A *615:C1 2.14842e-06
8 *873:A *122:12 7.70975e-05
9 *38:10 *121:6 7.29927e-06
10 *38:10 *122:12 3.94515e-05
11 *529:A_N *873:A 0
12 *933:A *873:A 6.92705e-05
13 *33:14 *873:A 6.50727e-05
*RES
1 *528:Y *38:10 17.2744 
2 *38:10 *873:A 18.3808 
3 *38:10 *529:B 13.924 
*END

*D_NET *39 0.00141998
*CONN
*I *858:A I *D sky130_fd_sc_hd__buf_4
*I *531:C I *D sky130_fd_sc_hd__or4_4
*I *529:Y O *D sky130_fd_sc_hd__nand2b_1
*CAP
1 *858:A 0.000362135
2 *531:C 4.09857e-05
3 *529:Y 0
4 *39:4 0.00040312
5 *531:C *531:D 3.00829e-05
6 *531:C *406:59 0.000150839
7 *531:C *458:124 2.2539e-05
8 *858:A *513:A1 0.000123176
9 *858:A *860:A 0.000148779
10 *858:A *122:12 0.00013832
11 *858:A *414:116 0
*RES
1 *529:Y *39:4 9.24915 
2 *39:4 *531:C 11.4374 
3 *39:4 *858:A 28.006 
*END

*D_NET *40 0.00308181
*CONN
*I *864:A I *D sky130_fd_sc_hd__buf_4
*I *531:D I *D sky130_fd_sc_hd__or4_4
*I *530:X O *D sky130_fd_sc_hd__xor2_1
*CAP
1 *864:A 0
2 *531:D 0.000262107
3 *530:X 0.000237626
4 *40:10 0.000499733
5 *531:D *621:A 1.39717e-06
6 *531:D *622:A 0.000134976
7 *531:D *626:A0 0.00034589
8 *531:D *116:8 5.47114e-05
9 *531:D *377:12 6.27718e-05
10 *531:D *406:59 9.34883e-05
11 *531:D *458:124 0.000546953
12 *40:10 *530:B 6.64392e-05
13 *40:10 *621:A 0.000177934
14 *40:10 *626:A0 0.000174126
15 *40:10 *185:31 3.25307e-05
16 *40:10 *187:14 0.000165521
17 *40:10 *462:63 1.88653e-05
18 *529:A_N *531:D 0.000161956
19 *529:B *531:D 1.47046e-05
20 *531:C *531:D 3.00829e-05
*RES
1 *530:X *40:10 21.7084 
2 *40:10 *531:D 26.4183 
3 *40:10 *864:A 13.7491 
*END

*D_NET *41 0.00655608
*CONN
*I *548:A1 I *D sky130_fd_sc_hd__o31a_1
*I *531:X O *D sky130_fd_sc_hd__or4_4
*CAP
1 *548:A1 0.000404676
2 *531:X 0.0011983
3 *41:20 0.00160298
4 *548:A1 *674:A 0.000207266
5 *548:A1 *49:22 2.06999e-05
6 *548:A1 *51:22 5.02592e-05
7 *548:A1 *53:10 0.000118796
8 *548:A1 *271:18 0.000122378
9 *41:20 *611:B_N 0
10 *41:20 *612:A 1.44572e-05
11 *41:20 *614:B1 6.79169e-05
12 *41:20 *674:C 7.26112e-05
13 *41:20 *674:D 6.62945e-05
14 *41:20 *704:CLK 4.51176e-05
15 *41:20 *721:DE 0.0008212
16 *41:20 *199:10 0
17 *41:20 *414:96 0.000178635
18 *41:20 *414:116 9.9277e-05
19 *41:20 *427:24 9.91257e-05
20 *41:20 *462:12 0.000127413
21 *531:A *41:20 6.08467e-05
22 *531:B *41:20 0.000321291
23 *543:A *548:A1 0.00085654
*RES
1 *531:X *41:20 37.3136 
2 *41:20 *548:A1 23.1625 
*END

*D_NET *42 0.00145924
*CONN
*I *533:A2 I *D sky130_fd_sc_hd__o221ai_1
*I *872:A I *D sky130_fd_sc_hd__buf_4
*I *532:Y O *D sky130_fd_sc_hd__inv_1
*CAP
1 *533:A2 8.93607e-05
2 *872:A 0.000215854
3 *532:Y 9.35599e-05
4 *42:8 0.000398775
5 *533:A2 *489:B 0.000137834
6 *533:A2 *195:35 0
7 *872:A *489:B 0.000216146
8 *872:A *178:16 0.000208627
9 *872:A *418:49 0
10 *42:8 *490:B 3.28405e-05
11 *42:8 *385:28 3.46498e-05
12 *491:B *872:A 3.15977e-05
*RES
1 *532:Y *42:8 15.3044 
2 *42:8 *872:A 21.0333 
3 *42:8 *533:A2 16.4116 
*END

*D_NET *43 0.00128313
*CONN
*I *535:B I *D sky130_fd_sc_hd__nand4b_1
*I *533:Y O *D sky130_fd_sc_hd__o221ai_1
*CAP
1 *535:B 0.000405827
2 *533:Y 0.000405827
3 *535:B *481:A_N 0
4 *535:B *481:B 0.000116986
5 *535:B *533:A1 2.41483e-05
6 *535:B *195:35 0.000165495
7 *535:B *397:24 0.000164843
*RES
1 *533:Y *535:B 36.1487 
*END

*D_NET *44 0.000499041
*CONN
*I *535:D I *D sky130_fd_sc_hd__nand4b_1
*I *534:Y O *D sky130_fd_sc_hd__nand2_1
*CAP
1 *535:D 0.000157052
2 *534:Y 0.000157052
3 *535:D *481:B 0
4 *535:D *937:A 3.73148e-05
5 *535:D *372:44 0.000147622
*RES
1 *534:Y *535:D 23.128 
*END

*D_NET *45 0.00366314
*CONN
*I *541:A2 I *D sky130_fd_sc_hd__a21oi_1
*I *539:A1 I *D sky130_fd_sc_hd__a21boi_1
*I *948:A I *D sky130_fd_sc_hd__buf_4
*I *535:Y O *D sky130_fd_sc_hd__nand4b_1
*CAP
1 *541:A2 0
2 *539:A1 0.000130341
3 *948:A 0.000172433
4 *535:Y 0.000421825
5 *45:27 0.000213233
6 *45:10 0.000677151
7 *539:A1 *539:B1_N 5.23032e-05
8 *539:A1 *541:A1 6.50586e-05
9 *539:A1 *608:A 3.61993e-05
10 *539:A1 *51:22 1.65872e-05
11 *539:A1 *182:28 5.4337e-05
12 *948:A *540:C1 0.000167076
13 *948:A *675:A 0.000742534
14 *948:A *930:A 0.000217151
15 *948:A *424:10 4.47179e-05
16 *45:10 *481:B 0.000144895
17 *45:10 *535:C 0.000180726
18 *45:10 *540:B1 0
19 *45:10 *937:A 1.41291e-05
20 *45:10 *48:10 0
21 *45:10 *50:8 2.95757e-05
22 *45:10 *198:26 9.33406e-06
23 *45:10 *198:37 0.000108688
24 *45:10 *198:54 6.08697e-06
25 *45:27 *610:A2 9.34396e-06
26 *45:27 *969:A 2.09495e-05
27 *45:27 *50:8 0.000113374
28 *45:27 *198:54 1.50906e-05
*RES
1 *535:Y *45:10 25.5794 
2 *45:10 *948:A 22.9845 
3 *45:10 *45:27 7.1625 
4 *45:27 *539:A1 13.4931 
5 *45:27 *541:A2 9.24915 
*END

*D_NET *46 0.00209824
*CONN
*I *540:A2 I *D sky130_fd_sc_hd__a211oi_2
*I *538:A2 I *D sky130_fd_sc_hd__a21oi_4
*I *536:X O *D sky130_fd_sc_hd__and2_1
*CAP
1 *540:A2 0.000147784
2 *538:A2 0.000235511
3 *536:X 0.000105163
4 *46:8 0.000488459
5 *538:A2 *890:A 7.97898e-05
6 *538:A2 *196:23 0
7 *540:A2 *639:B 0.0001682
8 *46:8 *536:A 0.000161956
9 *540:A1 *540:A2 0.000188517
10 *13:19 *538:A2 0.000415218
11 *13:19 *540:A2 0.000107643
*RES
1 *536:X *46:8 15.5817 
2 *46:8 *538:A2 21.3947 
3 *46:8 *540:A2 19.3184 
*END

*D_NET *47 0.00366191
*CONN
*I *857:A I *D sky130_fd_sc_hd__buf_4
*I *537:Y O *D sky130_fd_sc_hd__a21boi_0
*CAP
1 *857:A 0
2 *537:Y 0.00107089
3 *47:16 0.00107089
4 *47:16 *483:B_N 5.29763e-05
5 *47:16 *639:B 5.98035e-05
6 *47:16 *942:A 9.89624e-05
7 *47:16 *979:A 0.000404472
8 *47:16 *351:8 6.27782e-05
9 *47:16 *397:24 0.00021217
10 *47:16 *416:6 0.000214102
11 *47:16 *433:8 6.23012e-05
12 *878:A *47:16 0.000181934
13 *951:A *47:16 2.16355e-05
14 *14:14 *47:16 0.000149
*RES
1 *537:Y *47:16 43.4353 
2 *47:16 *857:A 9.24915 
*END

*D_NET *48 0.00379099
*CONN
*I *974:A I *D sky130_fd_sc_hd__buf_4
*I *973:A I *D sky130_fd_sc_hd__buf_4
*I *539:A2 I *D sky130_fd_sc_hd__a21boi_1
*I *538:Y O *D sky130_fd_sc_hd__a21oi_4
*CAP
1 *974:A 0
2 *973:A 0.00029014
3 *539:A2 0
4 *538:Y 0.000430239
5 *48:14 0.000515391
6 *48:10 0.00065549
7 *973:A *610:A3 0.000135541
8 *973:A *940:A 0.000553662
9 *973:A *49:22 3.70164e-05
10 *973:A *166:47 4.10737e-05
11 *973:A *198:54 3.31733e-05
12 *973:A *424:10 2.47663e-05
13 *48:10 *480:A_N 0.000115934
14 *48:10 *481:B 1.32509e-05
15 *48:10 *489:B 0.000201151
16 *48:10 *198:26 5.23435e-05
17 *48:10 *198:37 0.000159968
18 *48:10 *397:24 0.000122083
19 *48:14 *198:37 9.54936e-05
20 *48:14 *198:54 0.000102949
21 *48:14 *424:10 8.33074e-05
22 *482:B1 *48:10 0.000111722
23 *968:A *48:10 3.587e-06
24 *968:A *48:14 5.03545e-06
25 *13:8 *48:10 7.6719e-06
26 *45:10 *48:10 0
*RES
1 *538:Y *48:10 25.5822 
2 *48:10 *48:14 7.54782 
3 *48:14 *539:A2 13.7491 
4 *48:14 *973:A 25.0248 
5 *48:10 *974:A 13.7491 
*END

*D_NET *49 0.0031662
*CONN
*I *548:A2 I *D sky130_fd_sc_hd__o31a_1
*I *539:Y O *D sky130_fd_sc_hd__a21boi_1
*CAP
1 *548:A2 0
2 *539:Y 0.000825743
3 *49:22 0.000825743
4 *49:22 *610:A3 0.000304985
5 *49:22 *675:D 7.26606e-05
6 *49:22 *51:22 0.000359384
7 *49:22 *166:47 3.99861e-05
8 *49:22 *386:39 0.000669263
9 *49:22 *424:10 1.07248e-05
10 *548:A1 *49:22 2.06999e-05
11 *973:A *49:22 3.70164e-05
*RES
1 *539:Y *49:22 48.4482 
2 *49:22 *548:A2 9.24915 
*END

*D_NET *50 0.00152194
*CONN
*I *969:A I *D sky130_fd_sc_hd__buf_4
*I *541:A1 I *D sky130_fd_sc_hd__a21oi_1
*I *540:Y O *D sky130_fd_sc_hd__a211oi_2
*CAP
1 *969:A 0.000216014
2 *541:A1 2.87273e-05
3 *540:Y 9.92538e-05
4 *50:8 0.000343995
5 *541:A1 *608:A 3.99086e-06
6 *541:A1 *182:28 0.000111708
7 *969:A *608:B 0.00031329
8 *969:A *610:A2 0
9 *969:A *610:B1 4.3116e-06
10 *969:A *461:12 5.99691e-05
11 *969:A *462:12 0.000111722
12 *50:8 *540:B1 0
13 *539:A1 *541:A1 6.50586e-05
14 *45:10 *50:8 2.95757e-05
15 *45:27 *969:A 2.09495e-05
16 *45:27 *50:8 0.000113374
*RES
1 *540:Y *50:8 16.4116 
2 *50:8 *541:A1 15.0271 
3 *50:8 *969:A 21.0145 
*END

*D_NET *51 0.00337331
*CONN
*I *548:A3 I *D sky130_fd_sc_hd__o31a_1
*I *541:Y O *D sky130_fd_sc_hd__a21oi_1
*CAP
1 *548:A3 0
2 *541:Y 0.000719166
3 *51:22 0.000719166
4 *51:22 *539:B1_N 0.000309083
5 *51:22 *543:C 0.000175461
6 *51:22 *608:A 0.000207266
7 *51:22 *675:D 0
8 *51:22 *386:39 0.000534627
9 *51:22 *418:17 4.75721e-06
10 *539:A1 *51:22 1.65872e-05
11 *543:A *51:22 0.000277554
12 *548:A1 *51:22 5.02592e-05
13 *49:22 *51:22 0.000359384
*RES
1 *541:Y *51:22 43.2572 
2 *51:22 *548:A3 9.24915 
*END

*D_NET *52 0.00256659
*CONN
*I *871:A I *D sky130_fd_sc_hd__buf_4
*I *543:C I *D sky130_fd_sc_hd__maj3_1
*I *542:Y O *D sky130_fd_sc_hd__nand2b_4
*CAP
1 *871:A 4.94419e-05
2 *543:C 0.000631827
3 *542:Y 0.000106794
4 *52:6 0.000788063
5 *543:C *543:B 0
6 *543:C *674:A 0.000109427
7 *543:C *166:47 5.54585e-05
8 *871:A *886:A 0.000145903
9 *871:A *380:12 0.000145903
10 *543:A *543:C 0.000282671
11 *543:A *52:6 7.56374e-05
12 *51:22 *543:C 0.000175461
*RES
1 *542:Y *52:6 11.6364 
2 *52:6 *543:C 33.4133 
3 *52:6 *871:A 20.9116 
*END

*D_NET *53 0.0030058
*CONN
*I *544:B I *D sky130_fd_sc_hd__nand2_1
*I *545:B I *D sky130_fd_sc_hd__nor2_1
*I *543:X O *D sky130_fd_sc_hd__maj3_1
*CAP
1 *544:B 0.00064985
2 *545:B 3.25263e-05
3 *543:X 0.000607769
4 *53:10 0.00129015
5 *544:B *513:S 4.58897e-06
6 *544:B *722:D 1.91391e-05
7 *544:B *400:14 1.51914e-05
8 *544:B *462:18 0.000109062
9 *545:B *420:44 4.89392e-05
10 *545:B *462:18 1.83992e-05
11 *53:10 *543:B 0
12 *53:10 *675:D 0
13 *53:10 *720:CLK 0
14 *53:10 *721:DE 4.51619e-05
15 *53:10 *55:22 3.17474e-05
16 *53:10 *166:47 0
17 *53:10 *418:93 1.44841e-05
18 *548:A1 *53:10 0.000118796
*RES
1 *543:X *53:10 27.2404 
2 *53:10 *545:B 15.0271 
3 *53:10 *544:B 25.5337 
*END

*D_NET *54 0.00235289
*CONN
*I *546:A2 I *D sky130_fd_sc_hd__a21oi_1
*I *544:Y O *D sky130_fd_sc_hd__nand2_1
*CAP
1 *546:A2 0.000537974
2 *544:Y 0.000537974
3 *546:A2 *513:A0 6.27718e-05
4 *546:A2 *527:A 0.000549493
5 *546:A2 *527:B_N 0.000360752
6 *546:A2 *544:A 6.27718e-05
7 *546:A2 *847:A 2.58616e-05
8 *546:A2 *117:22 2.58616e-05
9 *546:A2 *201:10 0.000114659
10 *546:A2 *341:20 5.32434e-05
11 *546:A2 *462:48 2.15326e-05
*RES
1 *544:Y *546:A2 45.2871 
*END

*D_NET *55 0.00269536
*CONN
*I *546:B1 I *D sky130_fd_sc_hd__a21oi_1
*I *545:Y O *D sky130_fd_sc_hd__nor2_1
*CAP
1 *546:B1 0
2 *545:Y 0.000497589
3 *55:22 0.000497589
4 *55:22 *527:B_N 0.000142105
5 *55:22 *546:A1 0
6 *55:22 *377:12 0.000604838
7 *55:22 *377:18 0.000221482
8 *55:22 *406:59 0.000501313
9 *55:22 *414:31 8.72115e-06
10 *55:22 *456:8 0.000189981
11 *53:10 *55:22 3.17474e-05
*RES
1 *545:Y *55:22 45.6861 
2 *55:22 *546:B1 9.24915 
*END

*D_NET *56 0.00238703
*CONN
*I *547:C I *D sky130_fd_sc_hd__maj3_1
*I *546:Y O *D sky130_fd_sc_hd__a21oi_1
*CAP
1 *547:C 0.000917505
2 *546:Y 0.000917505
3 *547:C *548:B1 0.000111708
4 *547:C *611:B_N 6.50727e-05
5 *547:C *720:D 0.000278309
6 *547:C *199:10 3.75221e-05
7 *547:C *420:72 5.94119e-05
*RES
1 *546:Y *547:C 36.125 
*END

*D_NET *57 0.000888373
*CONN
*I *548:B1 I *D sky130_fd_sc_hd__o31a_1
*I *547:X O *D sky130_fd_sc_hd__maj3_1
*CAP
1 *548:B1 0.000261767
2 *547:X 0.000261767
3 *548:B1 *547:B 2.16355e-05
4 *548:B1 *271:18 7.50872e-05
5 *548:B1 *394:62 0.000147505
6 *548:B1 *406:20 0
7 *548:B1 *420:72 8.9031e-06
8 *547:C *548:B1 0.000111708
*RES
1 *547:X *548:B1 33.1026 
*END

*D_NET *58 0.00414992
*CONN
*I *978:A I *D sky130_fd_sc_hd__buf_4
*I *570:A I *D sky130_fd_sc_hd__maj3_2
*I *548:X O *D sky130_fd_sc_hd__o31a_1
*CAP
1 *978:A 1.23721e-05
2 *570:A 0.00036271
3 *548:X 0.000918292
4 *58:20 0.00129337
5 *570:A *549:A 6.27718e-05
6 *570:A *570:C 0.000197763
7 *570:A *589:C 6.87678e-06
8 *570:A *863:A 3.58894e-05
9 *570:A *59:10 1.50924e-05
10 *570:A *79:10 0.000109421
11 *978:A *863:A 2.57986e-05
12 *978:A *59:10 2.29888e-05
13 *58:20 *565:A1 6.74426e-05
14 *58:20 *604:A 0.000154145
15 *58:20 *604:B 0.000497138
16 *58:20 *675:C 8.61152e-06
17 *58:20 *684:A 1.88152e-05
18 *58:20 *709:D 6.40849e-05
19 *58:20 *386:14 9.53874e-05
20 *58:20 *386:39 4.17962e-05
21 *58:20 *396:10 2.9732e-05
22 *570:B *570:A 0.000109421
*RES
1 *548:X *58:20 44.2797 
2 *58:20 *570:A 19.449 
3 *58:20 *978:A 9.97254 
*END

*D_NET *59 0.00334922
*CONN
*I *558:A I *D sky130_fd_sc_hd__nand4_1
*I *870:A I *D sky130_fd_sc_hd__buf_4
*I *549:Y O *D sky130_fd_sc_hd__xnor2_1
*CAP
1 *558:A 0.000121753
2 *870:A 1.47608e-05
3 *549:Y 0.000752146
4 *59:10 0.000888659
5 *558:A *604:A 0.000109421
6 *558:A *709:D 0.000142306
7 *558:A *271:18 2.22974e-05
8 *558:A *406:20 0.000144464
9 *870:A *604:B 6.08467e-05
10 *870:A *976:A 6.08467e-05
11 *59:10 *683:A 0.000294093
12 *59:10 *686:A1 8.21761e-06
13 *59:10 *709:D 0.000248174
14 *59:10 *863:A 3.40476e-05
15 *59:10 *357:12 7.40376e-06
16 *59:10 *406:20 0.000244756
17 *59:10 *469:18 0.000156946
18 *570:A *59:10 1.50924e-05
19 *978:A *59:10 2.29888e-05
*RES
1 *549:Y *59:10 28.6396 
2 *59:10 *870:A 14.4725 
3 *59:10 *558:A 18.1049 
*END

*D_NET *61 0.00405949
*CONN
*I *558:B I *D sky130_fd_sc_hd__nand4_1
*I *869:A I *D sky130_fd_sc_hd__buf_4
*I *551:Y O *D sky130_fd_sc_hd__xnor2_1
*CAP
1 *558:B 0.000661632
2 *869:A 0.000373979
3 *551:Y 0
4 *61:6 0.00103561
5 *558:B *549:A 6.1729e-05
6 *558:B *604:A 0.000709463
7 *558:B *902:A 2.36734e-05
8 *558:B *74:8 2.47261e-05
9 *869:A *549:A 0.000246343
10 *869:A *575:A 0.00032445
11 *869:A *675:C 0.000162131
12 *869:A *902:A 2.69541e-05
13 *869:A *363:16 0.000259619
14 *869:A *386:14 4.00558e-06
15 *869:A *396:10 0.000145171
16 *869:A *457:28 0
*RES
1 *551:Y *61:6 13.7491 
2 *61:6 *869:A 27.273 
3 *61:6 *558:B 25.3175 
*END

*D_NET *62 0.000948652
*CONN
*I *554:A I *D sky130_fd_sc_hd__nor2b_1
*I *868:A I *D sky130_fd_sc_hd__buf_4
*I *552:Y O *D sky130_fd_sc_hd__nor2b_1
*CAP
1 *554:A 0.000118583
2 *868:A 0.000111965
3 *552:Y 0
4 *62:4 0.000230548
5 *554:A *943:A 7.63448e-05
6 *554:A *64:8 0
7 *868:A *172:20 6.55453e-05
8 *868:A *172:35 3.55432e-05
9 *868:A *273:14 0.000143047
10 *868:A *391:16 0.000167076
*RES
1 *552:Y *62:4 9.24915 
2 *62:4 *868:A 22.7442 
3 *62:4 *554:A 12.2151 
*END

*D_NET *63 0.00100838
*CONN
*I *554:B_N I *D sky130_fd_sc_hd__nor2b_1
*I *867:A I *D sky130_fd_sc_hd__buf_4
*I *553:Y O *D sky130_fd_sc_hd__nand2b_1
*CAP
1 *554:B_N 0
2 *867:A 6.88044e-05
3 *553:Y 4.87136e-05
4 *63:8 0.000117518
5 *867:A *902:A 5.41377e-05
6 *867:A *172:20 2.58616e-05
7 *867:A *188:38 8.89094e-05
8 *867:A *273:14 0.000146645
9 *867:A *391:16 6.08467e-05
10 *63:8 *188:38 0.000203833
11 *63:8 *273:14 0.000193108
*RES
1 *553:Y *63:8 17.2421 
2 *63:8 *867:A 17.135 
3 *63:8 *554:B_N 13.7491 
*END

*D_NET *64 0.00384464
*CONN
*I *558:C I *D sky130_fd_sc_hd__nand4_1
*I *856:A I *D sky130_fd_sc_hd__buf_4
*I *554:Y O *D sky130_fd_sc_hd__nor2b_1
*CAP
1 *558:C 0.000786414
2 *856:A 0
3 *554:Y 3.99647e-05
4 *64:8 0.000826379
5 *558:C *557:B 0.000118017
6 *558:C *558:D 0.000881031
7 *558:C *571:B1 0.000224803
8 *558:C *572:A 0.000123453
9 *558:C *599:B 0.000111708
10 *558:C *604:A 4.37727e-05
11 *558:C *693:DE 7.28994e-06
12 *558:C *855:A 0.000147281
13 *558:C *902:A 0
14 *558:C *943:A 8.58593e-05
15 *558:C *74:8 0.000309083
16 *558:C *81:16 7.62627e-06
17 *558:C *361:12 0
18 *558:C *386:14 0
19 *558:C *415:23 3.587e-06
20 *64:8 *943:A 2.99287e-05
21 *509:B1 *558:C 9.84452e-05
22 *554:A *64:8 0
*RES
1 *554:Y *64:8 10.5513 
2 *64:8 *856:A 9.24915 
3 *64:8 *558:C 44.9539 
*END

*D_NET *65 0.00124871
*CONN
*I *563:A1 I *D sky130_fd_sc_hd__o21bai_1
*I *866:A I *D sky130_fd_sc_hd__buf_4
*I *555:Y O *D sky130_fd_sc_hd__nor2b_1
*CAP
1 *563:A1 0.000166266
2 *866:A 7.87732e-05
3 *555:Y 0.000119717
4 *65:6 0.000364756
5 *563:A1 *563:A2 5.24175e-05
6 *866:A *586:D 0.000245738
7 *866:A *587:D1 3.99258e-05
8 *866:A *865:A 0.00015321
9 *65:6 *563:B1_N 5.20546e-06
10 *65:6 *66:12 2.27055e-05
*RES
1 *555:Y *65:6 11.6364 
2 *65:6 *866:A 22.5727 
3 *65:6 *563:A1 12.7697 
*END

*D_NET *66 0.00150793
*CONN
*I *563:B1_N I *D sky130_fd_sc_hd__o21bai_1
*I *865:A I *D sky130_fd_sc_hd__buf_4
*I *556:Y O *D sky130_fd_sc_hd__nor2b_1
*CAP
1 *563:B1_N 4.68547e-05
2 *865:A 9.78035e-05
3 *556:Y 0.000298675
4 *66:12 0.000443333
5 *865:A *586:D 7.23354e-05
6 *865:A *587:D1 0.000325354
7 *66:12 *555:A 8.97566e-06
8 *66:12 *174:12 3.34802e-05
9 *866:A *865:A 0.00015321
10 *65:6 *563:B1_N 5.20546e-06
11 *65:6 *66:12 2.27055e-05
*RES
1 *556:Y *66:12 23.1623 
2 *66:12 *865:A 23.8184 
3 *66:12 *563:B1_N 9.97254 
*END

*D_NET *67 0.00277022
*CONN
*I *558:D I *D sky130_fd_sc_hd__nand4_1
*I *855:A I *D sky130_fd_sc_hd__buf_4
*I *557:Y O *D sky130_fd_sc_hd__nor2_1
*CAP
1 *558:D 0.000329862
2 *855:A 8.38767e-05
3 *557:Y 0.000413739
4 *558:D *604:A 0.000210849
5 *558:D *604:B 3.00174e-06
6 *558:D *693:DE 0.00014607
7 *558:D *360:37 6.08467e-05
8 *558:D *386:14 0
9 *558:D *415:10 3.78726e-05
10 *558:D *455:26 0.000455793
11 *855:A *902:A 0
12 *558:C *558:D 0.000881031
13 *558:C *855:A 0.000147281
*RES
1 *557:Y *855:A 30.1608 
2 *557:Y *558:D 43.2374 
*END

*D_NET *68 0.00211816
*CONN
*I *565:A1 I *D sky130_fd_sc_hd__o21ai_4
*I *558:Y O *D sky130_fd_sc_hd__nand4_1
*CAP
1 *565:A1 0.000315393
2 *558:Y 0.000315393
3 *565:A1 *565:A2 8.39059e-05
4 *565:A1 *565:B1 0.000447838
5 *565:A1 *683:B 9.2346e-06
6 *565:A1 *709:D 2.35634e-05
7 *565:A1 *976:A 0.000298405
8 *565:A1 *75:12 0.000262434
9 *565:A1 *220:14 6.36999e-05
10 *565:A1 *339:10 5.56367e-05
11 *565:A1 *363:16 0.00016553
12 *565:A1 *406:20 9.68716e-06
13 *58:20 *565:A1 6.74426e-05
*RES
1 *558:Y *565:A1 41.4104 
*END

*D_NET *69 0.000811998
*CONN
*I *562:A2 I *D sky130_fd_sc_hd__a21oi_1
*I *559:Y O *D sky130_fd_sc_hd__nand2b_1
*CAP
1 *562:A2 0.000284019
2 *559:Y 0.000284019
3 *562:A2 *553:B 1.47046e-05
4 *562:A2 *559:B 1.67404e-05
5 *562:A2 *562:A1 5.0715e-05
6 *562:A2 *563:A2 3.01683e-06
7 *562:A2 *173:26 0.00010539
8 *562:A2 *394:14 1.52711e-05
9 *562:A2 *394:16 3.8122e-05
*RES
1 *559:Y *562:A2 26.3351 
*END

*D_NET *70 0.00084807
*CONN
*I *561:A2 I *D sky130_fd_sc_hd__a21oi_1
*I *560:Y O *D sky130_fd_sc_hd__nor2_1
*CAP
1 *561:A2 0.000234539
2 *560:Y 0.000234539
3 *561:A2 *559:B 3.79023e-05
4 *561:A2 *561:B1 3.32903e-05
5 *561:A2 *173:26 0.000307799
*RES
1 *560:Y *561:A2 25.3464 
*END

*D_NET *71 0.000402468
*CONN
*I *562:B1 I *D sky130_fd_sc_hd__a21oi_1
*I *561:Y O *D sky130_fd_sc_hd__a21oi_1
*CAP
1 *562:B1 0.000173055
2 *561:Y 0.000173055
3 *562:B1 *561:B1 1.41181e-05
4 *562:B1 *586:A 4.22392e-05
5 *562:B1 *172:35 0
*RES
1 *561:Y *562:B1 31.7147 
*END

*D_NET *72 0.000317854
*CONN
*I *563:A2 I *D sky130_fd_sc_hd__o21bai_1
*I *562:Y O *D sky130_fd_sc_hd__a21oi_1
*CAP
1 *563:A2 0.00013121
2 *562:Y 0.00013121
3 *562:A2 *563:A2 3.01683e-06
4 *563:A1 *563:A2 5.24175e-05
*RES
1 *562:Y *563:A2 22.0429 
*END

*D_NET *73 0.00490207
*CONN
*I *564:C I *D sky130_fd_sc_hd__maj3_1
*I *563:Y O *D sky130_fd_sc_hd__o21bai_1
*CAP
1 *564:C 0.00213205
2 *563:Y 0.00213205
3 *564:C *564:B 4.06852e-05
4 *564:C *586:A 0.000118568
5 *564:C *94:14 0.000259297
6 *564:C *165:18 7.20514e-05
7 *564:C *166:47 1.17086e-05
8 *564:C *360:10 0.000135648
9 *564:C *420:25 0
10 *564:C *458:40 0
*RES
1 *563:Y *564:C 44.3945 
*END

*D_NET *74 0.0056892
*CONN
*I *565:B1 I *D sky130_fd_sc_hd__o21ai_4
*I *564:X O *D sky130_fd_sc_hd__maj3_1
*CAP
1 *565:B1 0.000335674
2 *564:X 0.000872062
3 *74:8 0.00120774
4 *565:B1 *591:A 6.2544e-05
5 *565:B1 *683:B 0.000156541
6 *565:B1 *684:B 4.31603e-05
7 *565:B1 *709:D 2.53322e-05
8 *565:B1 *363:16 0
9 *74:8 *499:A 2.48809e-05
10 *74:8 *604:A 8.64663e-05
11 *74:8 *604:B 2.57847e-05
12 *74:8 *77:31 0.000867347
13 *74:8 *271:18 0.000164829
14 *74:8 *407:14 6.08467e-05
15 *558:B *74:8 2.47261e-05
16 *558:C *74:8 0.000309083
17 *564:A *74:8 0.000590246
18 *565:A1 *565:B1 0.000447838
19 *24:6 *74:8 0.000384104
*RES
1 *564:X *74:8 41.6481 
2 *74:8 *565:B1 24.3014 
*END

*D_NET *75 0.00197673
*CONN
*I *577:A I *D sky130_fd_sc_hd__maj3_2
*I *849:A I *D sky130_fd_sc_hd__buf_6
*I *565:Y O *D sky130_fd_sc_hd__o21ai_4
*CAP
1 *577:A 0.000166457
2 *849:A 0
3 *565:Y 0.000174308
4 *75:12 0.000340765
5 *577:A *577:B 0.000217209
6 *577:A *577:C 0.0003691
7 *577:A *675:C 1.41291e-05
8 *577:A *86:47 7.27261e-05
9 *75:12 *683:A 3.4368e-05
10 *75:12 *220:14 0.000262434
11 *75:12 *469:18 6.28022e-05
12 *565:A1 *75:12 0.000262434
*RES
1 *565:Y *75:12 24.2687 
2 *75:12 *849:A 9.24915 
3 *75:12 *577:A 16.676 
*END

*D_NET *76 0.00120377
*CONN
*I *567:A I *D sky130_fd_sc_hd__xnor2_2
*I *566:X O *D sky130_fd_sc_hd__xor2_1
*CAP
1 *567:A 0.000265554
2 *566:X 0.000265554
3 *567:A *686:A1 0.000190001
4 *567:A *697:D 0.000170165
5 *567:A *158:10 0.000107496
6 *567:A *275:18 0.000159038
7 *567:A *339:10 4.59656e-05
*RES
1 *566:X *567:A 36.8749 
*END

*D_NET *77 0.0128099
*CONN
*I *932:A I *D sky130_fd_sc_hd__buf_4
*I *586:B I *D sky130_fd_sc_hd__or4_4
*I *581:C I *D sky130_fd_sc_hd__nor3_1
*I *863:A I *D sky130_fd_sc_hd__buf_4
*I *568:Y O *D sky130_fd_sc_hd__nand2b_1
*CAP
1 *932:A 0.000680873
2 *586:B 0.00117271
3 *581:C 1.26312e-05
4 *863:A 0.000258839
5 *568:Y 0.000225507
6 *77:31 0.00201026
7 *77:23 0.00169946
8 *77:10 0.000678019
9 *581:C *503:A1 2.65831e-05
10 *581:C *854:A 6.50727e-05
11 *586:B *502:A 0
12 *586:B *556:B_N 0.00026694
13 *586:B *583:A_N 0
14 *586:B *584:A1 0
15 *586:B *584:B1 0.000147129
16 *586:B *584:C1 2.31921e-05
17 *586:B *586:D 1.62644e-05
18 *586:B *587:D1 0
19 *586:B *590:C1 0
20 *586:B *898:A 5.54518e-05
21 *586:B *929:A 2.51196e-05
22 *586:B *94:14 2.40722e-05
23 *586:B *174:12 0.000225158
24 *586:B *425:10 0.000106992
25 *586:B *448:27 0
26 *863:A *570:C 0.000542082
27 *863:A *357:6 1.838e-05
28 *863:A *357:12 0.00108539
29 *863:A *469:18 2.99733e-05
30 *932:A *507:A 0.000355626
31 *932:A *578:A 6.08467e-05
32 *932:A *578:B 2.14558e-05
33 *932:A *587:A2 3.98327e-05
34 *932:A *892:A 0.00027329
35 *932:A *927:A 7.04971e-05
36 *932:A *89:10 3.31745e-05
37 *932:A *191:40 0.000340742
38 *932:A *407:14 5.49127e-05
39 *932:A *407:31 2.09495e-05
40 *77:10 *86:8 6.50586e-05
41 *77:10 *169:23 5.04829e-06
42 *77:10 *436:14 0.0001566
43 *77:23 *578:B 3.68217e-05
44 *77:23 *175:23 4.92721e-05
45 *77:23 *436:14 4.6447e-05
46 *77:31 *564:B 0
47 *77:31 *587:B1 0
48 *77:31 *590:C1 0
49 *77:31 *712:D 0
50 *77:31 *448:10 0
51 *77:31 *448:27 0
52 *503:B1 *586:B 0
53 *509:A1 *77:10 0.000324699
54 *570:A *863:A 3.58894e-05
55 *978:A *863:A 2.57986e-05
56 *29:10 *932:A 7.99862e-05
57 *29:10 *77:10 3.53929e-05
58 *29:10 *77:23 0.000380097
59 *59:10 *863:A 3.40476e-05
60 *74:8 *77:31 0.000867347
*RES
1 *568:Y *77:10 21.2876 
2 *77:10 *863:A 27.1079 
3 *77:10 *77:23 7.23027 
4 *77:23 *77:31 24.1663 
5 *77:31 *581:C 14.4725 
6 *77:31 *586:B 41.1451 
7 *77:23 *932:A 33.6579 
*END

*D_NET *79 0.00414055
*CONN
*I *571:A2 I *D sky130_fd_sc_hd__a211oi_4
*I *580:A1 I *D sky130_fd_sc_hd__a21o_1
*I *927:A I *D sky130_fd_sc_hd__buf_4
*I *570:X O *D sky130_fd_sc_hd__maj3_2
*CAP
1 *571:A2 0.000109518
2 *580:A1 0
3 *927:A 0.00024779
4 *570:X 0.000480708
5 *79:23 0.000129231
6 *79:10 0.00074821
7 *571:A2 *580:A2 0.000274204
8 *571:A2 *580:B1 5.51483e-06
9 *571:A2 *844:A 0.000164843
10 *571:A2 *915:A 9.22013e-06
11 *571:A2 *89:10 0.000177804
12 *571:A2 *338:18 5.04829e-06
13 *927:A *507:A 0.000359134
14 *927:A *892:A 4.0752e-05
15 *79:10 *549:A 0
16 *79:10 *551:B 9.08044e-05
17 *79:10 *407:14 5.8261e-05
18 *79:10 *457:28 8.0543e-05
19 *79:23 *551:B 1.46079e-05
20 *79:23 *580:A2 1.07248e-05
21 *79:23 *89:10 3.31882e-05
22 *79:23 *407:14 5.71402e-06
23 *570:A *79:10 0.000109421
24 *932:A *927:A 7.04971e-05
25 *29:10 *927:A 0.00084373
26 *29:10 *79:10 7.10767e-05
*RES
1 *570:X *79:10 25.5794 
2 *79:10 *927:A 25.444 
3 *79:10 *79:23 1.00149 
4 *79:23 *580:A1 13.7491 
5 *79:23 *571:A2 19.0748 
*END

*D_NET *80 0.00413641
*CONN
*I *572:B I *D sky130_fd_sc_hd__nor2_2
*I *844:A I *D sky130_fd_sc_hd__buf_4
*I *571:Y O *D sky130_fd_sc_hd__a211oi_4
*CAP
1 *572:B 0.000448175
2 *844:A 0.000521983
3 *571:Y 0
4 *80:4 0.000970159
5 *572:B *572:A 3.24254e-05
6 *572:B *921:A 9.95542e-06
7 *572:B *81:16 2.02035e-05
8 *572:B *406:20 2.16355e-05
9 *572:B *406:35 2.65831e-05
10 *572:B *415:10 0.000366589
11 *572:B *420:27 2.57465e-06
12 *572:B *420:44 7.34495e-05
13 *572:B *420:72 0.000189612
14 *572:B *426:8 4.56782e-05
15 *572:B *455:8 0.000454408
16 *572:B *455:26 0.00020502
17 *844:A *571:C1 3.9125e-05
18 *844:A *579:A1 0
19 *844:A *580:A2 0.000129801
20 *844:A *581:A 0
21 *844:A *585:A 4.80635e-06
22 *844:A *338:18 3.40288e-05
23 *844:A *361:12 2.65667e-05
24 *547:A *572:B 0.000348785
25 *571:A2 *844:A 0.000164843
*RES
1 *571:Y *80:4 9.24915 
2 *80:4 *844:A 22.0533 
3 *80:4 *572:B 36.808 
*END

*D_NET *81 0.0042021
*CONN
*I *943:A I *D sky130_fd_sc_hd__buf_4
*I *591:B I *D sky130_fd_sc_hd__xnor2_1
*I *572:Y O *D sky130_fd_sc_hd__nor2_2
*CAP
1 *943:A 0.00103575
2 *591:B 5.97078e-05
3 *572:Y 0.000350025
4 *81:16 0.00144549
5 *591:B *591:A 6.08467e-05
6 *591:B *188:27 1.58551e-05
7 *591:B *391:16 5.89592e-05
8 *943:A *552:A 3.14978e-05
9 *943:A *599:B 0.000233076
10 *943:A *693:D 0.00014192
11 *81:16 *572:A 0.000512142
12 *81:16 *693:D 1.66626e-05
13 *81:16 *458:34 0
14 *547:A *81:16 2.02035e-05
15 *554:A *943:A 7.63448e-05
16 *558:C *943:A 8.58593e-05
17 *558:C *81:16 7.62627e-06
18 *572:B *81:16 2.02035e-05
19 *64:8 *943:A 2.99287e-05
*RES
1 *572:Y *81:16 22.2117 
2 *81:16 *591:B 15.5817 
3 *81:16 *943:A 31.4342 
*END

*D_NET *82 0.00379257
*CONN
*I *578:B I *D sky130_fd_sc_hd__nand4_1
*I *862:A I *D sky130_fd_sc_hd__buf_4
*I *573:Y O *D sky130_fd_sc_hd__inv_1
*CAP
1 *578:B 0.000194984
2 *862:A 0.000914254
3 *573:Y 0.000180734
4 *82:6 0.00128997
5 *578:B *587:A2 0.000109827
6 *578:B *84:14 0.000441684
7 *578:B *84:31 5.77352e-05
8 *578:B *175:23 0.0001195
9 *578:B *436:14 5.21584e-05
10 *862:A *590:A2 0.00023761
11 *862:A *696:D 2.41274e-06
12 *862:A *166:16 0
13 *862:A *175:6 4.2273e-06
14 *862:A *413:12 7.0263e-05
15 *82:6 *551:A 1.73828e-05
16 *82:6 *573:A 4.01378e-05
17 *82:6 *175:6 1.4091e-06
18 *932:A *578:B 2.14558e-05
19 *77:23 *578:B 3.68217e-05
*RES
1 *573:Y *82:6 11.9137 
2 *82:6 *862:A 34.6935 
3 *82:6 *578:B 27.1404 
*END

*D_NET *83 0.00074664
*CONN
*I *575:B I *D sky130_fd_sc_hd__nor2_1
*I *861:A I *D sky130_fd_sc_hd__buf_4
*I *574:Y O *D sky130_fd_sc_hd__inv_1
*CAP
1 *575:B 4.40899e-05
2 *861:A 0.00015042
3 *574:Y 0
4 *83:4 0.00019451
5 *575:B *574:A 4.84772e-05
6 *575:B *575:A 4.80635e-06
7 *575:B *589:A 2.24789e-05
8 *575:B *590:B1 1.41976e-05
9 *861:A *574:A 6.12215e-05
10 *861:A *589:A 8.76469e-05
11 *861:A *355:10 0.000118792
*RES
1 *574:Y *83:4 9.24915 
2 *83:4 *861:A 14.325 
3 *83:4 *575:B 10.8286 
*END

*D_NET *84 0.00406055
*CONN
*I *579:B1 I *D sky130_fd_sc_hd__o2111ai_1
*I *854:A I *D sky130_fd_sc_hd__buf_4
*I *578:C I *D sky130_fd_sc_hd__nand4_1
*I *575:Y O *D sky130_fd_sc_hd__nor2_1
*CAP
1 *579:B1 2.28144e-05
2 *854:A 0.000329653
3 *578:C 0
4 *575:Y 0.000367442
5 *84:31 0.000504991
6 *84:14 0.000519966
7 *579:B1 *581:A 3.63629e-05
8 *854:A *503:A1 7.11018e-05
9 *854:A *581:A 2.81262e-05
10 *854:A *581:B 0.000309756
11 *854:A *585:B 0.000107496
12 *854:A *587:B1 6.08467e-05
13 *854:A *348:12 5.56461e-05
14 *84:14 *575:A 1.61631e-05
15 *84:14 *589:B 1.00981e-05
16 *84:14 *589:C 7.04109e-05
17 *84:14 *357:14 0.000123326
18 *84:14 *435:27 0.000544573
19 *84:14 *436:14 5.4427e-05
20 *84:14 *457:28 1.85244e-05
21 *84:31 *579:A2 1.80747e-06
22 *84:31 *581:A 7.70804e-05
23 *84:31 *585:B 0.000108907
24 *84:31 *587:A2 2.12602e-05
25 *84:31 *435:43 3.52772e-05
26 *578:B *84:14 0.000441684
27 *578:B *84:31 5.77352e-05
28 *581:C *854:A 6.50727e-05
*RES
1 *575:Y *84:14 28.0049 
2 *84:14 *578:C 13.7491 
3 *84:14 *84:31 9.34428 
4 *84:31 *854:A 19.5937 
5 *84:31 *579:B1 10.069 
*END

*D_NET *85 0.00423152
*CONN
*I *684:A I *D sky130_fd_sc_hd__xnor2_2
*I *577:C I *D sky130_fd_sc_hd__maj3_2
*I *576:Y O *D sky130_fd_sc_hd__inv_1
*CAP
1 *684:A 0.000383791
2 *577:C 9.85931e-05
3 *576:Y 0.00045881
4 *85:10 0.000941195
5 *577:C *675:C 6.12686e-06
6 *577:C *86:8 0.000318333
7 *577:C *86:47 0.000145731
8 *684:A *604:B 0.000165521
9 *684:A *675:C 0
10 *684:A *386:39 8.82765e-05
11 *684:A *455:26 0.00048735
12 *85:10 *566:B 8.52844e-05
13 *85:10 *697:D 0.000331014
14 *85:10 *697:DE 0.000154506
15 *85:10 *220:14 0
16 *85:10 *389:6 7.19016e-06
17 *85:10 *428:54 0
18 *85:10 *455:26 0.000154047
19 *85:10 *469:18 9.97045e-06
20 *509:B1 *85:10 7.86825e-06
21 *577:A *577:C 0.0003691
22 *58:20 *684:A 1.88152e-05
*RES
1 *576:Y *85:10 27.239 
2 *85:10 *577:C 19.4881 
3 *85:10 *684:A 25.8581 
*END

*D_NET *86 0.00853138
*CONN
*I *971:A I *D sky130_fd_sc_hd__buf_6
*I *970:A I *D sky130_fd_sc_hd__buf_6
*I *945:A I *D sky130_fd_sc_hd__buf_6
*I *944:A I *D sky130_fd_sc_hd__buf_4
*I *842:A I *D sky130_fd_sc_hd__buf_8
*I *577:X O *D sky130_fd_sc_hd__maj3_2
*CAP
1 *971:A 0.000236944
2 *970:A 0
3 *945:A 0.000187292
4 *944:A 1.39582e-05
5 *842:A 0.000869787
6 *577:X 0
7 *86:47 0.000945549
8 *86:19 0.000406643
9 *86:8 0.00202686
10 *86:4 0.00166028
11 *842:A *667:A 7.54728e-05
12 *842:A *668:A 0
13 *842:A *671:A2 0.000259721
14 *842:A *677:A1 0.00014053
15 *842:A *678:B1 0
16 *842:A *680:A2 2.88443e-05
17 *842:A *166:16 0
18 *842:A *192:30 0
19 *944:A *667:A 6.36477e-05
20 *944:A *457:28 2.57847e-05
21 *945:A *590:A2 0.000112367
22 *945:A *590:B1 4.20423e-05
23 *945:A *166:47 3.2867e-05
24 *945:A *175:6 4.89392e-05
25 *971:A *406:20 5.04829e-06
26 *971:A *461:12 6.23875e-05
27 *86:8 *917:A 7.92757e-06
28 *86:8 *936:A 1.03403e-05
29 *86:8 *169:23 3.38752e-05
30 *86:8 *169:31 0.000108224
31 *86:19 *590:B1 3.39313e-06
32 *86:19 *667:A 0.000264366
33 *86:19 *166:16 0
34 *86:47 *577:B 6.11359e-06
35 *86:47 *675:C 2.33922e-05
36 *86:47 *686:A1 0.000149628
37 *86:47 *709:D 3.98472e-05
38 *86:47 *339:10 1.29348e-05
39 *86:47 *343:8 5.20546e-06
40 *577:A *86:47 7.27261e-05
41 *577:C *86:8 0.000318333
42 *577:C *86:47 0.000145731
43 *690:D *842:A 1.93122e-05
44 *77:10 *86:8 6.50586e-05
*RES
1 *577:X *86:4 9.24915 
2 *86:4 *86:8 19.0885 
3 *86:8 *842:A 35.098 
4 *86:8 *86:19 5.56926 
5 *86:19 *944:A 14.4725 
6 *86:19 *945:A 18.9354 
7 *86:4 *86:47 21.2596 
8 *86:47 *970:A 9.24915 
9 *86:47 *971:A 14.4094 
*END

*D_NET *87 0.00102125
*CONN
*I *587:A2 I *D sky130_fd_sc_hd__o2111ai_2
*I *578:Y O *D sky130_fd_sc_hd__nand4_1
*CAP
1 *587:A2 0.000218879
2 *578:Y 0.000218879
3 *587:A2 *579:A1 0.000158396
4 *587:A2 *585:B 4.76283e-05
5 *587:A2 *587:B1 1.65159e-05
6 *587:A2 *947:A 0
7 *587:A2 *89:10 0
8 *587:A2 *338:18 0.000169513
9 *587:A2 *407:31 2.0517e-05
10 *578:B *587:A2 0.000109827
11 *932:A *587:A2 3.98327e-05
12 *84:31 *587:A2 2.12602e-05
*RES
1 *578:Y *587:A2 35.1438 
*END

*D_NET *88 0.00164641
*CONN
*I *587:B1 I *D sky130_fd_sc_hd__o2111ai_2
*I *579:Y O *D sky130_fd_sc_hd__o2111ai_1
*CAP
1 *587:B1 0.000578815
2 *579:Y 0.000578815
3 *587:B1 *579:A1 0.000158396
4 *587:B1 *579:A2 3.75608e-05
5 *587:B1 *585:B 1.5714e-05
6 *587:B1 *590:C1 3.29488e-05
7 *587:B1 *94:14 0.000137446
8 *587:B1 *420:25 2.4985e-05
9 *587:B1 *435:43 4.36982e-06
10 *587:A2 *587:B1 1.65159e-05
11 *854:A *587:B1 6.08467e-05
12 *77:31 *587:B1 0
*RES
1 *579:Y *587:B1 40.4543 
*END

*D_NET *89 0.00567156
*CONN
*I *947:A I *D sky130_fd_sc_hd__buf_6
*I *841:A I *D sky130_fd_sc_hd__buf_6
*I *584:A2 I *D sky130_fd_sc_hd__o2111ai_2
*I *580:X O *D sky130_fd_sc_hd__a21o_1
*CAP
1 *947:A 0.000263351
2 *841:A 0.000736572
3 *584:A2 0
4 *580:X 0.000258426
5 *89:20 0.00104421
6 *89:10 0.000829413
7 *841:A *502:A 5.20167e-05
8 *841:A *502:B 0.000109427
9 *841:A *584:C1 6.27782e-05
10 *841:A *587:C1 1.37189e-05
11 *841:A *595:A 4.78464e-05
12 *841:A *595:B 0.000112367
13 *841:A *596:B1 0.000112361
14 *947:A *579:A1 0
15 *947:A *597:A 1.03594e-05
16 *947:A *840:A 0.000150212
17 *947:A *915:A 7.36895e-06
18 *947:A *360:37 0.000448805
19 *947:A *415:31 0.000223682
20 *89:10 *578:A 6.08467e-05
21 *89:10 *580:B1 0.000116971
22 *89:10 *915:A 3.51317e-05
23 *89:10 *338:18 0
24 *89:10 *407:14 7.77309e-06
25 *89:20 *584:A1 5.16739e-05
26 *89:20 *587:A1 8.58353e-05
27 *89:20 *587:C1 0.000263107
28 *89:20 *338:18 0.000247443
29 *89:20 *359:29 3.25296e-05
30 *571:A2 *89:10 0.000177804
31 *587:A2 *947:A 0
32 *587:A2 *89:10 0
33 *932:A *89:10 3.31745e-05
34 *29:10 *89:10 4.31703e-05
35 *79:23 *89:10 3.31882e-05
*RES
1 *580:X *89:10 21.9815 
2 *89:10 *89:20 14.3141 
3 *89:20 *584:A2 9.24915 
4 *89:20 *841:A 26.6589 
5 *89:10 *947:A 22.8176 
*END

*D_NET *90 0.000306401
*CONN
*I *584:B1 I *D sky130_fd_sc_hd__o2111ai_2
*I *581:Y O *D sky130_fd_sc_hd__nor3_1
*CAP
1 *584:B1 7.9636e-05
2 *581:Y 7.9636e-05
3 *584:B1 *590:C1 0
4 *584:B1 *435:43 0
5 *586:B *584:B1 0.000147129
*RES
1 *581:Y *584:B1 30.1608 
*END

*D_NET *92 0.00184488
*CONN
*I *584:D1 I *D sky130_fd_sc_hd__o2111ai_2
*I *583:Y O *D sky130_fd_sc_hd__nand2b_1
*CAP
1 *584:D1 0.000500052
2 *583:Y 0.000500052
3 *584:D1 *502:A 0.000366246
4 *584:D1 *584:C1 0.000116255
5 *584:D1 *897:A 7.90239e-05
6 *584:D1 *929:A 0.000168594
7 *584:D1 *392:16 0.000114659
*RES
1 *583:Y *584:D1 38.7824 
*END

*D_NET *93 0.000739744
*CONN
*I *587:C1 I *D sky130_fd_sc_hd__o2111ai_2
*I *584:Y O *D sky130_fd_sc_hd__o2111ai_2
*CAP
1 *587:C1 0.000125241
2 *584:Y 0.000125241
3 *587:C1 *586:D 5.03168e-05
4 *587:C1 *590:C1 0.000111802
5 *587:C1 *435:43 5.03168e-05
6 *841:A *587:C1 1.37189e-05
7 *89:20 *587:C1 0.000263107
*RES
1 *584:Y *587:C1 31.9962 
*END

*D_NET *94 0.00329667
*CONN
*I *586:C I *D sky130_fd_sc_hd__or4_4
*I *585:Y O *D sky130_fd_sc_hd__nand2_1
*CAP
1 *586:C 0
2 *585:Y 0.000566009
3 *94:14 0.000566009
4 *94:14 *579:A1 7.41706e-05
5 *94:14 *579:A2 7.40084e-05
6 *94:14 *581:A 1.59629e-05
7 *94:14 *586:A 0.000158045
8 *94:14 *586:D 0.00106959
9 *94:14 *587:D1 1.65872e-05
10 *94:14 *359:12 0.000305977
11 *94:14 *360:10 2.94936e-05
12 *564:C *94:14 0.000259297
13 *586:B *94:14 2.40722e-05
14 *587:B1 *94:14 0.000137446
*RES
1 *585:Y *94:14 40.9947 
2 *94:14 *586:C 9.24915 
*END

*D_NET *95 0.00232681
*CONN
*I *587:D1 I *D sky130_fd_sc_hd__o2111ai_2
*I *586:X O *D sky130_fd_sc_hd__or4_4
*CAP
1 *587:D1 0.000754098
2 *586:X 0.000754098
3 *587:D1 *584:A1 5.1584e-05
4 *587:D1 *586:A 2.20471e-05
5 *587:D1 *586:D 0.000250007
6 *587:D1 *174:12 0
7 *587:D1 *435:43 0.000113104
8 *586:B *587:D1 0
9 *865:A *587:D1 0.000325354
10 *866:A *587:D1 3.99258e-05
11 *94:14 *587:D1 1.65872e-05
*RES
1 *586:X *587:D1 46.53 
*END

*D_NET *96 0.00190551
*CONN
*I *590:C1 I *D sky130_fd_sc_hd__a211o_1
*I *587:Y O *D sky130_fd_sc_hd__o2111ai_2
*CAP
1 *590:C1 0.000536051
2 *587:Y 0.000536051
3 *590:C1 *503:A1 1.32062e-05
4 *590:C1 *590:B1 0.000300539
5 *590:C1 *371:8 7.88135e-05
6 *590:C1 *390:8 0.000113096
7 *590:C1 *390:27 3.51582e-05
8 *590:C1 *435:43 3.02775e-05
9 *564:A *590:C1 9.87648e-05
10 *584:B1 *590:C1 0
11 *586:B *590:C1 0
12 *587:B1 *590:C1 3.29488e-05
13 *587:C1 *590:C1 0.000111802
14 *24:6 *590:C1 1.88014e-05
15 *77:31 *590:C1 0
*RES
1 *587:Y *590:C1 42.0186 
*END

*D_NET *98 0.00262456
*CONN
*I *590:B1 I *D sky130_fd_sc_hd__a211o_1
*I *589:Y O *D sky130_fd_sc_hd__nor3_1
*CAP
1 *590:B1 0.000661742
2 *589:Y 0.000661742
3 *590:B1 *574:A 0.000104731
4 *590:B1 *589:A 0.000169041
5 *590:B1 *589:B 0.00011818
6 *590:B1 *590:A1 1.63255e-05
7 *590:B1 *590:A2 0.000102553
8 *590:B1 *667:A 3.61281e-05
9 *590:B1 *357:14 0.000259271
10 *590:B1 *357:18 2.95757e-05
11 *590:B1 *435:27 5.29743e-05
12 *564:A *590:B1 1.39714e-05
13 *575:B *590:B1 1.41976e-05
14 *590:C1 *590:B1 0.000300539
15 *945:A *590:B1 4.20423e-05
16 *24:6 *590:B1 3.81549e-05
17 *86:19 *590:B1 3.39313e-06
*RES
1 *589:Y *590:B1 45.2015 
*END

*D_NET *99 0.00181917
*CONN
*I *593:A1 I *D sky130_fd_sc_hd__a21bo_1
*I *594:C I *D sky130_fd_sc_hd__nand3b_1
*I *592:X O *D sky130_fd_sc_hd__xor2_2
*CAP
1 *593:A1 0.000171647
2 *594:C 0.000154272
3 *592:X 0
4 *99:4 0.00032592
5 *593:A1 *593:A2 0.000346318
6 *593:A1 *594:B 1.65872e-05
7 *593:A1 *696:DE 9.08209e-05
8 *593:A1 *929:A 6.50727e-05
9 *593:A1 *392:16 3.99086e-06
10 *593:A1 *393:16 0.000160617
11 *593:A1 *458:40 3.58321e-05
12 *594:C *594:B 0.000224339
13 *594:C *695:D 6.55312e-05
14 *594:C *696:DE 2.1778e-05
15 *594:C *415:39 4.38769e-05
16 *594:C *420:106 9.25678e-05
*RES
1 *592:X *99:4 9.24915 
2 *99:4 *594:C 24.5687 
3 *99:4 *593:A1 26.0663 
*END

*D_NET *100 0.00137206
*CONN
*I *596:A1 I *D sky130_fd_sc_hd__a31oi_1
*I *593:X O *D sky130_fd_sc_hd__a21bo_1
*CAP
1 *596:A1 0.000263671
2 *593:X 0.000263671
3 *596:A1 *502:A 0.000143175
4 *596:A1 *593:A2 0.000127746
5 *596:A1 *596:A3 6.08467e-05
6 *596:A1 *695:D 4.89392e-05
7 *596:A1 *898:A 0
8 *596:A1 *415:39 3.74146e-05
9 *596:A1 *448:27 0.000132371
10 *596:A1 *448:31 0.000294226
*RES
1 *593:X *596:A1 38.2222 
*END

*D_NET *101 0.000260427
*CONN
*I *596:A2 I *D sky130_fd_sc_hd__a31oi_1
*I *594:Y O *D sky130_fd_sc_hd__nand3b_1
*CAP
1 *596:A2 7.40332e-05
2 *594:Y 7.40332e-05
3 *596:A2 *415:39 0.000112361
*RES
1 *594:Y *596:A2 19.7763 
*END

*D_NET *102 0.000548206
*CONN
*I *596:B1 I *D sky130_fd_sc_hd__a31oi_1
*I *595:Y O *D sky130_fd_sc_hd__nor2_1
*CAP
1 *596:B1 0.000135022
2 *595:Y 0.000135022
3 *596:B1 *502:A 4.7798e-05
4 *596:B1 *596:A3 0.000118002
5 *841:A *596:B1 0.000112361
*RES
1 *595:Y *596:B1 31.0235 
*END

*D_NET *104 0.00121762
*CONN
*I *603:A2 I *D sky130_fd_sc_hd__o21ai_1
*I *600:Y O *D sky130_fd_sc_hd__mux2i_1
*CAP
1 *603:A2 0.000495669
2 *600:Y 0.000495669
3 *603:A2 resp_msg[14] 0.000114659
4 *603:A2 *600:A1 7.29927e-06
5 *603:A2 *600:S 3.40042e-05
6 *603:A2 *602:A 6.27782e-05
7 *603:A2 *272:14 7.5426e-06
*RES
1 *600:Y *603:A2 36.0391 
*END

*D_NET *106 0.000727603
*CONN
*I *603:B1 I *D sky130_fd_sc_hd__o21ai_1
*I *602:Y O *D sky130_fd_sc_hd__nand2_1
*CAP
1 *603:B1 0.000167666
2 *602:Y 0.000167666
3 *603:B1 resp_msg[14] 0.0001591
4 *603:B1 *603:A1 0.000199166
5 *603:B1 *694:D 3.40041e-05
*RES
1 *602:Y *603:B1 32.9632 
*END

*D_NET *107 0.00188354
*CONN
*I *607:A2 I *D sky130_fd_sc_hd__o21ai_1
*I *605:Y O *D sky130_fd_sc_hd__mux2i_1
*CAP
1 *607:A2 0.000309443
2 *605:Y 0.000309443
3 *607:A2 *599:A 2.65831e-05
4 *607:A2 *599:B 6.55289e-05
5 *607:A2 *605:A0 6.50586e-05
6 *607:A2 *607:A1 0.00046699
7 *607:A2 *607:B1 6.50586e-05
8 *607:A2 *188:27 0.000160617
9 *607:A2 *391:16 1.22085e-05
10 *607:A2 *426:8 0
11 *607:A2 *426:33 0.000205985
12 *547:A *607:A2 0.000196623
*RES
1 *605:Y *607:A2 40.2025 
*END

*D_NET *108 0.00129171
*CONN
*I *607:B1 I *D sky130_fd_sc_hd__o21ai_1
*I *606:Y O *D sky130_fd_sc_hd__nand2_1
*CAP
1 *607:B1 0.000348541
2 *606:Y 0.000348541
3 *607:B1 *508:A 0.00019238
4 *607:B1 *508:B 0
5 *607:B1 *599:B 6.92705e-05
6 *607:B1 *694:D 4.13547e-05
7 *607:B1 *827:A 0.000163827
8 *607:B1 *394:58 6.27332e-05
9 *509:B1 *607:B1 0
10 *607:A2 *607:B1 6.50586e-05
*RES
1 *606:Y *607:B1 37.7026 
*END

*D_NET *109 0.00122608
*CONN
*I *852:A I *D sky130_fd_sc_hd__buf_4
*I *623:A2 I *D sky130_fd_sc_hd__a31oi_4
*I *608:Y O *D sky130_fd_sc_hd__nand2_2
*CAP
1 *852:A 0.000209887
2 *623:A2 0.000342525
3 *608:Y 0.000132638
4 *623:A2 *608:B 0
5 *623:A2 *610:B1 6.31809e-05
6 *623:A2 *623:A1 0
7 *852:A *623:A1 0
8 *852:A *623:A3 0.000372922
9 *852:A *623:B1 6.98337e-06
10 *852:A *461:12 9.79408e-05
*RES
1 *608:Y *623:A2 30.9913 
2 *623:A2 *852:A 34.7905 
*END

*D_NET *110 0.00116023
*CONN
*I *610:B1 I *D sky130_fd_sc_hd__a31oi_4
*I *609:Y O *D sky130_fd_sc_hd__nor2b_1
*CAP
1 *610:B1 0.000462136
2 *609:Y 0.000462136
3 *610:B1 *608:A 4.30017e-06
4 *610:B1 *608:B 4.70005e-05
5 *610:B1 *623:A1 0
6 *610:B1 *886:A 3.44412e-06
7 *610:B1 *182:22 0.000103943
8 *610:B1 *182:28 9.77611e-06
9 *610:B1 *462:12 0
10 *623:A2 *610:B1 6.31809e-05
11 *969:A *610:B1 4.3116e-06
*RES
1 *609:Y *610:B1 37.1186 
*END

*D_NET *111 0.00263938
*CONN
*I *614:A1 I *D sky130_fd_sc_hd__a32o_1
*I *928:A I *D sky130_fd_sc_hd__buf_6
*I *610:Y O *D sky130_fd_sc_hd__a31oi_4
*CAP
1 *614:A1 0.000293743
2 *928:A 0
3 *610:Y 0.000381367
4 *111:8 0.000675111
5 *614:A1 *614:B1 3.55859e-05
6 *614:A1 *623:B1 0.000370286
7 *614:A1 *950:A 6.33181e-05
8 *614:A1 *112:12 3.30901e-05
9 *614:A1 *380:50 6.27782e-05
10 *111:8 *346:8 6.36477e-05
11 *111:8 *380:12 6.08467e-05
12 *111:8 *380:50 0.000245694
13 *33:20 *614:A1 1.21028e-05
14 *37:10 *614:A1 0.000341808
*RES
1 *610:Y *111:8 19.9795 
2 *111:8 *928:A 9.24915 
3 *111:8 *614:A1 29.5248 
*END

*D_NET *112 0.00333785
*CONN
*I *613:C I *D sky130_fd_sc_hd__or3_1
*I *612:C I *D sky130_fd_sc_hd__or3_1
*I *623:B1 I *D sky130_fd_sc_hd__a31oi_4
*I *611:Y O *D sky130_fd_sc_hd__nor2b_1
*CAP
1 *613:C 0
2 *612:C 8.8335e-05
3 *623:B1 0.00038378
4 *611:Y 0.00032308
5 *112:25 8.8335e-05
6 *112:12 0.00070686
7 *612:C *612:A 6.27782e-05
8 *612:C *183:33 0.000231195
9 *623:B1 *612:A 2.57465e-06
10 *623:B1 *614:A2 4.36852e-05
11 *623:B1 *623:A3 9.54357e-06
12 *623:B1 *634:B 6.50586e-05
13 *623:B1 *635:A 0
14 *623:B1 *888:A 0.000139104
15 *623:B1 *122:12 0.000110009
16 *623:B1 *461:12 0.000373548
17 *112:12 *612:A 7.09666e-06
18 *112:12 *614:A2 5.47387e-05
19 *112:12 *614:A3 3.13218e-05
20 *112:12 *614:B1 4.00504e-05
21 *543:A *612:C 3.20678e-05
22 *613:A *612:C 4.19058e-05
23 *614:A1 *623:B1 0.000370286
24 *614:A1 *112:12 3.30901e-05
25 *852:A *623:B1 6.98337e-06
26 *33:20 *112:12 9.24241e-05
*RES
1 *611:Y *112:12 20.0863 
2 *112:12 *623:B1 27.9372 
3 *112:12 *112:25 4.5 
4 *112:25 *612:C 13.487 
5 *112:25 *613:C 9.24915 
*END

*D_NET *113 0.000991918
*CONN
*I *614:B1 I *D sky130_fd_sc_hd__a32o_1
*I *612:X O *D sky130_fd_sc_hd__or3_1
*CAP
1 *614:B1 0.000202732
2 *612:X 0.000202732
3 *614:B1 *612:B 6.08467e-05
4 *614:B1 *614:B2 0.00010562
5 *614:B1 *635:A 8.03699e-06
6 *614:B1 *720:D 3.75221e-05
7 *614:B1 *427:24 3.52699e-05
8 *613:A *614:B1 6.50727e-05
9 *614:A1 *614:B1 3.55859e-05
10 *37:10 *614:B1 0.000130534
11 *41:20 *614:B1 6.79169e-05
12 *112:12 *614:B1 4.00504e-05
*RES
1 *612:X *614:B1 38.9334 
*END

*D_NET *114 0.000581713
*CONN
*I *614:B2 I *D sky130_fd_sc_hd__a32o_1
*I *613:X O *D sky130_fd_sc_hd__or3_1
*CAP
1 *614:B2 0.000118184
2 *613:X 0.000118184
3 *614:B2 *635:A 0.000169618
4 *614:B2 *183:33 1.58844e-06
5 *614:B2 *427:24 5.43494e-05
6 *613:A *614:B2 0
7 *614:B1 *614:B2 0.00010562
8 *37:10 *614:B2 1.41689e-05
*RES
1 *613:X *614:B2 31.5647 
*END

*D_NET *115 0.00103667
*CONN
*I *615:C1 I *D sky130_fd_sc_hd__o311a_1
*I *614:X O *D sky130_fd_sc_hd__a32o_1
*CAP
1 *615:C1 0.00030067
2 *614:X 0.00030067
3 *615:C1 *720:D 0.000321919
4 *615:C1 *122:12 0
5 *529:A_N *615:C1 2.77564e-05
6 *873:A *615:C1 2.14842e-06
7 *37:10 *615:C1 8.3506e-05
*RES
1 *614:X *615:C1 33.242 
*END

*D_NET *116 0.00283071
*CONN
*I *621:A I *D sky130_fd_sc_hd__xor2_1
*I *847:A I *D sky130_fd_sc_hd__buf_4
*I *615:X O *D sky130_fd_sc_hd__o311a_1
*CAP
1 *621:A 0.000448038
2 *847:A 0.000120267
3 *615:X 0.000361183
4 *116:8 0.000929487
5 *621:A *530:A 0
6 *621:A *631:A1 0.000160617
7 *621:A *185:31 7.41203e-05
8 *621:A *187:14 7.80575e-05
9 *621:A *462:57 0
10 *847:A *513:A1 0.000110583
11 *847:A *341:20 0.00017407
12 *116:8 *527:A 0
13 *116:8 *622:A 0.000114384
14 *116:8 *462:48 0
15 *116:8 *462:57 0
16 *531:D *621:A 1.39717e-06
17 *531:D *116:8 5.47114e-05
18 *546:A2 *847:A 2.58616e-05
19 *40:10 *621:A 0.000177934
*RES
1 *615:X *116:8 23.0557 
2 *116:8 *847:A 18.3548 
3 *116:8 *621:A 26.0808 
*END

*D_NET *117 0.00296899
*CONN
*I *617:B I *D sky130_fd_sc_hd__nand2_2
*I *616:Y O *D sky130_fd_sc_hd__xnor2_2
*CAP
1 *617:B 0
2 *616:Y 0.000875441
3 *117:22 0.000875441
4 *117:22 *512:A2 2.58616e-05
5 *117:22 *692:D 9.06227e-05
6 *117:22 *708:DE 0.000194045
7 *117:22 *341:20 7.48995e-05
8 *117:22 *400:14 0.000299901
9 *117:22 *426:46 4.44372e-05
10 *117:22 *458:18 0.000344218
11 *117:22 *458:32 7.76482e-06
12 *512:A1 *117:22 2.41274e-06
13 *546:A2 *117:22 2.58616e-05
14 *31:22 *117:22 0.000108085
*RES
1 *616:Y *117:22 46.8007 
2 *117:22 *617:B 9.24915 
*END

*D_NET *118 0.0019999
*CONN
*I *618:B I *D sky130_fd_sc_hd__xor2_1
*I *617:Y O *D sky130_fd_sc_hd__nand2_2
*CAP
1 *618:B 0.000435185
2 *617:Y 0.000435185
3 *618:B *620:A2 0.00011818
4 *618:B *620:B1 0.000118166
5 *618:B *692:D 6.50586e-05
6 *618:B *904:A 7.13972e-05
7 *618:B *398:6 4.16492e-05
8 *618:B *426:33 0.000137444
9 *618:B *426:46 1.92172e-05
10 *618:B *456:8 0.000281756
11 *618:B *458:18 0.000276659
*RES
1 *617:Y *618:B 41.3331 
*END

*D_NET *119 0.000278242
*CONN
*I *620:A2 I *D sky130_fd_sc_hd__o21ai_1
*I *618:X O *D sky130_fd_sc_hd__xor2_1
*CAP
1 *620:A2 1.28593e-05
2 *618:X 1.28593e-05
3 *620:A2 *426:33 6.50727e-05
4 *620:A2 *426:46 6.92705e-05
5 *618:B *620:A2 0.00011818
*RES
1 *618:X *620:A2 19.7763 
*END

*D_NET *120 0.000909782
*CONN
*I *620:B1 I *D sky130_fd_sc_hd__o21ai_1
*I *619:Y O *D sky130_fd_sc_hd__nand2_1
*CAP
1 *620:B1 0.000173338
2 *619:Y 0.000173338
3 *620:B1 *341:20 0.000303694
4 *620:B1 *398:6 5.56461e-05
5 *620:B1 *426:46 7.72336e-05
6 *512:B1 *620:B1 8.36586e-06
7 *618:B *620:B1 0.000118166
*RES
1 *619:Y *620:B1 34.3456 
*END

*D_NET *121 0.00134631
*CONN
*I *624:B I *D sky130_fd_sc_hd__maj3_2
*I *860:A I *D sky130_fd_sc_hd__buf_4
*I *622:Y O *D sky130_fd_sc_hd__inv_1
*CAP
1 *624:B 0.000101323
2 *860:A 7.94491e-05
3 *622:Y 0.000380847
4 *121:6 0.000561619
5 *624:B *624:A 4.76161e-06
6 *624:B *850:A 3.99086e-06
7 *860:A *185:31 0
8 *121:6 *527:A 4.75043e-05
9 *121:6 *528:B 8.61693e-08
10 *121:6 *624:A 9.43222e-06
11 *121:6 *850:A 1.21461e-06
12 *858:A *860:A 0.000148779
13 *38:10 *121:6 7.29927e-06
*RES
1 *622:Y *121:6 14.6867 
2 *121:6 *860:A 20.9116 
3 *121:6 *624:B 11.3711 
*END

*D_NET *122 0.00418557
*CONN
*I *850:A I *D sky130_fd_sc_hd__buf_6
*I *624:A I *D sky130_fd_sc_hd__maj3_2
*I *623:Y O *D sky130_fd_sc_hd__a31oi_4
*CAP
1 *850:A 0.000187207
2 *624:A 5.37352e-05
3 *623:Y 0.00101528
4 *122:12 0.00125623
5 *850:A *624:C 9.50523e-05
6 *122:12 *526:A 0.000111547
7 *122:12 *615:B1 2.80468e-05
8 *122:12 *623:A3 0.000522138
9 *122:12 *634:A 0.00014924
10 *122:12 *634:B 6.08467e-05
11 *122:12 *635:A 0.000181145
12 *122:12 *635:B 0
13 *122:12 *636:S 0
14 *122:12 *427:24 6.84846e-05
15 *122:12 *461:12 7.23422e-05
16 *531:B *122:12 0
17 *615:C1 *122:12 0
18 *623:B1 *122:12 0.000110009
19 *624:B *624:A 4.76161e-06
20 *624:B *850:A 3.99086e-06
21 *858:A *122:12 0.00013832
22 *873:A *122:12 7.70975e-05
23 *37:10 *122:12 0
24 *38:10 *122:12 3.94515e-05
25 *121:6 *624:A 9.43222e-06
26 *121:6 *850:A 1.21461e-06
*RES
1 *623:Y *122:12 48.3617 
2 *122:12 *624:A 10.5513 
3 *122:12 *850:A 13.8789 
*END

*D_NET *123 0.00270451
*CONN
*I *625:A I *D sky130_fd_sc_hd__xnor2_2
*I *624:X O *D sky130_fd_sc_hd__maj3_2
*CAP
1 *625:A 0.00114436
2 *624:X 0.00114436
3 *625:A *624:C 0.000105163
4 *625:A *629:B 7.23716e-05
5 *625:A *817:A 4.25884e-05
6 *625:A *846:A 0
7 *625:A *184:10 6.46135e-05
8 *625:A *184:12 0.000131065
9 *625:A *283:8 0
*RES
1 *624:X *625:A 49.8633 
*END

*D_NET *124 0.00160724
*CONN
*I *628:A2 I *D sky130_fd_sc_hd__o21ai_1
*I *626:Y O *D sky130_fd_sc_hd__mux2i_1
*CAP
1 *628:A2 0.000458864
2 *626:Y 0.000458864
3 *628:A2 *626:A0 5.04829e-06
4 *628:A2 *626:A1 6.08467e-05
5 *628:A2 *630:A 2.18145e-05
6 *628:A2 *631:A1 8.41174e-05
7 *628:A2 *631:A2 0.000350419
8 *628:A2 *631:B1 1.61631e-05
9 *628:A2 *706:CLK 0.000102078
10 *628:A2 *414:116 3.92275e-05
11 *628:A2 *462:63 9.79796e-06
*RES
1 *626:Y *628:A2 40.8614 
*END

*D_NET *125 0.0004236
*CONN
*I *628:B1 I *D sky130_fd_sc_hd__o21ai_1
*I *627:Y O *D sky130_fd_sc_hd__nand2_1
*CAP
1 *628:B1 0.000123767
2 *627:Y 0.000123767
3 *628:B1 *706:CLK 0.000113295
4 *628:B1 *185:10 6.27718e-05
*RES
1 *627:Y *628:B1 30.4689 
*END

*D_NET *126 0.000311163
*CONN
*I *631:B1 I *D sky130_fd_sc_hd__a21oi_2
*I *630:Y O *D sky130_fd_sc_hd__nor2_2
*CAP
1 *631:B1 0.000114743
2 *630:Y 0.000114743
3 *631:B1 *624:C 5.04829e-06
4 *631:B1 *630:A 4.24529e-05
5 *631:B1 *630:B 1.80122e-05
6 *628:A2 *631:B1 1.61631e-05
*RES
1 *630:Y *631:B1 21.4642 
*END

*D_NET *127 0.00114397
*CONN
*I *633:A2 I *D sky130_fd_sc_hd__o21ai_1
*I *631:Y O *D sky130_fd_sc_hd__a21oi_2
*CAP
1 *633:A2 0.000339337
2 *631:Y 0.000339337
3 *633:A2 *621:B 0
4 *633:A2 *626:A1 0
5 *633:A2 *630:A 6.08697e-06
6 *633:A2 *630:B 6.50727e-05
7 *633:A2 *631:A2 4.54077e-05
8 *633:A2 *823:A 0.000271346
9 *633:A2 *426:87 7.73825e-05
*RES
1 *631:Y *633:A2 37.113 
*END

*D_NET *128 0.000651506
*CONN
*I *633:B1 I *D sky130_fd_sc_hd__o21ai_1
*I *632:Y O *D sky130_fd_sc_hd__nand2_1
*CAP
1 *633:B1 0.000188198
2 *632:Y 0.000188198
3 *633:B1 *823:A 0.000118002
4 *633:B1 *185:10 0.000157107
*RES
1 *632:Y *633:B1 31.5781 
*END

*D_NET *129 0.00227234
*CONN
*I *635:A I *D sky130_fd_sc_hd__xnor2_2
*I *634:Y O *D sky130_fd_sc_hd__nand2_4
*CAP
1 *635:A 0.000407984
2 *634:Y 0.000407984
3 *635:A *623:A3 9.89271e-05
4 *635:A *634:A 0.00036117
5 *635:A *642:A0 9.2346e-06
6 *635:A *720:D 0.000167076
7 *635:A *950:A 0.000243661
8 *635:A *461:12 0.000175485
9 *614:B1 *635:A 8.03699e-06
10 *614:B2 *635:A 0.000169618
11 *623:B1 *635:A 0
12 *37:10 *635:A 4.20149e-05
13 *122:12 *635:A 0.000181145
*RES
1 *634:Y *635:A 45.0378 
*END

*D_NET *130 0.00101204
*CONN
*I *638:A1 I *D sky130_fd_sc_hd__o21ai_1
*I *636:Y O *D sky130_fd_sc_hd__mux2i_1
*CAP
1 *638:A1 0.000294765
2 *636:Y 0.000294765
3 *638:A1 *526:A 2.30636e-05
4 *638:A1 *636:A1 0.000208621
5 *638:A1 *636:S 7.92757e-06
6 *638:A1 *637:A 2.68529e-05
7 *638:A1 *637:B 2.58616e-05
8 *638:A1 *638:B1 0.000125135
9 *638:A1 *704:D 5.04423e-06
*RES
1 *636:Y *638:A1 26.311 
*END

*D_NET *131 0.000568834
*CONN
*I *638:B1 I *D sky130_fd_sc_hd__o21ai_1
*I *637:Y O *D sky130_fd_sc_hd__nand2_1
*CAP
1 *638:B1 0.000207222
2 *637:Y 0.000207222
3 *638:B1 *637:A 2.92544e-05
4 *638:A1 *638:B1 0.000125135
*RES
1 *637:Y *638:B1 22.4287 
*END

*D_NET *132 0.00162715
*CONN
*I *641:A I *D sky130_fd_sc_hd__xnor2_2
*I *639:Y O *D sky130_fd_sc_hd__nand2_4
*CAP
1 *641:A 0.00034661
2 *639:Y 0.00034661
3 *641:A *639:A 5.41582e-05
4 *641:A *641:B 0.000191368
5 *641:A *642:A0 7.60465e-05
6 *641:A *675:A 0.000542974
7 *641:A *182:18 6.50727e-05
8 *641:A *471:10 4.3116e-06
*RES
1 *639:Y *641:A 39.5649 
*END

*D_NET *133 0.000429517
*CONN
*I *641:B I *D sky130_fd_sc_hd__xnor2_2
*I *640:Y O *D sky130_fd_sc_hd__xnor2_1
*CAP
1 *641:B 0.000117474
2 *640:Y 0.000117474
3 *641:B *471:10 3.20069e-06
4 *641:A *641:B 0.000191368
*RES
1 *640:Y *641:B 30.4689 
*END

*D_NET *134 0.00108535
*CONN
*I *644:A2 I *D sky130_fd_sc_hd__o21ai_1
*I *642:Y O *D sky130_fd_sc_hd__mux2i_1
*CAP
1 *644:A2 0.000417077
2 *642:Y 0.000417077
3 *644:A2 *642:A1 0
4 *644:A2 *704:D 2.41274e-06
5 *644:A2 *704:DE 1.80647e-05
6 *644:A2 *357:193 7.50722e-05
7 *644:A2 *461:12 0.00015565
*RES
1 *642:Y *644:A2 35.2086 
*END

*D_NET *135 0.000458472
*CONN
*I *644:B1 I *D sky130_fd_sc_hd__o21ai_1
*I *643:Y O *D sky130_fd_sc_hd__nand2_1
*CAP
1 *644:B1 2.25666e-05
2 *643:Y 2.25666e-05
3 *644:B1 *643:B 0.000169728
4 *644:B1 *834:A 2.29454e-05
5 *644:B1 *182:18 0.000220665
*RES
1 *643:Y *644:B1 20.8855 
*END

*D_NET *136 0.000323331
*CONN
*I *647:A2 I *D sky130_fd_sc_hd__o21ai_1
*I *645:Y O *D sky130_fd_sc_hd__mux2i_1
*CAP
1 *647:A2 0.000115377
2 *645:Y 0.000115377
3 *647:A2 *702:D 6.64392e-05
4 *647:A2 *353:108 3.00174e-06
5 *647:A2 *357:175 2.31359e-05
*RES
1 *645:Y *647:A2 30.0537 
*END

*D_NET *137 0.00247862
*CONN
*I *647:B1 I *D sky130_fd_sc_hd__o21ai_1
*I *646:Y O *D sky130_fd_sc_hd__nand2_1
*CAP
1 *647:B1 0.000888067
2 *646:Y 0.000888067
3 *647:B1 *645:S 6.55832e-05
4 *647:B1 *646:A 2.41483e-05
5 *647:B1 *648:S 9.17389e-05
6 *647:B1 *649:A 0.000426726
7 *647:B1 *701:DE 0
8 *647:B1 *702:DE 3.09374e-06
9 *647:B1 *197:12 2.75449e-05
10 *647:B1 *197:26 6.36477e-05
11 *647:B1 *353:108 0
*RES
1 *646:Y *647:B1 46.5651 
*END

*D_NET *138 0.000760859
*CONN
*I *650:A2 I *D sky130_fd_sc_hd__o21ai_1
*I *648:Y O *D sky130_fd_sc_hd__mux2i_1
*CAP
1 *650:A2 0.000170394
2 *648:Y 0.000170394
3 *650:A2 *648:A1 8.16459e-05
4 *650:A2 *648:S 1.92172e-05
5 *650:A2 *650:A1 0.000319208
*RES
1 *648:Y *650:A2 24.2131 
*END

*D_NET *139 0.00167216
*CONN
*I *650:B1 I *D sky130_fd_sc_hd__o21ai_1
*I *649:Y O *D sky130_fd_sc_hd__nand2_1
*CAP
1 *650:B1 0.00053361
2 *649:Y 0.00053361
3 *650:B1 *648:S 0.000217053
4 *650:B1 *650:A1 0.000324682
5 *650:B1 *702:CLK 2.99929e-05
6 *650:B1 *357:128 3.20069e-06
7 *650:B1 *357:146 3.00073e-05
*RES
1 *649:Y *650:B1 38.0298 
*END

*D_NET *140 0.000870452
*CONN
*I *652:B1 I *D sky130_fd_sc_hd__a21oi_2
*I *651:Y O *D sky130_fd_sc_hd__nor2_4
*CAP
1 *652:B1 0.0002265
2 *651:Y 0.0002265
3 *652:B1 *651:A 0
4 *652:B1 *651:B 0.000196638
5 *652:B1 *278:16 2.22342e-05
6 *652:B1 *336:42 0.000129309
7 *652:B1 *357:96 6.92705e-05
*RES
1 *651:Y *652:B1 34.2062 
*END

*D_NET *141 0.000935298
*CONN
*I *654:A2 I *D sky130_fd_sc_hd__o21ai_1
*I *652:Y O *D sky130_fd_sc_hd__a21oi_2
*CAP
1 *654:A2 9.27507e-05
2 *652:Y 9.27507e-05
3 *654:A2 *652:A1 0.000211478
4 *654:A2 *654:A1 6.53312e-05
5 *654:A2 *700:D 0.000453753
6 *654:A2 *336:67 1.92337e-05
*RES
1 *652:Y *654:A2 23.6585 
*END

*D_NET *142 0.00201907
*CONN
*I *654:B1 I *D sky130_fd_sc_hd__o21ai_1
*I *653:Y O *D sky130_fd_sc_hd__nand2_1
*CAP
1 *654:B1 0.000458374
2 *653:Y 0.000458374
3 *654:B1 *653:B 0
4 *654:B1 *799:A 0.0002817
5 *654:B1 *180:17 1.83382e-05
6 *654:B1 *336:67 4.2372e-05
7 *654:B1 *353:96 0.000110297
8 *654:B1 *416:18 1.69932e-05
9 *654:B1 *419:88 0.000128104
10 *654:B1 *419:107 0.000161966
11 *15:10 *654:B1 0.000342548
*RES
1 *653:Y *654:B1 40.6094 
*END

*D_NET *143 0.00215459
*CONN
*I *657:A2 I *D sky130_fd_sc_hd__o21ai_1
*I *655:Y O *D sky130_fd_sc_hd__mux2i_1
*CAP
1 *657:A2 0.00025934
2 *655:Y 0.00025934
3 *657:A2 *655:A0 6.08467e-05
4 *657:A2 *155:12 7.92757e-06
5 *657:A2 *210:14 5.51742e-05
6 *657:A2 *304:31 0.000404747
7 *657:A2 *336:18 0.00109929
8 *657:A2 *357:79 7.92757e-06
*RES
1 *655:Y *657:A2 30.8684 
*END

*D_NET *144 0.00295548
*CONN
*I *657:B1 I *D sky130_fd_sc_hd__o21ai_1
*I *656:Y O *D sky130_fd_sc_hd__nand2_1
*CAP
1 *657:B1 0.00119922
2 *656:Y 0.00119922
3 *657:B1 *522:S 0
4 *657:B1 *715:D 5.49079e-06
5 *657:B1 *715:DE 3.37073e-06
6 *657:B1 *715:CLK 0.000322361
7 *657:B1 *808:A 0
8 *657:B1 *194:12 0.000196858
9 *657:B1 *357:71 2.8959e-05
*RES
1 *656:Y *657:B1 47.5167 
*END

*D_NET *145 0.000552819
*CONN
*I *660:A2 I *D sky130_fd_sc_hd__o21ai_1
*I *658:Y O *D sky130_fd_sc_hd__mux2i_1
*CAP
1 *660:A2 4.31135e-05
2 *658:Y 4.31135e-05
3 *660:A2 *660:A1 4.36818e-05
4 *660:A2 *660:B1 0.000161262
5 *660:A2 *417:33 0.000261648
*RES
1 *658:Y *660:A2 21.4401 
*END

*D_NET *146 0.0017368
*CONN
*I *660:B1 I *D sky130_fd_sc_hd__o21ai_1
*I *659:Y O *D sky130_fd_sc_hd__nand2_1
*CAP
1 *660:B1 0.000495855
2 *659:Y 0.000495855
3 *660:B1 *498:B 0.000133878
4 *660:B1 *658:A0 9.89388e-06
5 *660:B1 *659:A 1.32772e-05
6 *660:B1 *659:B 6.53364e-05
7 *660:B1 *660:A1 0.000110063
8 *660:B1 *661:A 4.2153e-05
9 *660:B1 *661:B 0.000137124
10 *660:B1 *662:B 4.57966e-05
11 *660:B1 *691:D 1.46564e-05
12 *660:B1 *691:CLK 0
13 *660:B1 *698:D 6.60481e-06
14 *660:B1 *822:A 5.04829e-06
15 *660:B1 *186:12 0
16 *660:A2 *660:B1 0.000161262
*RES
1 *659:Y *660:B1 41.8793 
*END

*D_NET *147 0.000483782
*CONN
*I *662:B I *D sky130_fd_sc_hd__xor2_1
*I *661:Y O *D sky130_fd_sc_hd__nand2_1
*CAP
1 *662:B 0.000139262
2 *661:Y 0.000139262
3 *662:B *498:A 1.2693e-05
4 *662:B *691:D 9.60366e-05
5 *662:B *691:CLK 5.07314e-05
6 *660:B1 *662:B 4.57966e-05
*RES
1 *661:Y *662:B 31.0235 
*END

*D_NET *148 0.000378344
*CONN
*I *664:A2 I *D sky130_fd_sc_hd__o21ai_1
*I *662:X O *D sky130_fd_sc_hd__xor2_1
*CAP
1 *664:A2 0.00010788
2 *662:X 0.00010788
3 *664:A2 *691:D 0.000162583
*RES
1 *662:X *664:A2 20.3309 
*END

*D_NET *149 0.000668724
*CONN
*I *664:B1 I *D sky130_fd_sc_hd__o21ai_1
*I *663:Y O *D sky130_fd_sc_hd__nand2_1
*CAP
1 *664:B1 0.000138523
2 *663:Y 0.000138523
3 *664:B1 *829:A 6.34651e-06
4 *664:B1 *357:45 7.95666e-05
5 *664:B1 *419:69 0.000305765
*RES
1 *663:Y *664:B1 33.0676 
*END

*D_NET *150 0.00137886
*CONN
*I *669:A2 I *D sky130_fd_sc_hd__a221o_1
*I *665:Y O *D sky130_fd_sc_hd__inv_1
*CAP
1 *669:A2 0.000383754
2 *665:Y 0.000383754
3 *669:A2 *671:B1 0
4 *669:A2 *678:A1 0
5 *669:A2 *679:A 0.000218601
6 *669:A2 *680:B1 6.0471e-05
7 *669:A2 *417:87 0.000226138
8 *669:A2 *451:18 4.17481e-05
9 *688:D *669:A2 6.43959e-05
*RES
1 *665:Y *669:A2 38.8062 
*END

*D_NET *151 0.00127576
*CONN
*I *668:A I *D sky130_fd_sc_hd__nor2_4
*I *666:Y O *D sky130_fd_sc_hd__inv_1
*CAP
1 *668:A 0.000454749
2 *666:Y 0.000454749
3 *668:A *671:A1 0
4 *668:A *671:A2 1.41291e-05
5 *668:A *678:B1 0
6 *668:A *859:A 6.64392e-05
7 *668:A *166:16 4.33504e-05
8 *668:A *192:30 1.40259e-05
9 *668:A *451:16 0.000228315
10 *689:D *668:A 0
11 *842:A *668:A 0
*RES
1 *666:Y *668:A 38.2627 
*END

*D_NET *152 0.00251926
*CONN
*I *671:A2 I *D sky130_fd_sc_hd__o21ai_0
*I *670:Y O *D sky130_fd_sc_hd__inv_1
*CAP
1 *671:A2 0.000640929
2 *670:Y 0.000640929
3 *671:A2 *671:B1 6.08467e-05
4 *671:A2 *677:A1 0.000277973
5 *671:A2 *678:A1 6.50586e-05
6 *671:A2 *859:A 9.17814e-05
7 *671:A2 *166:16 0.000116764
8 *671:A2 *436:14 0.000284097
9 *671:A2 *451:16 6.70291e-05
10 *668:A *671:A2 1.41291e-05
11 *842:A *671:A2 0.000259721
*RES
1 *670:Y *671:A2 44.938 
*END

*D_NET *153 0.000809858
*CONN
*I *678:A1 I *D sky130_fd_sc_hd__a21oi_2
*I *671:Y O *D sky130_fd_sc_hd__o21ai_0
*CAP
1 *678:A1 0.000183706
2 *671:Y 0.000183706
3 *678:A1 *671:B1 0.000165495
4 *678:A1 *677:A2 6.08467e-05
5 *678:A1 *678:A2 2.65667e-05
6 *678:A1 *678:B1 6.85662e-05
7 *678:A1 *417:87 0
8 *669:A2 *678:A1 0
9 *671:A2 *678:A1 6.50586e-05
10 *688:D *678:A1 1.77537e-06
11 *689:D *678:A1 5.41377e-05
*RES
1 *671:Y *678:A1 33.2686 
*END

*D_NET *154 0.000242363
*CONN
*I *676:C I *D sky130_fd_sc_hd__and4_4
*I *672:Y O *D sky130_fd_sc_hd__nor4_4
*CAP
1 *676:C 0.000102226
2 *672:Y 0.000102226
3 *676:C *672:A 1.83992e-05
4 *676:C *155:12 1.95129e-05
*RES
1 *672:Y *676:C 29.6384 
*END

*D_NET *155 0.00339997
*CONN
*I *676:A I *D sky130_fd_sc_hd__and4_4
*I *673:Y O *D sky130_fd_sc_hd__nor4_4
*CAP
1 *676:A 0
2 *673:Y 0.000834966
3 *155:12 0.000834966
4 *155:12 *477:B_N 0.000110099
5 *155:12 *655:A0 3.43397e-05
6 *155:12 *673:D 2.78372e-05
7 *155:12 *830:A 1.44611e-05
8 *155:12 *977:A 0.000219823
9 *155:12 *164:12 0.000144124
10 *155:12 *194:12 0.000233455
11 *155:12 *210:14 0.000115934
12 *155:12 *387:29 0.000116385
13 *482:A1 *155:12 0.000217486
14 *493:B1 *155:12 6.34746e-05
15 *495:A *155:12 7.26748e-05
16 *657:A2 *155:12 7.92757e-06
17 *676:C *155:12 1.95129e-05
18 *880:A *155:12 5.65671e-05
19 *5:10 *155:12 0.000275932
*RES
1 *673:Y *155:12 46.2743 
2 *155:12 *676:A 9.24915 
*END

*D_NET *156 0.0038799
*CONN
*I *676:B I *D sky130_fd_sc_hd__and4_4
*I *674:Y O *D sky130_fd_sc_hd__nor4_4
*CAP
1 *676:B 0.000407939
2 *674:Y 0.00108963
3 *156:14 0.00149757
4 *676:B *675:A 0
5 *676:B *675:D 0.000465832
6 *676:B *676:D 0.000144307
7 *676:B *163:12 0
8 *676:B *386:39 0
9 *676:B *394:62 0.00021378
10 *156:14 *610:A1 6.08467e-05
*RES
1 *674:Y *156:14 39.3034 
2 *156:14 *676:B 28.454 
*END

*D_NET *157 0.000736026
*CONN
*I *676:D I *D sky130_fd_sc_hd__and4_4
*I *675:Y O *D sky130_fd_sc_hd__nor4_4
*CAP
1 *676:D 0.00028315
2 *675:Y 0.00028315
3 *676:D *675:D 2.54188e-05
4 *676:B *676:D 0.000144307
*RES
1 *675:Y *676:D 34.6215 
*END

*D_NET *158 0.00696695
*CONN
*I *680:A2 I *D sky130_fd_sc_hd__o21ai_2
*I *677:A1 I *D sky130_fd_sc_hd__o21ai_4
*I *676:X O *D sky130_fd_sc_hd__and4_4
*CAP
1 *680:A2 0.000512681
2 *677:A1 0.000356685
3 *676:X 0.00142352
4 *158:10 0.00229289
5 *677:A1 *677:A2 0.000117376
6 *677:A1 *678:A2 0.00032044
7 *677:A1 *357:18 0.000272368
8 *680:A2 *680:A1 0.000122588
9 *680:A2 *680:B1 0.000208401
10 *680:A2 *357:18 8.72115e-06
11 *158:10 *566:A 2.08274e-05
12 *158:10 *566:B 0.000442903
13 *158:10 *956:A 2.58757e-05
14 *158:10 *960:A 9.50664e-05
15 *158:10 *436:14 5.41574e-05
16 *567:A *158:10 0.000107496
17 *671:A2 *677:A1 0.000277973
18 *690:D *680:A2 0.000137606
19 *842:A *677:A1 0.00014053
20 *842:A *680:A2 2.88443e-05
*RES
1 *676:X *158:10 44.9999 
2 *158:10 *677:A1 28.2131 
3 *158:10 *680:A2 24.6959 
*END

*D_NET *159 0.00118129
*CONN
*I *678:A2 I *D sky130_fd_sc_hd__a21oi_2
*I *677:Y O *D sky130_fd_sc_hd__o21ai_4
*CAP
1 *678:A2 0.000343762
2 *677:Y 0.000343762
3 *678:A2 *677:A2 6.26673e-05
4 *678:A2 *678:B1 7.97944e-05
5 *678:A2 *412:6 4.30017e-06
6 *677:A1 *678:A2 0.00032044
7 *678:A1 *678:A2 2.65667e-05
*RES
1 *677:Y *678:A2 28.1195 
*END

*D_NET *160 0.000887185
*CONN
*I *680:B1 I *D sky130_fd_sc_hd__o21ai_2
*I *679:Y O *D sky130_fd_sc_hd__nand2_1
*CAP
1 *680:B1 0.000255106
2 *679:Y 0.000255106
3 *680:B1 *665:A 8.65068e-05
4 *680:B1 *680:A1 2.15938e-05
5 *669:A2 *680:B1 6.0471e-05
6 *680:A2 *680:B1 0.000208401
*RES
1 *679:Y *680:B1 27.0103 
*END

*D_NET *161 0.000952756
*CONN
*I *681:B_N I *D sky130_fd_sc_hd__nor2b_1
*I *680:Y O *D sky130_fd_sc_hd__o21ai_2
*CAP
1 *681:B_N 0.000134497
2 *680:Y 0.000134497
3 *681:B_N *670:A 0.000127322
4 *681:B_N *678:B1 1.37421e-05
5 *681:B_N *681:A 0.000250717
6 *681:B_N *682:A1 7.26748e-05
7 *681:B_N *166:16 0.000113309
8 *681:B_N *436:14 0.000105998
*RES
1 *680:Y *681:B_N 34.3753 
*END

*D_NET *162 0.000637019
*CONN
*I *684:B I *D sky130_fd_sc_hd__xnor2_2
*I *683:Y O *D sky130_fd_sc_hd__nand2_4
*CAP
1 *684:B 0.000195844
2 *683:Y 0.000195844
3 *684:B *686:A1 0.00015901
4 *684:B *363:16 4.31603e-05
5 *565:B1 *684:B 4.31603e-05
*RES
1 *683:Y *684:B 31.5781 
*END

*D_NET *163 0.00291369
*CONN
*I *686:A2 I *D sky130_fd_sc_hd__o21ai_1
*I *684:Y O *D sky130_fd_sc_hd__xnor2_2
*CAP
1 *686:A2 0
2 *684:Y 0.000711175
3 *163:12 0.000711175
4 *163:12 *604:A 0.00010167
5 *163:12 *604:B 0.000154145
6 *163:12 *675:A 0.000122083
7 *163:12 *686:A1 0.000966173
8 *163:12 *165:18 0.000114799
9 *163:12 *394:62 0
10 *163:12 *406:20 3.24708e-05
11 *676:B *163:12 0
*RES
1 *684:Y *163:12 41.0153 
2 *163:12 *686:A2 9.24915 
*END

*D_NET *164 0.00414833
*CONN
*I *686:B1 I *D sky130_fd_sc_hd__o21ai_1
*I *685:Y O *D sky130_fd_sc_hd__nand2_1
*CAP
1 *686:B1 2.98574e-05
2 *685:Y 0.000776274
3 *164:12 0.000806131
4 *686:B1 *697:D 1.43832e-05
5 *164:12 *478:A 0
6 *164:12 *655:A0 0.000214604
7 *164:12 *673:D 0.000230777
8 *164:12 *685:A 3.14978e-05
9 *164:12 *977:A 1.12704e-05
10 *164:12 *194:12 9.21963e-05
11 *164:12 *339:10 0
12 *164:12 *357:92 7.02172e-06
13 *164:12 *404:16 0.0014247
14 *493:B1 *164:12 0.000263989
15 *880:A *164:12 5.85117e-05
16 *9:10 *164:12 4.2996e-05
17 *155:12 *164:12 0.000144124
*RES
1 *685:Y *164:12 49.4625 
2 *164:12 *686:B1 9.97254 
*END

*D_NET *165 0.0112492
*CONN
*P clk I
*I *924:A I *D sky130_fd_sc_hd__clkbuf_8
*CAP
1 clk 0.00511913
2 *924:A 0
3 *165:18 0.00511913
4 *165:18 *604:A 2.04266e-06
5 *165:18 *166:47 0.000694677
6 *165:18 *394:62 0.000127399
7 *165:18 *458:40 0
8 *564:C *165:18 7.20514e-05
9 *163:12 *165:18 0.000114799
*RES
1 clk *165:18 19.6569 
2 *165:18 *924:A 13.7491 
*END

*D_NET *418 0.0141235
*CONN
*I *920:A I *D sky130_fd_sc_hd__clkbuf_8
*I *921:A I *D sky130_fd_sc_hd__clkbuf_8
*I *922:A I *D sky130_fd_sc_hd__clkbuf_8
*I *923:A I *D sky130_fd_sc_hd__clkbuf_8
*I *924:X O *D sky130_fd_sc_hd__clkbuf_8
*CAP
1 *920:A 2.62411e-05
2 *921:A 0.000103083
3 *922:A 0
4 *923:A 7.55774e-05
5 *924:X 0
6 *418:93 0.000322923
7 *418:73 0.00102827
8 *418:61 0.00190801
9 *418:49 0.000437244
10 *418:31 0.00139478
11 *418:21 0.00416616
12 *418:17 0.00333738
13 *418:6 0.00024153
14 *923:A *454:36 6.54543e-05
15 *418:31 *522:S 0
16 *418:31 *673:D 0
17 *418:73 *721:DE 4.35313e-05
18 *418:73 *420:25 0
19 *418:93 *721:DE 1.93857e-05
20 *480:B *418:49 3.50129e-05
21 *491:A *418:49 2.59982e-05
22 *491:B *418:49 7.3644e-07
23 *543:B *920:A 4.99469e-05
24 *572:B *921:A 9.95542e-06
25 *591:A *418:73 9.60509e-05
26 *674:D *418:73 3.94881e-05
27 *709:D *418:73 5.45125e-05
28 *720:CLK *418:73 0.000144192
29 *872:A *418:49 0
30 *891:A *418:31 1.42238e-05
31 *891:A *418:49 0.000126856
32 *51:22 *418:17 4.75721e-06
33 *53:10 *418:93 1.44841e-05
34 *166:47 *418:17 3.69575e-05
35 *166:47 *418:93 9.92341e-06
36 *193:31 *418:31 3.28867e-05
37 *195:14 *418:49 6.46929e-05
38 *195:35 *418:49 2.52012e-05
39 *406:35 *920:A 4.58003e-05
40 *415:10 *921:A 6.1282e-05
41 *415:10 *418:73 2.94294e-05
42 *417:12 *418:31 3.15301e-05
*RES
1 *924:X *418:6 13.7491 
2 *418:6 *418:17 4.59461 
3 *418:17 *418:21 4.65631 
4 *418:21 *418:31 7.7784 
5 *418:31 *923:A 15.5817 
6 *418:21 *418:49 7.43071 
7 *418:49 *922:A 13.7491 
8 *418:17 *418:61 1.30777 
9 *418:61 *418:73 13.8966 
10 *418:73 *921:A 11.8413 
11 *418:61 *418:93 4.71981 
12 *418:93 *920:A 15.0271 
*END

*D_NET *417 0.0183493
*CONN
*I *697:CLK I *D sky130_fd_sc_hd__edfxtp_1
*I *714:CLK I *D sky130_fd_sc_hd__edfxtp_1
*I *691:CLK I *D sky130_fd_sc_hd__edfxtp_1
*I *690:CLK I *D sky130_fd_sc_hd__dfxtp_2
*I *688:CLK I *D sky130_fd_sc_hd__dfxtp_2
*I *689:CLK I *D sky130_fd_sc_hd__dfxtp_1
*I *698:CLK I *D sky130_fd_sc_hd__edfxtp_1
*I *713:CLK I *D sky130_fd_sc_hd__edfxtp_1
*I *707:CLK I *D sky130_fd_sc_hd__edfxtp_1
*I *715:CLK I *D sky130_fd_sc_hd__edfxtp_1
*I *923:X O *D sky130_fd_sc_hd__clkbuf_8
*CAP
1 *697:CLK 0.000701293
2 *714:CLK 3.63562e-05
3 *691:CLK 0.000427576
4 *690:CLK 0.000544757
5 *688:CLK 0
6 *689:CLK 0.000147656
7 *698:CLK 0
8 *713:CLK 0.000256588
9 *707:CLK 0.000945866
10 *715:CLK 0.000572732
11 *923:X 0
12 *417:87 0.000832561
13 *417:72 0.000506541
14 *417:63 0.000203496
15 *417:39 0.0012584
16 *417:37 0.000600051
17 *417:33 0.00133742
18 *417:31 0.00150584
19 *417:12 0.00190676
20 *417:4 0.00106399
21 *690:CLK *428:14 9.71541e-05
22 *697:CLK *697:DE 1.38948e-05
23 *697:CLK *454:36 8.20492e-06
24 *697:CLK *469:18 0.000158301
25 *707:CLK *524:S 0
26 *713:CLK *713:DE 3.42041e-05
27 *713:CLK *419:50 0.000151444
28 *715:CLK *522:S 0
29 *715:CLK *658:A1 3.8503e-05
30 *715:CLK *715:DE 0
31 *417:12 *418:31 3.15301e-05
32 *417:31 *419:50 2.15513e-05
33 *417:33 *658:A1 8.85759e-05
34 *417:33 *419:50 1.83827e-06
35 *417:37 *419:50 3.30656e-05
36 *417:63 *451:28 3.00174e-06
37 *417:72 *687:A0 0.000119367
38 *417:72 *451:28 5.35029e-05
39 *417:87 *679:A 0.000248602
40 *417:87 *687:A0 8.36586e-06
41 *417:87 *451:28 9.3294e-05
42 resp_msg[1] *715:CLK 3.67528e-06
43 *476:A *707:CLK 0.000231378
44 *479:A1 *417:31 3.0884e-05
45 *492:A2 *417:12 6.27782e-05
46 *497:A *715:CLK 4.98265e-05
47 *497:A *417:31 4.77168e-06
48 *500:A *715:CLK 1.61631e-05
49 *524:A1 *707:CLK 0
50 *567:B *697:CLK 0.000314979
51 *657:B1 *715:CLK 0.000322361
52 *660:A1 *417:33 1.90156e-05
53 *660:A2 *417:33 0.000261648
54 *660:B1 *691:CLK 0
55 *662:B *691:CLK 5.07314e-05
56 *669:A2 *417:87 0.000226138
57 *671:B1 *417:87 0
58 *673:A *697:CLK 6.49002e-05
59 *673:A *715:CLK 4.71444e-05
60 *673:A *417:12 0.000416431
61 *678:A1 *417:87 0
62 *688:D *690:CLK 1.87611e-05
63 *689:D *689:CLK 0.000115021
64 *689:D *417:87 0
65 *697:D *697:CLK 2.75239e-05
66 *707:D *707:CLK 4.75641e-05
67 *713:D *713:CLK 0.000187576
68 *714:D *417:31 4.96348e-05
69 *715:D *715:CLK 7.52398e-05
70 *808:A *715:CLK 0
71 *918:A *417:87 0.000153225
72 *963:A *697:CLK 0.000134976
73 *166:16 *690:CLK 0.000306928
74 *170:14 *691:CLK 0.000328019
75 *176:12 *697:CLK 2.41274e-06
76 *186:12 *691:CLK 0.000201734
77 *192:30 *691:CLK 2.86829e-05
78 *192:30 *417:37 8.75663e-05
79 *193:14 *417:12 2.63681e-05
80 *193:14 *417:31 4.82753e-05
81 *275:18 *697:CLK 0.000158834
82 *275:18 *417:31 2.41274e-06
83 *304:31 *715:CLK 0
84 *357:39 *417:33 7.98171e-06
85 *375:10 *697:CLK 0.000165481
*RES
1 *923:X *417:4 9.24915 
2 *417:4 *417:12 14.7109 
3 *417:12 *715:CLK 28.2491 
4 *417:12 *417:31 19.8113 
5 *417:31 *417:33 7.93324 
6 *417:33 *417:37 10.7694 
7 *417:37 *417:39 1.41674 
8 *417:39 *707:CLK 33.084 
9 *417:39 *713:CLK 21.6824 
10 *417:37 *417:63 2.6625 
11 *417:63 *698:CLK 13.7491 
12 *417:63 *417:72 2.6625 
13 *417:72 *689:CLK 17.2697 
14 *417:72 *417:87 15.4675 
15 *417:87 *688:CLK 9.24915 
16 *417:87 *690:CLK 31.6364 
17 *417:33 *691:CLK 31.0549 
18 *417:31 *714:CLK 10.2378 
19 *417:4 *697:CLK 38.2695 
*END

*D_NET *416 0.0154957
*CONN
*I *703:CLK I *D sky130_fd_sc_hd__edfxtp_1
*I *719:CLK I *D sky130_fd_sc_hd__edfxtp_1
*I *937:A I *D sky130_fd_sc_hd__clkbuf_1
*I *718:CLK I *D sky130_fd_sc_hd__edfxtp_1
*I *716:CLK I *D sky130_fd_sc_hd__edfxtp_1
*I *702:CLK I *D sky130_fd_sc_hd__edfxtp_1
*I *701:CLK I *D sky130_fd_sc_hd__edfxtp_1
*I *717:CLK I *D sky130_fd_sc_hd__edfxtp_1
*I *700:CLK I *D sky130_fd_sc_hd__edfxtp_1
*I *699:CLK I *D sky130_fd_sc_hd__edfxtp_1
*I *922:X O *D sky130_fd_sc_hd__clkbuf_8
*CAP
1 *703:CLK 0.000156048
2 *719:CLK 0.000153275
3 *937:A 0.000683395
4 *718:CLK 0
5 *716:CLK 3.59766e-05
6 *702:CLK 0.000304234
7 *701:CLK 0
8 *717:CLK 0
9 *700:CLK 0
10 *699:CLK 0.000220974
11 *922:X 0.000163962
12 *416:116 0.000480043
13 *416:97 0.00107441
14 *416:86 0.000266788
15 *416:53 0.000529825
16 *416:28 0.000743003
17 *416:26 0.000673451
18 *416:18 0.000754445
19 *416:10 0.000518133
20 *416:6 0.000315178
21 *703:CLK *518:S 0.00011815
22 *703:CLK *471:10 0.000141399
23 *719:CLK *485:A1 0.000396254
24 *416:18 *419:88 0.000115889
25 *416:18 *419:107 0.000165481
26 *416:97 *449:44 0.000223893
27 *416:116 *518:S 7.4002e-05
28 *416:116 *979:A 0
29 *416:116 *449:44 1.44611e-05
30 *416:116 *471:10 1.03594e-05
31 *481:B *937:A 5.74764e-05
32 *483:A *937:A 5.96576e-05
33 *483:B_N *937:A 0.000160617
34 *483:B_N *416:10 6.30278e-05
35 *483:B_N *416:18 0.000208021
36 *483:B_N *416:97 0.000102804
37 *484:B_N *416:26 3.75371e-05
38 *485:A2 *719:CLK 0.000395421
39 *485:B1_N *937:A 8.56367e-05
40 *487:B *937:A 0.000143461
41 *488:A *416:97 0.000127164
42 *518:A1 *703:CLK 6.34773e-05
43 *520:A1 *416:26 0.000226356
44 *535:C *937:A 4.31703e-05
45 *535:D *937:A 3.73148e-05
46 *537:A1 *416:6 6.54543e-05
47 *537:A1 *416:86 8.35605e-05
48 *537:A1 *416:97 1.88422e-05
49 *537:B1_N *416:6 6.3657e-05
50 *648:A1 *702:CLK 0.000152833
51 *649:A *702:CLK 5.22654e-06
52 *650:B1 *702:CLK 2.99929e-05
53 *654:B1 *416:18 1.69932e-05
54 *656:B *699:CLK 0
55 *700:D *699:CLK 3.0676e-05
56 *700:D *416:28 0.000196687
57 *700:DE *416:28 3.44641e-05
58 *701:DE *702:CLK 0.000191541
59 *701:DE *416:53 1.06426e-05
60 *811:A *416:26 6.92705e-05
61 *811:A *416:53 0.000195315
62 *878:A *416:10 1.3262e-05
63 *880:A *699:CLK 0
64 *885:A *937:A 0.000253916
65 *14:14 *937:A 0.000320494
66 *15:10 *416:10 5.14335e-05
67 *15:10 *416:18 0.000145875
68 *15:10 *416:26 3.0317e-05
69 *45:10 *937:A 1.41291e-05
70 *47:16 *416:6 0.000214102
71 *179:12 *416:28 1.83486e-05
72 *180:6 *702:CLK 1.84293e-05
73 *180:6 *416:53 0.000134045
74 *180:17 *416:18 0.000351993
75 *196:12 *416:28 2.7837e-05
76 *198:22 *719:CLK 5.01225e-05
77 *210:14 *699:CLK 0.000307535
78 *277:24 *416:28 1.41976e-05
79 *336:29 *416:28 0.000231298
80 *357:126 *416:26 0.000302686
81 *357:126 *416:53 0.000838111
82 *357:128 *702:CLK 0
83 *357:146 *702:CLK 0
84 *357:169 *702:CLK 4.75746e-05
85 *372:12 *937:A 4.58907e-05
86 *372:44 *937:A 0.000553764
87 *397:24 *416:6 9.52683e-05
88 *397:24 *416:86 8.86088e-05
89 *397:24 *416:97 1.7096e-05
*RES
1 *922:X *416:6 14.964 
2 *416:6 *416:10 7.57775 
3 *416:10 *416:18 18.4476 
4 *416:18 *416:26 15.1589 
5 *416:26 *416:28 14.5885 
6 *416:28 *699:CLK 24.6489 
7 *416:28 *700:CLK 9.24915 
8 *416:26 *717:CLK 9.24915 
9 *416:18 *416:53 11.285 
10 *416:53 *701:CLK 9.24915 
11 *416:53 *702:CLK 26.6913 
12 *416:10 *716:CLK 14.4725 
13 *416:6 *416:86 2.38721 
14 *416:86 *718:CLK 9.24915 
15 *416:86 *416:97 12.4537 
16 *416:97 *937:A 33.6666 
17 *416:97 *416:116 4.64105 
18 *416:116 *719:CLK 20.5973 
19 *416:116 *703:CLK 19.7337 
*END

*D_NET *415 0.0129066
*CONN
*I *693:CLK I *D sky130_fd_sc_hd__edfxtp_1
*I *938:A I *D sky130_fd_sc_hd__clkinv_2
*I *710:CLK I *D sky130_fd_sc_hd__edfxtp_1
*I *711:CLK I *D sky130_fd_sc_hd__edfxtp_1
*I *695:CLK I *D sky130_fd_sc_hd__edfxtp_1
*I *712:CLK I *D sky130_fd_sc_hd__edfxtp_1
*I *696:CLK I *D sky130_fd_sc_hd__edfxtp_1
*I *709:CLK I *D sky130_fd_sc_hd__edfxtp_1
*I *921:X O *D sky130_fd_sc_hd__clkbuf_8
*CAP
1 *693:CLK 0
2 *938:A 0
3 *710:CLK 0.000725003
4 *711:CLK 8.2324e-05
5 *695:CLK 0
6 *712:CLK 0.000104517
7 *696:CLK 0.000499372
8 *709:CLK 0.000110629
9 *921:X 0.000182202
10 *415:72 0.00118061
11 *415:63 0.000619284
12 *415:41 0.000967619
13 *415:39 0.0013494
14 *415:31 0.0013582
15 *415:23 0.000707569
16 *415:10 0.000381872
17 *696:CLK *420:8 0
18 *709:CLK *946:A 6.08467e-05
19 *710:CLK *710:DE 0.000295619
20 *415:10 *921:A 6.1282e-05
21 *415:10 *946:A 0.000162493
22 *415:10 *418:73 2.94294e-05
23 *415:10 *455:26 5.41227e-05
24 *415:31 *597:B 7.02133e-05
25 *415:39 *594:B 6.27782e-05
26 *415:39 *898:A 0.000110458
27 *415:39 *435:43 0.000293707
28 *415:72 *420:106 0
29 *502:B *696:CLK 0
30 *502:B *415:41 0
31 *505:A0 *415:72 0
32 *550:A *696:CLK 4.44489e-05
33 *558:C *415:23 3.587e-06
34 *558:D *415:10 3.78726e-05
35 *569:A *415:41 3.3443e-05
36 *569:A *415:63 0.000137468
37 *569:A *415:72 6.58661e-05
38 *572:A *415:23 1.37421e-05
39 *572:B *415:10 0.000366589
40 *582:A *710:CLK 0.000461395
41 *583:A_N *415:39 0.000298198
42 *591:A *415:10 5.79479e-06
43 *591:A *415:23 6.2071e-05
44 *594:C *415:39 4.38769e-05
45 *596:A1 *415:39 3.74146e-05
46 *596:A2 *415:39 0.000112361
47 *596:A3 *415:39 0.00015607
48 *599:A *709:CLK 0.000157107
49 *693:D *415:23 3.20264e-05
50 *693:DE *415:10 3.73224e-05
51 *693:DE *415:23 0.000133772
52 *693:DE *415:31 2.16355e-05
53 *695:D *415:39 7.28567e-06
54 *709:D *709:CLK 5.04829e-06
55 *807:A *415:41 4.74616e-05
56 *947:A *415:31 0.000223682
57 *172:20 *415:31 0.000468511
58 *360:37 *415:31 0.000377452
59 *392:16 *415:39 4.54876e-05
*RES
1 *921:X *415:10 21.2932 
2 *415:10 *709:CLK 16.691 
3 *415:10 *415:23 7.993 
4 *415:23 *415:31 18.5431 
5 *415:31 *415:39 25.382 
6 *415:39 *415:41 9.30653 
7 *415:41 *696:CLK 25.7244 
8 *415:41 *712:CLK 16.1364 
9 *415:39 *415:63 7.64553 
10 *415:63 *695:CLK 13.7491 
11 *415:63 *415:72 9.72179 
12 *415:72 *711:CLK 15.5817 
13 *415:72 *710:CLK 35.0189 
14 *415:31 *938:A 9.24915 
15 *415:23 *693:CLK 9.24915 
*END

*D_NET *414 0.0187792
*CONN
*I *706:CLK I *D sky130_fd_sc_hd__edfxtp_1
*I *705:CLK I *D sky130_fd_sc_hd__edfxtp_1
*I *721:CLK I *D sky130_fd_sc_hd__edfxtp_1
*I *704:CLK I *D sky130_fd_sc_hd__edfxtp_1
*I *708:CLK I *D sky130_fd_sc_hd__edfxtp_1
*I *692:CLK I *D sky130_fd_sc_hd__edfxtp_1
*I *694:CLK I *D sky130_fd_sc_hd__edfxtp_1
*I *939:A I *D sky130_fd_sc_hd__clkbuf_1
*I *722:CLK I *D sky130_fd_sc_hd__edfxtp_1
*I *720:CLK I *D sky130_fd_sc_hd__edfxtp_1
*I *920:X O *D sky130_fd_sc_hd__clkbuf_8
*CAP
1 *706:CLK 0.000290128
2 *705:CLK 0.00023925
3 *721:CLK 8.27845e-05
4 *704:CLK 0.000292319
5 *708:CLK 0.000257446
6 *692:CLK 0
7 *694:CLK 0.000981797
8 *939:A 0.000273412
9 *722:CLK 0
10 *720:CLK 0.000578961
11 *920:X 0
12 *414:116 0.00102985
13 *414:96 0.000464355
14 *414:94 0.00168803
15 *414:66 0.000272637
16 *414:53 0.00116036
17 *414:40 0.00057064
18 *414:31 0.000302435
19 *414:8 0.000835349
20 *414:4 0.00118612
21 *694:CLK *458:32 9.37171e-06
22 *704:CLK *634:A 0
23 *704:CLK *636:A1 0.000164842
24 *704:CLK *636:S 0.000125079
25 *704:CLK *704:DE 0.000726812
26 *705:CLK *705:DE 9.93106e-06
27 *706:CLK *706:DE 0.000117249
28 *706:CLK *458:137 8.16827e-05
29 *708:CLK *512:A2 0.000164708
30 *708:CLK *708:DE 0.000533727
31 *720:CLK *721:DE 2.0916e-05
32 *720:CLK *418:73 0.000144192
33 *939:A *605:S 2.20457e-05
34 *414:31 *708:DE 1.03594e-05
35 *414:31 *462:12 2.35619e-05
36 *414:40 *600:S 0
37 *414:40 *708:DE 0.000250425
38 *414:53 *600:S 0
39 *414:53 *708:DE 0.000249293
40 *414:53 *426:33 5.05252e-05
41 *414:66 *708:DE 5.92342e-05
42 *414:94 *615:A3 0.000669575
43 *414:94 *721:DE 0.000312337
44 *414:96 *704:DE 0.000190858
45 *414:116 *704:DE 0.00021363
46 *414:116 *458:137 0.000616428
47 *513:A0 *939:A 3.00835e-06
48 *513:A1 *939:A 6.50586e-05
49 *531:B *704:CLK 4.05936e-05
50 *543:B *720:CLK 9.62539e-05
51 *544:A *414:31 1.03594e-05
52 *544:A *414:40 0.000151093
53 *628:A2 *706:CLK 0.000102078
54 *628:A2 *414:116 3.92275e-05
55 *628:B1 *706:CLK 0.000113295
56 *630:A *414:116 0
57 *635:B *704:CLK 3.57378e-06
58 *642:A0 *704:CLK 0
59 *674:B *720:CLK 0.000153415
60 *674:B *414:31 0.000107259
61 *674:D *720:CLK 0.000636917
62 *704:D *704:CLK 8.92568e-06
63 *705:D *705:CLK 2.60014e-05
64 *706:D *706:CLK 0.000172729
65 *804:A *708:CLK 1.22289e-05
66 *858:A *414:116 0
67 *874:A *704:CLK 0.00010676
68 *965:A *414:8 1.41976e-05
69 *965:A *414:94 5.08751e-05
70 *41:20 *704:CLK 4.51176e-05
71 *41:20 *414:96 0.000178635
72 *41:20 *414:116 9.9277e-05
73 *53:10 *720:CLK 0
74 *55:22 *414:31 8.72115e-06
75 *166:47 *720:CLK 0.000284139
76 *166:47 *414:31 0.000189127
77 *173:26 *694:CLK 0.000282672
78 *185:10 *706:CLK 5.16122e-05
79 *231:14 *721:CLK 3.02534e-05
80 *272:14 *708:CLK 4.63204e-05
81 *272:14 *414:53 1.47102e-05
82 *272:14 *414:66 1.65078e-05
83 *377:18 *414:31 0.00011815
84 *406:35 *414:8 0.000207266
85 *406:41 *414:94 2.01653e-05
*RES
1 *920:X *414:4 9.24915 
2 *414:4 *414:8 6.88721 
3 *414:8 *720:CLK 30.0983 
4 *414:8 *414:31 6.39977 
5 *414:31 *722:CLK 13.7491 
6 *414:31 *414:40 4.73876 
7 *414:40 *939:A 18.2342 
8 *414:40 *414:53 4.73876 
9 *414:53 *694:CLK 29.3263 
10 *414:53 *414:66 1.00149 
11 *414:66 *692:CLK 13.7491 
12 *414:66 *708:CLK 23.8862 
13 *414:4 *414:94 15.2961 
14 *414:94 *414:96 3.70063 
15 *414:96 *704:CLK 27.2082 
16 *414:96 *721:CLK 15.5817 
17 *414:94 *414:116 15.3277 
18 *414:116 *705:CLK 17.6796 
19 *414:116 *706:CLK 23.5765 
*END

*D_NET *166 0.0103423
*CONN
*I *967:A I *D sky130_fd_sc_hd__buf_16
*I *859:A I *D sky130_fd_sc_hd__buf_12
*I *668:B I *D sky130_fd_sc_hd__nor2_4
*I *667:X O *D sky130_fd_sc_hd__or2_4
*CAP
1 *967:A 0
2 *859:A 3.12806e-05
3 *668:B 0
4 *667:X 0.00380163
5 *166:47 0.00305734
6 *166:16 0.000775567
7 *859:A *451:16 6.51811e-05
8 *166:16 *667:A 2.58757e-05
9 *166:16 *678:B1 9.51302e-05
10 *166:16 *682:A1 8.70662e-06
11 *166:16 *690:CLK 0.000306928
12 *166:16 *355:10 0.000178858
13 *166:16 *413:12 0
14 *166:47 *543:B 0
15 *166:47 *674:A 6.44185e-05
16 *166:47 *674:B 4.60375e-07
17 *166:47 *674:D 2.93917e-05
18 *166:47 *720:CLK 0.000284139
19 *166:47 *721:DE 8.78565e-06
20 *166:47 *414:31 0.000189127
21 *166:47 *418:17 3.69575e-05
22 *166:47 *418:93 9.92341e-06
23 *166:47 *457:28 6.5203e-05
24 *543:C *166:47 5.54585e-05
25 *564:C *166:47 1.17086e-05
26 *668:A *859:A 6.64392e-05
27 *668:A *166:16 4.33504e-05
28 *671:A2 *859:A 9.17814e-05
29 *671:A2 *166:16 0.000116764
30 *681:B_N *166:16 0.000113309
31 *842:A *166:16 0
32 *862:A *166:16 0
33 *945:A *166:47 3.2867e-05
34 *973:A *166:47 4.10737e-05
35 *49:22 *166:47 3.99861e-05
36 *53:10 *166:47 0
37 *86:19 *166:16 0
38 *165:18 *166:47 0.000694677
*RES
1 *667:X *166:16 39.6866 
2 *166:16 *668:B 9.24915 
3 *166:16 *859:A 11.6364 
4 *667:X *166:47 47.037 
5 *166:47 *967:A 9.24915 
*END

*D_NET *167 0.00205326
*CONN
*I *925:A I *D sky130_fd_sc_hd__buf_12
*I *926:A I *D sky130_fd_sc_hd__buf_12
*I *682:Y O *D sky130_fd_sc_hd__o21bai_4
*CAP
1 *925:A 9.98363e-05
2 *926:A 0
3 *682:Y 0.000701
4 *167:10 0.000800836
5 *925:A *419:8 5.49686e-05
6 *167:10 *809:A 3.13394e-05
7 *167:10 *819:A 2.02035e-05
8 *167:10 *267:12 0.000190998
9 *167:10 *419:8 0.000154075
*RES
1 *682:Y *167:10 29.3251 
2 *167:10 *926:A 13.7491 
3 *167:10 *925:A 16.8269 
*END

*D_NET *168 0.00158217
*CONN
*I *666:A I *D sky130_fd_sc_hd__inv_1
*I *918:A I *D sky130_fd_sc_hd__buf_4
*I *689:Q O *D sky130_fd_sc_hd__dfxtp_1
*CAP
1 *666:A 5.99752e-05
2 *918:A 0.000428735
3 *689:Q 0
4 *168:4 0.00048871
5 *666:A *687:A0 8.06286e-05
6 *666:A *192:30 7.8898e-05
7 *918:A *687:A0 2.8232e-05
8 *918:A *417:87 0.000153225
9 *918:A *451:28 0.000156823
10 *689:D *918:A 0.000106947
*RES
1 *689:Q *168:4 9.24915 
2 *168:4 *918:A 27.1811 
3 *168:4 *666:A 11.5821 
*END

*D_NET *169 0.00441769
*CONN
*I *568:B I *D sky130_fd_sc_hd__nand2b_1
*I *667:A I *D sky130_fd_sc_hd__or2_4
*I *917:A I *D sky130_fd_sc_hd__buf_4
*I *677:B1 I *D sky130_fd_sc_hd__o21ai_4
*I *690:Q O *D sky130_fd_sc_hd__dfxtp_2
*CAP
1 *568:B 0
2 *667:A 0.000349636
3 *917:A 5.81772e-05
4 *677:B1 0.000562083
5 *690:Q 0
6 *169:31 0.000536922
7 *169:23 0.000247493
8 *169:6 0.000680467
9 *667:A *574:A 0.000258002
10 *667:A *457:28 0.000157253
11 *677:B1 *693:DE 2.02035e-05
12 *677:B1 *960:A 0.000173175
13 *677:B1 *245:14 0
14 *677:B1 *353:8 0.000197492
15 *677:B1 *357:18 0
16 *677:B1 *436:14 0.000296396
17 *677:B1 *447:8 4.49959e-05
18 *677:B1 *451:16 0
19 *169:23 *436:14 0.000116454
20 *509:A1 *677:B1 4.29794e-05
21 *509:A1 *169:23 5.53934e-05
22 *590:B1 *667:A 3.61281e-05
23 *842:A *667:A 7.54728e-05
24 *944:A *667:A 6.36477e-05
25 *77:10 *169:23 5.04829e-06
26 *86:8 *917:A 7.92757e-06
27 *86:8 *169:23 3.38752e-05
28 *86:8 *169:31 0.000108224
29 *86:19 *667:A 0.000264366
30 *166:16 *667:A 2.58757e-05
*RES
1 *690:Q *169:6 13.7491 
2 *169:6 *677:B1 30.9805 
3 *169:6 *169:23 8.57382 
4 *169:23 *169:31 4.27406 
5 *169:31 *917:A 10.5271 
6 *169:31 *667:A 30.002 
7 *169:23 *568:B 9.24915 
*END

*D_NET *170 0.0033864
*CONN
*I *955:A I *D sky130_fd_sc_hd__buf_6
*I *476:A I *D sky130_fd_sc_hd__nor2b_4
*I *691:Q O *D sky130_fd_sc_hd__edfxtp_1
*CAP
1 *955:A 0
2 *476:A 0.000237702
3 *691:Q 0.000621057
4 *170:14 0.000858759
5 *476:A *524:A0 0.000190573
6 *476:A *524:S 0
7 *476:A *707:D 6.50586e-05
8 *476:A *707:CLK 0.000231378
9 *170:14 *524:A0 0.000134104
10 *170:14 *691:D 0.000137121
11 *170:14 *691:DE 8.75716e-05
12 *170:14 *691:CLK 0.000328019
13 *170:14 *304:31 4.23865e-05
14 *170:14 *336:18 0.000210967
15 *170:14 *446:6 1.05106e-05
16 *170:14 *446:19 0.000231191
*RES
1 *691:Q *170:14 30.0468 
2 *170:14 *476:A 27.3176 
3 *170:14 *955:A 9.24915 
*END

*D_NET *171 0.00174464
*CONN
*I *530:A I *D sky130_fd_sc_hd__xor2_1
*I *916:A I *D sky130_fd_sc_hd__buf_4
*I *692:Q O *D sky130_fd_sc_hd__edfxtp_1
*CAP
1 *530:A 0.000148587
2 *916:A 0.000246881
3 *692:Q 0.000214946
4 *171:6 0.000610414
5 *530:A *839:A 0.000106165
6 *530:A *187:14 0
7 *530:A *456:8 1.45944e-05
8 *916:A *839:A 4.58003e-05
9 *916:A *400:14 0.000127683
10 *916:A *456:8 5.3633e-05
11 *916:A *458:18 2.65831e-05
12 *171:6 *839:A 0.000149356
13 *621:A *530:A 0
*RES
1 *692:Q *171:6 13.0229 
2 *171:6 *916:A 23.4382 
3 *171:6 *530:A 22.9879 
*END

*D_NET *172 0.00813584
*CONN
*I *559:B I *D sky130_fd_sc_hd__nand2b_1
*I *561:A1 I *D sky130_fd_sc_hd__a21oi_1
*I *915:A I *D sky130_fd_sc_hd__buf_4
*I *693:Q O *D sky130_fd_sc_hd__edfxtp_1
*CAP
1 *559:B 0.000328646
2 *561:A1 0.000200682
3 *915:A 0.000412403
4 *693:Q 0.00135292
5 *172:35 0.000871348
6 *172:20 0.00210734
7 *559:B *508:B 0
8 *559:B *560:B 0.000109409
9 *559:B *173:26 3.12919e-05
10 *559:B *188:38 9.12416e-06
11 *559:B *394:14 0
12 *559:B *408:25 6.27718e-05
13 *561:A1 *506:A0 6.27718e-05
14 *561:A1 *561:B1 0.000114271
15 *561:A1 *173:26 3.91078e-05
16 *561:A1 *408:25 4.85806e-05
17 *915:A *551:B 1.07248e-05
18 *915:A *580:A2 0.000163982
19 *915:A *840:A 0.000118115
20 *915:A *191:40 4.33979e-05
21 *915:A *362:10 0.000225625
22 *172:20 *597:A 0.000349627
23 *172:20 *693:D 2.13454e-05
24 *172:20 *693:DE 1.49482e-05
25 *172:20 *902:A 0.000118136
26 *172:20 *361:12 0.000114659
27 *172:20 *391:16 2.56816e-05
28 *172:20 *415:31 0.000468511
29 *172:20 *420:44 2.80044e-05
30 *172:35 *552:A 0.000101865
31 *172:35 *552:B_N 0.000245753
32 *172:35 *840:A 4.7134e-05
33 *172:35 *273:14 0
34 *172:35 *360:10 0
35 *172:35 *362:10 1.37566e-05
36 *172:35 *408:25 4.06006e-05
37 *561:A2 *559:B 3.79023e-05
38 *562:A2 *559:B 1.67404e-05
39 *562:B1 *172:35 0
40 *571:A2 *915:A 9.22013e-06
41 *867:A *172:20 2.58616e-05
42 *868:A *172:20 6.55453e-05
43 *868:A *172:35 3.55432e-05
44 *947:A *915:A 7.36895e-06
45 *89:10 *915:A 3.51317e-05
*RES
1 *693:Q *172:20 48.5429 
2 *172:20 *915:A 26.3777 
3 *172:20 *172:35 14.9546 
4 *172:35 *561:A1 12.7456 
5 *172:35 *559:B 24.1676 
*END

*D_NET *173 0.00419668
*CONN
*I *914:A I *D sky130_fd_sc_hd__buf_4
*I *561:B1 I *D sky130_fd_sc_hd__a21oi_1
*I *694:Q O *D sky130_fd_sc_hd__edfxtp_1
*CAP
1 *914:A 0
2 *561:B1 9.38964e-05
3 *694:Q 0.000895575
4 *173:26 0.000989472
5 *173:26 *506:A0 6.27782e-05
6 *173:26 *694:D 0.000160486
7 *173:26 *694:DE 9.48555e-05
8 *173:26 *694:CLK 0.000282672
9 *173:26 *273:14 0.000134106
10 *173:26 *394:14 0.000462643
11 *173:26 *408:25 0.000224903
12 *173:26 *458:32 0.000150025
13 *559:B *173:26 3.12919e-05
14 *561:A1 *561:B1 0.000114271
15 *561:A1 *173:26 3.91078e-05
16 *561:A2 *561:B1 3.32903e-05
17 *561:A2 *173:26 0.000307799
18 *562:A2 *173:26 0.00010539
19 *562:B1 *561:B1 1.41181e-05
*RES
1 *694:Q *173:26 49.1361 
2 *173:26 *561:B1 12.2151 
3 *173:26 *914:A 9.24915 
*END

*D_NET *174 0.00135725
*CONN
*I *556:A I *D sky130_fd_sc_hd__nor2b_1
*I *555:B_N I *D sky130_fd_sc_hd__nor2b_1
*I *899:A I *D sky130_fd_sc_hd__buf_4
*I *695:Q O *D sky130_fd_sc_hd__edfxtp_1
*CAP
1 *556:A 0
2 *555:B_N 1.81593e-05
3 *899:A 0.000154992
4 *695:Q 0.000114704
5 *174:12 0.000273716
6 *174:6 0.000215268
7 *555:B_N *555:A 6.3657e-05
8 *899:A *555:A 9.32983e-05
9 *899:A *190:16 0.000164815
10 *586:B *174:12 0.000225158
11 *587:D1 *174:12 0
12 *66:12 *174:12 3.34802e-05
*RES
1 *695:Q *174:6 11.3591 
2 *174:6 *174:12 12.9083 
3 *174:12 *899:A 13.3002 
4 *174:12 *555:B_N 9.97254 
5 *174:6 *556:A 9.24915 
*END

*D_NET *175 0.00187236
*CONN
*I *913:A I *D sky130_fd_sc_hd__buf_4
*I *499:A I *D sky130_fd_sc_hd__inv_1
*I *551:A I *D sky130_fd_sc_hd__xnor2_1
*I *696:Q O *D sky130_fd_sc_hd__edfxtp_1
*CAP
1 *913:A 0
2 *499:A 6.6247e-05
3 *551:A 0.00023911
4 *696:Q 0.000350346
5 *175:23 0.000128786
6 *175:6 0.000651996
7 *551:A *573:A 8.91036e-05
8 *175:6 *590:A2 2.28502e-05
9 *578:B *175:23 0.0001195
10 *862:A *175:6 4.2273e-06
11 *945:A *175:6 4.89392e-05
12 *24:6 *499:A 5.83114e-05
13 *74:8 *499:A 2.48809e-05
14 *77:23 *175:23 4.92721e-05
15 *82:6 *551:A 1.73828e-05
16 *82:6 *175:6 1.4091e-06
*RES
1 *696:Q *175:6 14.1321 
2 *175:6 *551:A 15.0122 
3 *175:6 *175:23 11.2472 
4 *175:23 *499:A 10.7743 
5 *175:23 *913:A 9.24915 
*END

*D_NET *176 0.00295752
*CONN
*I *577:B I *D sky130_fd_sc_hd__maj3_2
*I *963:A I *D sky130_fd_sc_hd__buf_4
*I *697:Q O *D sky130_fd_sc_hd__edfxtp_1
*CAP
1 *577:B 0.000221129
2 *963:A 0.000125571
3 *697:Q 0.000428214
4 *176:12 0.000774914
5 *577:B *567:B 5.15789e-05
6 *577:B *675:C 0.000555196
7 *577:B *469:18 2.6953e-05
8 *963:A *566:B 6.08467e-05
9 *963:A *567:B 3.03152e-05
10 *963:A *697:CLK 0.000134976
11 *963:A *454:36 6.27782e-05
12 *963:A *469:18 0.000106523
13 *176:12 *567:B 2.01653e-05
14 *176:12 *675:A 0.000132621
15 *176:12 *697:CLK 2.41274e-06
16 *577:A *577:B 0.000217209
17 *86:47 *577:B 6.11359e-06
*RES
1 *697:Q *176:12 24.1803 
2 *176:12 *963:A 18.5884 
3 *176:12 *577:B 23.0522 
*END

*D_NET *177 0.00392306
*CONN
*I *478:A I *D sky130_fd_sc_hd__nor2b_2
*I *475:B I *D sky130_fd_sc_hd__nand2b_4
*I *911:A I *D sky130_fd_sc_hd__buf_4
*I *698:Q O *D sky130_fd_sc_hd__edfxtp_1
*CAP
1 *478:A 9.3108e-05
2 *475:B 0.000770019
3 *911:A 0
4 *698:Q 0.000329432
5 *177:10 0.00100634
6 *475:B *496:A 1.03594e-05
7 *475:B *523:A0 0.000224053
8 *475:B *714:D 0.000217951
9 *475:B *245:14 1.34424e-05
10 *475:B *353:8 4.71926e-05
11 *475:B *375:10 0.000411711
12 *478:A *477:A 6.98028e-05
13 *478:A *478:B_N 0.000111722
14 *478:A *178:29 5.22654e-06
15 *478:A *275:18 0.000177787
16 *478:A *339:10 9.04224e-05
17 *177:10 *496:A 0.000125036
18 *177:10 *658:A0 5.72516e-05
19 *177:10 *353:8 1.24817e-05
20 *177:10 *353:33 1.63652e-05
21 *881:A *475:B 2.16355e-05
22 *6:10 *475:B 0.000111722
23 *164:12 *478:A 0
*RES
1 *698:Q *177:10 19.7701 
2 *177:10 *911:A 13.7491 
3 *177:10 *475:B 31.8494 
4 *475:B *478:A 31.854 
*END

*D_NET *178 0.00763525
*CONN
*I *477:A I *D sky130_fd_sc_hd__nor2b_4
*I *910:A I *D sky130_fd_sc_hd__buf_4
*I *474:B I *D sky130_fd_sc_hd__and2b_2
*I *699:Q O *D sky130_fd_sc_hd__edfxtp_1
*CAP
1 *477:A 0.000250934
2 *910:A 2.9804e-05
3 *474:B 3.1899e-05
4 *699:Q 0.00162021
5 *178:29 0.000548674
6 *178:18 0.000462548
7 *178:16 0.00178293
8 *474:B resp_msg[15] 6.27718e-05
9 *477:A *478:B_N 0.00011581
10 *178:16 *480:B 2.53401e-05
11 *178:16 *489:B 1.00901e-05
12 *178:16 *651:A 0.000206553
13 *178:16 *653:B 0
14 *178:16 *699:DE 0
15 *178:16 *796:A 5.04054e-06
16 *178:16 *799:A 0.000255751
17 *178:16 *831:A 0.000347181
18 *178:16 *353:54 0
19 *178:18 *474:A_N 1.58551e-05
20 *178:18 *387:29 1.82679e-05
21 *178:29 *275:18 0.000129323
22 *478:A *477:A 6.98028e-05
23 *478:A *178:29 5.22654e-06
24 *479:A1 *474:B 2.08274e-05
25 *479:A1 *178:18 9.81626e-05
26 *479:A2 *178:29 0.0002751
27 *872:A *178:16 0.000208627
28 *5:10 *474:B 6.27718e-05
29 *5:10 *178:18 0.000438933
30 *6:10 *910:A 1.43848e-05
31 *6:10 *178:29 0.000176355
32 *9:10 *477:A 5.54078e-05
33 *9:10 *178:29 3.31736e-05
34 *10:10 *178:16 0.000257494
*RES
1 *699:Q *178:16 49.5399 
2 *178:16 *178:18 5.71483 
3 *178:18 *474:B 10.5271 
4 *178:18 *178:29 14.2218 
5 *178:29 *910:A 14.4725 
6 *178:29 *477:A 21.2048 
*END

*D_NET *179 0.004143
*CONN
*I *909:A I *D sky130_fd_sc_hd__buf_4
*I *901:A I *D sky130_fd_sc_hd__buf_4
*I *480:B I *D sky130_fd_sc_hd__and2b_1
*I *700:Q O *D sky130_fd_sc_hd__edfxtp_1
*CAP
1 *909:A 0
2 *901:A 0
3 *480:B 0.000830471
4 *700:Q 0.000277396
5 *179:14 0.000996446
6 *179:12 0.000443371
7 *480:B *480:A_N 9.6723e-05
8 *480:B *481:A_N 0.000144546
9 *480:B *195:35 0
10 *480:B *196:23 0
11 *480:B *278:16 0.000193358
12 *480:B *395:12 8.78204e-05
13 *480:B *418:49 3.50129e-05
14 *179:12 *651:B 3.20069e-06
15 *179:12 *654:A1 0.000137936
16 *179:12 *196:23 5.81816e-05
17 *179:12 *278:16 0
18 *179:12 *336:42 5.33266e-05
19 *179:12 *416:28 1.83486e-05
20 *482:A1 *480:B 1.65872e-05
21 *482:A2 *480:B 0.000263116
22 *491:A *480:B 5.50858e-05
23 *491:B *480:B 0
24 *534:A *480:B 4.23858e-05
25 *13:8 *480:B 0.000364342
26 *178:16 *480:B 2.53401e-05
*RES
1 *700:Q *179:12 24.8191 
2 *179:12 *179:14 3.49641 
3 *179:14 *480:B 41.4502 
4 *179:14 *901:A 9.24915 
5 *179:12 *909:A 9.24915 
*END

*D_NET *180 0.00710309
*CONN
*I *483:B_N I *D sky130_fd_sc_hd__or2b_1
*I *520:A0 I *D sky130_fd_sc_hd__mux2_4
*I *484:A I *D sky130_fd_sc_hd__or2b_1
*I *701:Q O *D sky130_fd_sc_hd__edfxtp_1
*CAP
1 *483:B_N 0.000537849
2 *520:A0 0
3 *484:A 0.000250497
4 *701:Q 0.00144711
5 *180:17 0.000717131
6 *180:6 0.00187689
7 *483:B_N *485:B1_N 0.000160617
8 *483:B_N *520:A1 1.07248e-05
9 *483:B_N *537:A1 1.93511e-06
10 *483:B_N *937:A 0.000160617
11 *483:B_N *979:A 6.74667e-05
12 *483:B_N *416:10 6.30278e-05
13 *483:B_N *416:18 0.000208021
14 *483:B_N *416:97 0.000102804
15 *483:B_N *419:107 0.000170541
16 *483:B_N *419:128 2.61647e-05
17 *484:A *520:A1 0.000105256
18 *180:6 *520:A1 2.65831e-05
19 *180:6 *701:D 0.000116507
20 *180:6 *701:DE 1.48504e-05
21 *180:6 *702:CLK 1.84293e-05
22 *180:6 *811:A 2.42138e-05
23 *180:6 *416:53 0.000134045
24 *180:17 *520:A1 0.000393892
25 *180:17 *811:A 1.32509e-05
26 *180:17 *416:18 0.000351993
27 *180:17 *419:88 2.57465e-06
28 *654:B1 *180:17 1.83382e-05
29 *15:10 *484:A 2.87868e-05
30 *47:16 *483:B_N 5.29763e-05
*RES
1 *701:Q *180:6 31.8794 
2 *180:6 *484:A 13.3002 
3 *180:6 *180:17 12.5608 
4 *180:17 *520:A0 13.7491 
5 *180:17 *483:B_N 31.9476 
*END

*D_NET *181 0.0051691
*CONN
*I *537:A1 I *D sky130_fd_sc_hd__a21boi_0
*I *903:A I *D sky130_fd_sc_hd__buf_4
*I *702:Q O *D sky130_fd_sc_hd__edfxtp_1
*CAP
1 *537:A1 0.00062463
2 *903:A 0
3 *702:Q 0.00127726
4 *181:12 0.00190189
5 *537:A1 *521:A1 0.000109421
6 *537:A1 *197:26 3.94136e-05
7 *537:A1 *353:108 6.27782e-05
8 *537:A1 *416:6 6.54543e-05
9 *537:A1 *416:86 8.35605e-05
10 *537:A1 *416:97 1.88422e-05
11 *537:A1 *419:107 0.000193478
12 *537:A1 *419:128 7.44696e-05
13 *537:A1 *449:44 0.000269489
14 *181:12 *521:A1 0
15 *181:12 *717:D 3.06126e-05
16 *181:12 *336:67 0.000296607
17 *181:12 *353:98 0.000119244
18 *181:12 *357:169 0
19 *483:B_N *537:A1 1.93511e-06
*RES
1 *702:Q *181:12 39.6569 
2 *181:12 *903:A 9.24915 
3 *181:12 *537:A1 33.6272 
*END

*D_NET *182 0.00523513
*CONN
*I *908:A I *D sky130_fd_sc_hd__buf_4
*I *609:B_N I *D sky130_fd_sc_hd__nor2b_1
*I *541:B1 I *D sky130_fd_sc_hd__a21oi_1
*I *610:A2 I *D sky130_fd_sc_hd__a31oi_4
*I *703:Q O *D sky130_fd_sc_hd__edfxtp_1
*CAP
1 *908:A 1.36629e-05
2 *609:B_N 0
3 *541:B1 0
4 *610:A2 0.000200672
5 *703:Q 0.000883973
6 *182:28 0.000601313
7 *182:22 0.000509637
8 *182:18 0.00100663
9 *610:A2 *940:A 0.000348915
10 *610:A2 *198:54 5.05252e-05
11 *610:A2 *462:12 0.000150147
12 *908:A *609:A 0
13 *182:18 *518:A1 1.10946e-05
14 *182:18 *609:A 4.24962e-05
15 *182:18 *642:A0 0.000124853
16 *182:18 *642:A1 0.000277502
17 *182:18 *643:A 2.57847e-05
18 *182:18 *643:B 1.92336e-05
19 *182:18 *644:A1 5.0715e-05
20 *182:18 *703:D 0
21 *182:18 *814:A 7.27864e-06
22 *182:18 *834:A 3.78018e-05
23 *182:18 *888:A 6.50586e-05
24 *182:18 *357:175 0
25 *182:18 *357:193 0
26 *182:18 *402:10 8.84743e-05
27 *182:22 *608:A 0
28 *182:22 *609:A 7.94847e-05
29 *182:28 *608:A 3.68808e-05
30 *182:28 *609:A 2.81515e-05
31 *539:A1 *182:28 5.4337e-05
32 *541:A1 *182:28 0.000111708
33 *610:B1 *182:22 0.000103943
34 *610:B1 *182:28 9.77611e-06
35 *641:A *182:18 6.50727e-05
36 *644:B1 *182:18 0.000220665
37 *969:A *610:A2 0
38 *45:27 *610:A2 9.34396e-06
*RES
1 *703:Q *182:18 42.9309 
2 *182:18 *182:22 4.62973 
3 *182:22 *182:28 7.28219 
4 *182:28 *610:A2 25.4794 
5 *182:28 *541:B1 9.24915 
6 *182:22 *609:B_N 9.24915 
7 *182:18 *908:A 9.82786 
*END

*D_NET *183 0.00548592
*CONN
*I *526:B I *D sky130_fd_sc_hd__xor2_1
*I *542:B I *D sky130_fd_sc_hd__nand2b_4
*I *611:A I *D sky130_fd_sc_hd__nor2b_1
*I *517:A0 I *D sky130_fd_sc_hd__mux2_4
*I *704:Q O *D sky130_fd_sc_hd__edfxtp_1
*CAP
1 *526:B 0
2 *542:B 0
3 *611:A 0.000179159
4 *517:A0 6.37121e-05
5 *704:Q 0.000635349
6 *183:33 0.000970931
7 *183:25 0.00135216
8 *183:10 0.00125945
9 *517:A0 *517:S 1.03403e-05
10 *611:A *527:A 0.000209312
11 *611:A *614:A3 1.33284e-05
12 *611:A *720:D 6.3657e-05
13 *611:A *378:12 0
14 *183:10 *517:A1 0.000114495
15 *183:10 *357:193 0
16 *183:25 resp_msg[7] 0
17 *183:25 *517:A1 2.13992e-05
18 *183:25 *517:S 0.000138523
19 *183:25 *801:A 0
20 *183:25 *835:A 6.27782e-05
21 *183:25 *231:14 0
22 *183:33 *612:B 1.4091e-06
23 *183:33 *427:24 3.01368e-06
24 *543:A *611:A 6.3657e-05
25 *543:A *183:33 3.67351e-05
26 *612:C *183:33 0.000231195
27 *613:A *183:33 7.92757e-06
28 *614:B2 *183:33 1.58844e-06
29 *36:8 *183:25 4.58003e-05
*RES
1 *704:Q *183:10 25.3105 
2 *183:10 *517:A0 15.0271 
3 *183:10 *183:25 16.8961 
4 *183:25 *183:33 13.8169 
5 *183:33 *611:A 23.6042 
6 *183:33 *542:B 9.24915 
7 *183:25 *526:B 9.24915 
*END

*D_NET *184 0.0031951
*CONN
*I *907:A I *D sky130_fd_sc_hd__buf_4
*I *525:A I *D sky130_fd_sc_hd__xor2_1
*I *514:A I *D sky130_fd_sc_hd__inv_1
*I *705:Q O *D sky130_fd_sc_hd__edfxtp_1
*CAP
1 *907:A 2.19858e-05
2 *525:A 0
3 *514:A 0.000222707
4 *705:Q 0.000262586
5 *184:12 0.000545687
6 *184:10 0.000607551
7 *514:A *516:A2 1.17054e-05
8 *514:A *517:S 2.844e-05
9 *514:A *525:B 0.000188637
10 *514:A *721:D 0.000109989
11 *514:A *200:10 2.95757e-05
12 *514:A *200:22 0.000437435
13 *514:A *406:70 4.44057e-05
14 *907:A *624:C 6.50586e-05
15 *184:10 *625:B 6.16146e-05
16 *184:12 *625:B 5.25819e-05
17 *516:A1 *514:A 3.92244e-05
18 *625:A *184:10 6.46135e-05
19 *625:A *184:12 0.000131065
20 *875:A *514:A 5.71992e-05
21 *875:A *184:12 0.000161318
22 *33:14 *514:A 5.17217e-05
*RES
1 *705:Q *184:10 19.0762 
2 *184:10 *184:12 9.72179 
3 *184:12 *514:A 23.6729 
4 *184:12 *525:A 13.7491 
5 *184:10 *907:A 14.4725 
*END

*D_NET *185 0.00955947
*CONN
*I *528:B I *D sky130_fd_sc_hd__nand2b_1
*I *527:A I *D sky130_fd_sc_hd__nor2b_1
*I *906:A I *D sky130_fd_sc_hd__buf_4
*I *706:Q O *D sky130_fd_sc_hd__edfxtp_1
*CAP
1 *528:B 4.83685e-06
2 *527:A 0.000887901
3 *906:A 0.000401021
4 *706:Q 0.00123643
5 *185:31 0.00143336
6 *185:10 0.00217808
7 *527:A *527:B_N 0.000199527
8 *527:A *528:A_N 6.45396e-05
9 *527:A *614:A2 0
10 *527:A *622:A 2.6874e-05
11 *527:A *888:A 2.74378e-05
12 *527:A *201:10 5.21914e-05
13 *527:A *378:12 0
14 *527:A *378:46 0
15 *906:A *512:A2 0.000217945
16 *906:A *632:A 3.82887e-05
17 *906:A *802:A 8.24982e-05
18 *906:A *803:A 0.000208374
19 *906:A *400:14 6.27782e-05
20 *185:10 *627:A 2.09463e-05
21 *185:10 *627:B 0.00035638
22 *185:10 *632:A 7.44417e-05
23 *185:10 *706:D 4.71357e-05
24 *185:10 *706:DE 1.30969e-05
25 *185:10 *706:CLK 5.16122e-05
26 *185:31 *511:B 0.000166087
27 *185:31 *621:B 3.51113e-05
28 *185:31 *626:A0 0.000376135
29 *185:31 *626:A1 0.000152269
30 *185:31 *631:A1 1.1246e-05
31 *185:31 *187:14 0
32 *546:A2 *527:A 0.000549493
33 *611:A *527:A 0.000209312
34 *621:A *185:31 7.41203e-05
35 *628:B1 *185:10 6.27718e-05
36 *633:B1 *185:10 0.000157107
37 *860:A *185:31 0
38 *40:10 *185:31 3.25307e-05
39 *116:8 *527:A 0
40 *121:6 *527:A 4.75043e-05
41 *121:6 *528:B 8.61693e-08
*RES
1 *706:Q *185:10 32.6269 
2 *185:10 *906:A 21.1611 
3 *185:10 *185:31 26.2696 
4 *185:31 *527:A 44.0526 
5 *185:31 *528:B 9.42397 
*END

*D_NET *186 0.00148227
*CONN
*I *905:A I *D sky130_fd_sc_hd__buf_4
*I *476:B_N I *D sky130_fd_sc_hd__nor2b_4
*I *707:Q O *D sky130_fd_sc_hd__edfxtp_1
*CAP
1 *905:A 1.81593e-05
2 *476:B_N 9.27657e-05
3 *707:Q 0.000335444
4 *186:12 0.000446369
5 *186:12 *661:B 0
6 *186:12 *691:CLK 0.000201734
7 *660:B1 *186:12 0
8 *7:10 *476:B_N 0.000324137
9 *7:10 *905:A 6.3657e-05
*RES
1 *707:Q *186:12 25.789 
2 *186:12 *476:B_N 12.7456 
3 *186:12 *905:A 9.97254 
*END

*D_NET *187 0.00190715
*CONN
*I *954:A I *D sky130_fd_sc_hd__buf_4
*I *530:B I *D sky130_fd_sc_hd__xor2_1
*I *708:Q O *D sky130_fd_sc_hd__edfxtp_1
*CAP
1 *954:A 2.1308e-05
2 *530:B 5.35438e-05
3 *708:Q 0.000638918
4 *187:14 0.00071377
5 *530:B *904:A 0.000100752
6 *187:14 resp_msg[9] 0
7 *187:14 *511:B 0
8 *187:14 *904:A 6.88361e-05
9 *530:A *187:14 0
10 *621:A *187:14 7.80575e-05
11 *40:10 *530:B 6.64392e-05
12 *40:10 *187:14 0.000165521
13 *185:31 *187:14 0
*RES
1 *708:Q *187:14 33.2957 
2 *187:14 *530:B 11.6364 
3 *187:14 *954:A 9.82786 
*END

*D_NET *188 0.00825829
*CONN
*I *560:B I *D sky130_fd_sc_hd__nor2_1
*I *559:A_N I *D sky130_fd_sc_hd__nand2b_1
*I *902:A I *D sky130_fd_sc_hd__buf_4
*I *605:A0 I *D sky130_fd_sc_hd__mux2i_1
*I *709:Q O *D sky130_fd_sc_hd__edfxtp_1
*CAP
1 *560:B 9.6906e-05
2 *559:A_N 0
3 *902:A 0.000754523
4 *605:A0 3.15893e-05
5 *709:Q 0.000678855
6 *188:38 0.000299511
7 *188:27 0.00198986
8 *188:14 0.00174318
9 *560:B *189:12 5.03545e-06
10 *560:B *273:14 5.86645e-05
11 *605:A0 *271:18 3.82228e-05
12 *902:A *549:A 6.16567e-05
13 *902:A *551:B 0
14 *902:A *273:14 7.31596e-05
15 *902:A *361:12 0.00016809
16 *902:A *362:10 0
17 *902:A *386:14 0.000338222
18 *188:14 *675:D 0.000380222
19 *188:14 *391:16 1.80042e-05
20 *188:14 *398:14 3.20688e-05
21 *188:27 *591:A 4.31703e-05
22 *188:27 *827:A 1.96819e-05
23 *188:27 *391:16 0.000534345
24 *188:38 *273:14 1.76124e-05
25 *509:B1 *188:38 0
26 *558:B *902:A 2.36734e-05
27 *558:C *902:A 0
28 *559:B *560:B 0.000109409
29 *559:B *188:38 9.12416e-06
30 *591:B *188:27 1.58551e-05
31 *607:A2 *605:A0 6.50586e-05
32 *607:A2 *188:27 0.000160617
33 *855:A *902:A 0
34 *867:A *902:A 5.41377e-05
35 *867:A *188:38 8.89094e-05
36 *869:A *902:A 2.69541e-05
37 *63:8 *188:38 0.000203833
38 *172:20 *902:A 0.000118136
*RES
1 *709:Q *188:14 33.0255 
2 *188:14 *605:A0 10.5271 
3 *188:14 *188:27 21.1863 
4 *188:27 *902:A 34.6827 
5 *188:27 *188:38 5.98452 
6 *188:38 *559:A_N 13.7491 
7 *188:38 *560:B 16.8269 
*END

*D_NET *189 0.000890231
*CONN
*I *900:A I *D sky130_fd_sc_hd__buf_4
*I *560:A I *D sky130_fd_sc_hd__nor2_1
*I *710:Q O *D sky130_fd_sc_hd__edfxtp_1
*CAP
1 *900:A 3.33822e-05
2 *560:A 0
3 *710:Q 0.000319237
4 *189:12 0.000352619
5 *189:12 *273:14 6.04569e-05
6 *560:B *189:12 5.03545e-06
7 *588:A *189:12 0.0001195
*RES
1 *710:Q *189:12 25.789 
2 *189:12 *560:A 9.24915 
3 *189:12 *900:A 9.97254 
*END

*D_NET *190 0.00238097
*CONN
*I *931:A I *D sky130_fd_sc_hd__buf_6
*I *555:A I *D sky130_fd_sc_hd__nor2b_1
*I *556:B_N I *D sky130_fd_sc_hd__nor2b_1
*I *711:Q O *D sky130_fd_sc_hd__edfxtp_1
*CAP
1 *931:A 0
2 *555:A 0.000145644
3 *556:B_N 8.17727e-05
4 *711:Q 0.00026309
5 *190:16 0.000375208
6 *190:10 0.000410882
7 *556:B_N *425:10 0.00026694
8 *190:10 *506:S 0.000121059
9 *190:16 *506:S 3.00174e-06
10 *190:16 *425:10 5.22672e-05
11 *190:16 *448:31 6.34204e-05
12 *555:B_N *555:A 6.3657e-05
13 *586:B *556:B_N 0.00026694
14 *899:A *555:A 9.32983e-05
15 *899:A *190:16 0.000164815
16 *66:12 *555:A 8.97566e-06
*RES
1 *711:Q *190:10 19.0762 
2 *190:10 *190:16 8.9951 
3 *190:16 *556:B_N 22.9879 
4 *190:16 *555:A 12.7697 
5 *190:10 *931:A 13.7491 
*END

*D_NET *191 0.00462428
*CONN
*I *892:A I *D sky130_fd_sc_hd__buf_4
*I *551:B I *D sky130_fd_sc_hd__xnor2_1
*I *896:A I *D sky130_fd_sc_hd__buf_4
*I *564:B I *D sky130_fd_sc_hd__maj3_1
*I *712:Q O *D sky130_fd_sc_hd__edfxtp_1
*CAP
1 *892:A 3.60903e-05
2 *551:B 0.000233712
3 *896:A 0
4 *564:B 0.000525105
5 *712:Q 0
6 *191:40 0.000946995
7 *191:23 0.000759978
8 *191:4 0.000607889
9 *551:B *549:A 0.000161535
10 *564:B *590:A1 6.46815e-05
11 *564:B *712:D 2.41274e-06
12 *564:B *448:10 6.63276e-05
13 *892:A *507:A 0.000167076
14 *191:40 *578:A 2.07365e-05
15 *191:40 *435:43 0.000113968
16 *564:A *564:B 6.27718e-05
17 *564:C *564:B 4.06852e-05
18 *902:A *551:B 0
19 *915:A *551:B 1.07248e-05
20 *915:A *191:40 4.33979e-05
21 *927:A *892:A 4.0752e-05
22 *932:A *892:A 0.00027329
23 *932:A *191:40 0.000340742
24 *77:31 *564:B 0
25 *79:10 *551:B 9.08044e-05
26 *79:23 *551:B 1.46079e-05
*RES
1 *712:Q *191:4 9.24915 
2 *191:4 *564:B 28.4711 
3 *191:4 *191:23 2.10991 
4 *191:23 *896:A 9.24915 
5 *191:23 *191:40 17.534 
6 *191:40 *551:B 20.9794 
7 *191:40 *892:A 16.691 
*END

*D_NET *192 0.00462581
*CONN
*I *576:A I *D sky130_fd_sc_hd__inv_1
*I *895:A I *D sky130_fd_sc_hd__buf_6
*I *713:Q O *D sky130_fd_sc_hd__edfxtp_1
*CAP
1 *576:A 0.000190247
2 *895:A 0
3 *713:Q 0.000839391
4 *192:34 0.000326769
5 *192:30 0.000975913
6 *576:A *389:6 0.000136829
7 *192:30 *523:S 0.000364356
8 *192:30 *687:A0 0.00038807
9 *192:30 *691:CLK 2.86829e-05
10 *192:30 *959:A 6.27782e-05
11 *192:30 *405:8 0.000110458
12 *192:30 *417:37 8.75663e-05
13 *192:30 *419:50 1.88972e-05
14 *192:30 *454:36 0.000387855
15 *192:34 *245:14 5.66868e-06
16 *192:34 *428:54 0.000358619
17 *192:34 *451:16 5.92342e-05
18 *666:A *192:30 7.8898e-05
19 *668:A *192:30 1.40259e-05
20 *689:D *192:30 0
21 *842:A *192:30 0
22 *881:A *192:34 0.000191556
*RES
1 *713:Q *192:30 48.6855 
2 *192:30 *192:34 10.8998 
3 *192:34 *895:A 9.24915 
4 *192:34 *576:A 14.0658 
*END

*D_NET *193 0.00286356
*CONN
*I *478:B_N I *D sky130_fd_sc_hd__nor2b_2
*I *475:A_N I *D sky130_fd_sc_hd__nand2b_4
*I *941:A I *D sky130_fd_sc_hd__buf_4
*I *714:Q O *D sky130_fd_sc_hd__edfxtp_1
*CAP
1 *478:B_N 0.000459054
2 *475:A_N 2.59154e-05
3 *941:A 2.59404e-05
4 *714:Q 0.000167602
5 *193:31 0.000821073
6 *193:14 0.000529646
7 *475:A_N *375:10 6.50727e-05
8 *478:B_N *566:B 5.30145e-05
9 *478:B_N *673:A 1.65872e-05
10 *478:B_N *339:10 1.65872e-05
11 *478:B_N *389:6 2.16355e-05
12 *478:B_N *428:54 0
13 *478:B_N *454:36 0.000126537
14 *478:B_N *469:18 6.08467e-05
15 *941:A *894:A 6.08467e-05
16 *193:14 *497:A 1.0406e-05
17 *193:14 *417:12 2.63681e-05
18 *193:14 *417:31 4.82753e-05
19 *193:31 *673:A 0
20 *193:31 *418:31 3.28867e-05
21 *193:31 *428:54 0
22 *193:31 *454:36 6.77389e-05
23 *477:A *478:B_N 0.00011581
24 *478:A *478:B_N 0.000111722
*RES
1 *714:Q *193:14 18.1768 
2 *193:14 *941:A 14.4725 
3 *193:14 *193:31 8.4516 
4 *193:31 *475:A_N 14.4725 
5 *193:31 *478:B_N 26.2846 
*END

*D_NET *194 0.00477741
*CONN
*I *477:B_N I *D sky130_fd_sc_hd__nor2b_4
*I *893:A I *D sky130_fd_sc_hd__buf_6
*I *715:Q O *D sky130_fd_sc_hd__edfxtp_1
*CAP
1 *477:B_N 0.000624108
2 *893:A 5.82718e-05
3 *715:Q 0.00038848
4 *194:12 0.00107086
5 *477:B_N *533:C1 0
6 *477:B_N *655:A0 0.000111722
7 *477:B_N *958:A 6.70767e-05
8 *477:B_N *353:50 2.41483e-05
9 *477:B_N *387:29 0.000116385
10 *893:A *655:A0 6.08467e-05
11 *893:A *958:A 5.481e-05
12 *893:A *353:50 3.31745e-05
13 *194:12 resp_msg[15] 0
14 *194:12 *655:A0 0.000186445
15 *194:12 *656:B 0
16 *194:12 *795:A 0
17 *194:12 *830:A 2.28945e-05
18 *194:12 *404:16 4.3116e-06
19 *482:A1 *477:B_N 0.00021548
20 *657:B1 *194:12 0.000196858
21 *880:A *477:B_N 0.000173791
22 *5:10 *477:B_N 0.000279424
23 *8:8 *477:B_N 0.000652568
24 *155:12 *477:B_N 0.000110099
25 *155:12 *194:12 0.000233455
26 *164:12 *194:12 9.21963e-05
*RES
1 *715:Q *194:12 30.0808 
2 *194:12 *893:A 11.0817 
3 *194:12 *477:B_N 40.1074 
*END

*D_NET *195 0.00780568
*CONN
*I *481:B I *D sky130_fd_sc_hd__nand2b_1
*I *480:A_N I *D sky130_fd_sc_hd__and2b_1
*I *891:A I *D sky130_fd_sc_hd__buf_4
*I *716:Q O *D sky130_fd_sc_hd__edfxtp_1
*CAP
1 *481:B 0.000183023
2 *480:A_N 0.000522
3 *891:A 0.000316943
4 *716:Q 0.00157262
5 *195:35 0.000920594
6 *195:14 0.00210513
7 *481:B *481:A_N 0
8 *481:B *535:C 2.84682e-05
9 *481:B *937:A 5.74764e-05
10 *481:B *372:44 0.000275627
11 *481:B *397:24 5.50458e-05
12 *891:A *493:A1 5.04829e-06
13 *891:A *672:A 6.93477e-05
14 *891:A *277:24 2.77625e-06
15 *891:A *418:31 1.42238e-05
16 *891:A *418:49 0.000126856
17 *195:14 *645:A0 3.09311e-05
18 *195:14 *703:DE 1.5714e-05
19 *195:14 *718:D 4.12684e-05
20 *195:14 *418:49 6.46929e-05
21 *195:14 *419:128 0.000251264
22 *195:14 *449:16 0
23 *195:35 *489:B 0
24 *195:35 *397:24 8.01741e-05
25 *195:35 *418:49 2.52012e-05
26 *480:B *480:A_N 9.6723e-05
27 *480:B *195:35 0
28 *482:A1 *480:A_N 0.000107496
29 *482:A2 *480:A_N 8.95863e-05
30 *495:A *891:A 3.60363e-05
31 *533:A2 *195:35 0
32 *534:A *480:A_N 0.000107496
33 *535:B *481:B 0.000116986
34 *535:B *195:35 0.000165495
35 *535:D *481:B 0
36 *10:10 *891:A 4.00002e-05
37 *13:8 *480:A_N 7.34948e-06
38 *45:10 *481:B 0.000144895
39 *48:10 *480:A_N 0.000115934
40 *48:10 *481:B 1.32509e-05
*RES
1 *716:Q *195:14 26.5408 
2 *195:14 *891:A 20.3538 
3 *195:14 *195:35 9.56093 
4 *195:35 *480:A_N 26.2974 
5 *195:35 *481:B 21.3474 
*END

*D_NET *196 0.00679316
*CONN
*I *648:A0 I *D sky130_fd_sc_hd__mux2i_1
*I *483:A I *D sky130_fd_sc_hd__or2b_1
*I *885:A I *D sky130_fd_sc_hd__buf_4
*I *484:B_N I *D sky130_fd_sc_hd__or2b_1
*I *717:Q O *D sky130_fd_sc_hd__edfxtp_1
*CAP
1 *648:A0 0.000100969
2 *483:A 0.000310288
3 *885:A 8.85059e-05
4 *484:B_N 0.000125032
5 *717:Q 0
6 *196:23 0.00100825
7 *196:12 0.00173225
8 *196:4 0.00109874
9 *483:A *487:B 6.64609e-05
10 *483:A *937:A 5.96576e-05
11 *483:A *197:39 7.14746e-05
12 *483:A *372:44 0.000158451
13 *484:B_N *653:B 2.77419e-05
14 *484:B_N *654:A1 0.000225466
15 *484:B_N *416:26 3.75371e-05
16 *648:A0 *648:A1 3.75603e-05
17 *648:A0 *650:A1 1.51406e-05
18 *885:A *487:B 6.08467e-05
19 *885:A *937:A 0.000253916
20 *196:12 *650:A1 4.152e-06
21 *196:12 *717:D 0.000124615
22 *196:12 *416:28 2.7837e-05
23 *196:23 *487:B 2.95757e-05
24 *196:23 *490:A 0.0001195
25 *196:23 *654:A1 0.000120334
26 *196:23 *197:26 0.000371706
27 *196:23 *197:39 0.000351476
28 *196:23 *353:96 0
29 *196:23 *395:12 0
30 *480:B *196:23 0
31 *538:A2 *196:23 0
32 *14:14 *483:A 0.000107496
33 *15:10 *484:B_N 0
34 *15:10 *196:23 0
35 *179:12 *196:23 5.81816e-05
*RES
1 *717:Q *196:4 9.24915 
2 *196:4 *196:12 19.368 
3 *196:12 *484:B_N 18.2803 
4 *196:12 *196:23 18.6497 
5 *196:23 *885:A 16.691 
6 *196:23 *483:A 19.7715 
7 *196:4 *648:A0 11.6484 
*END

*D_NET *197 0.00773888
*CONN
*I *882:A I *D sky130_fd_sc_hd__buf_4
*I *980:A I *D sky130_fd_sc_hd__buf_6
*I *536:A I *D sky130_fd_sc_hd__and2_1
*I *537:B1_N I *D sky130_fd_sc_hd__a21boi_0
*I *718:Q O *D sky130_fd_sc_hd__edfxtp_1
*CAP
1 *882:A 0
2 *980:A 0.000166822
3 *536:A 8.65271e-05
4 *537:B1_N 1.09091e-05
5 *718:Q 0.00031164
6 *197:39 0.000612088
7 *197:26 0.00200279
8 *197:12 0.00194478
9 *536:A *890:A 2.9083e-05
10 *537:B1_N *397:24 6.3657e-05
11 *537:B1_N *416:6 6.3657e-05
12 *980:A *485:A1 1.41976e-05
13 *980:A *485:A2 4.34012e-05
14 *197:12 *645:S 0.000193358
15 *197:12 *843:A 5.27799e-05
16 *197:12 *876:A 4.92017e-06
17 *197:26 *521:A0 7.35585e-05
18 *197:26 *521:A1 2.99747e-05
19 *197:26 *521:S 6.55312e-05
20 *197:26 *647:A1 5.90836e-05
21 *197:26 *702:D 2.1389e-05
22 *197:26 *353:108 1.13953e-05
23 *197:26 *357:169 0.000176634
24 *197:26 *397:10 1.83992e-05
25 *197:39 *487:B 2.39566e-05
26 *197:39 *372:8 5.08824e-05
27 *197:39 *372:44 2.56232e-05
28 *197:39 *373:10 1.75816e-05
29 *483:A *197:39 7.14746e-05
30 *536:B *536:A 0.00016386
31 *537:A1 *197:26 3.94136e-05
32 *647:B1 *197:12 2.75449e-05
33 *647:B1 *197:26 6.36477e-05
34 *14:14 *536:A 6.27718e-05
35 *14:14 *980:A 0.000250415
36 *15:10 *197:26 0
37 *46:8 *536:A 0.000161956
38 *196:23 *197:26 0.000371706
39 *196:23 *197:39 0.000351476
*RES
1 *718:Q *197:12 25.789 
2 *197:12 *197:26 34.2019 
3 *197:26 *537:B1_N 14.4725 
4 *197:26 *197:39 15.0523 
5 *197:39 *536:A 12.7697 
6 *197:39 *980:A 13.8789 
7 *197:12 *882:A 9.24915 
*END

*D_NET *198 0.00926206
*CONN
*I *940:A I *D sky130_fd_sc_hd__buf_4
*I *539:B1_N I *D sky130_fd_sc_hd__a21boi_1
*I *540:C1 I *D sky130_fd_sc_hd__a211oi_2
*I *887:A I *D sky130_fd_sc_hd__buf_4
*I *719:Q O *D sky130_fd_sc_hd__edfxtp_1
*CAP
1 *940:A 0.000305652
2 *539:B1_N 0.000115992
3 *540:C1 5.56074e-05
4 *887:A 1.47608e-05
5 *719:Q 0.00117822
6 *198:54 0.000594324
7 *198:37 0.000407462
8 *198:26 0.000227064
9 *198:22 0.00121135
10 *540:C1 *639:A 5.36868e-05
11 *887:A *672:B 6.08467e-05
12 *887:A *672:D 6.08467e-05
13 *940:A *610:A1 0.000146652
14 *940:A *462:12 2.81291e-05
15 *198:22 *485:A2 0.000785197
16 *198:22 *535:C 0.000545043
17 *198:22 *672:D 0.000357395
18 *198:22 *719:D 0.000134671
19 *198:22 *719:DE 3.59042e-05
20 *198:22 *719:CLK 5.01225e-05
21 *198:22 *890:A 0.000233634
22 *198:22 *373:10 0.000159917
23 *486:B *198:22 0.000423344
24 *536:B *198:22 1.15389e-05
25 *539:A1 *539:B1_N 5.23032e-05
26 *610:A2 *940:A 0.000348915
27 *610:A2 *198:54 5.05252e-05
28 *948:A *540:C1 0.000167076
29 *973:A *940:A 0.000553662
30 *973:A *198:54 3.31733e-05
31 *45:10 *198:26 9.33406e-06
32 *45:10 *198:37 0.000108688
33 *45:10 *198:54 6.08697e-06
34 *45:27 *198:54 1.50906e-05
35 *48:10 *198:26 5.23435e-05
36 *48:10 *198:37 0.000159968
37 *48:14 *198:37 9.54936e-05
38 *48:14 *198:54 0.000102949
39 *51:22 *539:B1_N 0.000309083
*RES
1 *719:Q *198:22 47.6253 
2 *198:22 *198:26 5.50149 
3 *198:26 *887:A 14.4725 
4 *198:26 *198:37 6.81502 
5 *198:37 *540:C1 16.1605 
6 *198:37 *198:54 4.39679 
7 *198:54 *539:B1_N 17.8243 
8 *198:54 *940:A 26.2734 
*END

*D_NET *199 0.00111489
*CONN
*I *542:A_N I *D sky130_fd_sc_hd__nand2b_4
*I *886:A I *D sky130_fd_sc_hd__buf_4
*I *720:Q O *D sky130_fd_sc_hd__edfxtp_1
*CAP
1 *542:A_N 0
2 *886:A 0.000232203
3 *720:Q 0.000132771
4 *199:10 0.000364974
5 *886:A *380:12 9.77232e-05
6 *199:10 *611:B_N 7.14746e-05
7 *199:10 *380:12 2.88703e-05
8 *547:C *199:10 3.75221e-05
9 *610:B1 *886:A 3.44412e-06
10 *871:A *886:A 0.000145903
11 *41:20 *199:10 0
*RES
1 *720:Q *199:10 16.8577 
2 *199:10 *886:A 20.5642 
3 *199:10 *542:A_N 13.7491 
*END

*D_NET *200 0.00886555
*CONN
*I *525:B I *D sky130_fd_sc_hd__xor2_1
*I *884:A I *D sky130_fd_sc_hd__buf_6
*I *543:B I *D sky130_fd_sc_hd__maj3_1
*I *721:Q O *D sky130_fd_sc_hd__edfxtp_1
*CAP
1 *525:B 0.00010099
2 *884:A 3.5247e-05
3 *543:B 0.00119085
4 *721:Q 0.000536807
5 *200:22 0.00260815
6 *200:10 0.00201985
7 *525:B resp_msg[8] 0
8 *543:B *675:D 0.000313876
9 *543:B *720:CLK 9.62539e-05
10 *543:B *920:A 4.99469e-05
11 *543:B *965:A 7.24449e-05
12 *543:B *406:35 0.000219298
13 *200:10 resp_msg[8] 0
14 *200:10 *517:S 1.99596e-06
15 *200:10 *721:D 2.99929e-05
16 *200:10 *231:14 1.4164e-05
17 *200:22 *516:A2 4.45999e-05
18 *200:22 *517:S 1.53265e-05
19 *200:22 *704:DE 0
20 *200:22 *378:8 0.000114584
21 *200:22 *427:8 0.000253916
22 *514:A *525:B 0.000188637
23 *514:A *200:10 2.95757e-05
24 *514:A *200:22 0.000437435
25 *543:C *543:B 0
26 *933:A *200:22 0.000379792
27 *33:14 *200:22 0.000111824
28 *53:10 *543:B 0
29 *166:47 *543:B 0
*RES
1 *721:Q *200:10 22.5431 
2 *200:10 *200:22 37.5778 
3 *200:22 *543:B 39.3768 
4 *200:22 *884:A 10.2378 
5 *200:10 *525:B 17.2421 
*END

*D_NET *201 0.00448673
*CONN
*I *528:A_N I *D sky130_fd_sc_hd__nand2b_1
*I *883:A I *D sky130_fd_sc_hd__buf_4
*I *527:B_N I *D sky130_fd_sc_hd__nor2b_1
*I *722:Q O *D sky130_fd_sc_hd__edfxtp_1
*CAP
1 *528:A_N 0.000246669
2 *883:A 7.26171e-05
3 *527:B_N 0.000465182
4 *722:Q 0
5 *201:10 0.00086114
6 *201:4 0.000570009
7 *527:B_N *611:B_N 6.98648e-06
8 *527:B_N *614:A3 0.000302835
9 *527:B_N *888:A 7.61353e-05
10 *528:A_N *622:A 9.55569e-06
11 *883:A *377:12 0.000457428
12 *883:A *406:59 0.000457428
13 *201:10 *456:8 2.69701e-05
14 *527:A *527:B_N 0.000199527
15 *527:A *528:A_N 6.45396e-05
16 *527:A *201:10 5.21914e-05
17 *546:A2 *527:B_N 0.000360752
18 *546:A2 *201:10 0.000114659
19 *55:22 *527:B_N 0.000142105
*RES
1 *722:Q *201:4 9.24915 
2 *201:4 *201:10 10.521 
3 *201:10 *527:B_N 29.0408 
4 *201:10 *883:A 18.9094 
5 *201:4 *528:A_N 13.4569 
*END

*D_NET *202 0.00161452
*CONN
*I *691:D I *D sky130_fd_sc_hd__edfxtp_1
*I *664:Y O *D sky130_fd_sc_hd__o21ai_1
*CAP
1 *691:D 0.000227729
2 *664:Y 0.000227729
3 *691:D *498:A 0.000191526
4 *691:D *661:A 1.44611e-05
5 *691:D *661:B 0.000160617
6 *691:D *673:C 0.000321214
7 *691:D *399:10 6.08467e-05
8 *660:B1 *691:D 1.46564e-05
9 *662:B *691:D 9.60366e-05
10 *664:A2 *691:D 0.000162583
11 *170:14 *691:D 0.000137121
*RES
1 *664:Y *691:D 37.1402 
*END

*D_NET *203 0.000576198
*CONN
*I *692:D I *D sky130_fd_sc_hd__edfxtp_1
*I *620:Y O *D sky130_fd_sc_hd__o21ai_1
*CAP
1 *692:D 0.000108147
2 *620:Y 0.000108147
3 *692:D *708:DE 2.82537e-05
4 *692:D *426:46 0.000144531
5 *692:D *458:32 3.14375e-05
6 *618:B *692:D 6.50586e-05
7 *117:22 *692:D 9.06227e-05
*RES
1 *620:Y *692:D 31.2579 
*END

*D_NET *204 0.00104629
*CONN
*I *693:D I *D sky130_fd_sc_hd__edfxtp_1
*I *607:Y O *D sky130_fd_sc_hd__o21ai_1
*CAP
1 *693:D 0.000220618
2 *607:Y 0.000220618
3 *693:D *508:A 4.87198e-05
4 *693:D *572:A 2.03049e-05
5 *693:D *591:A 0.000197334
6 *693:D *693:DE 0.000126739
7 *693:D *415:23 3.20264e-05
8 *943:A *693:D 0.00014192
9 *81:16 *693:D 1.66626e-05
10 *172:20 *693:D 2.13454e-05
*RES
1 *607:Y *693:D 34.9658 
*END

*D_NET *205 0.00205099
*CONN
*I *694:D I *D sky130_fd_sc_hd__edfxtp_1
*I *603:Y O *D sky130_fd_sc_hd__o21ai_1
*CAP
1 *694:D 0.000724267
2 *603:Y 0.000724267
3 *694:D resp_msg[12] 9.44631e-06
4 *694:D *603:A1 8.10282e-05
5 *694:D *825:A 8.44848e-05
6 *694:D *827:A 0.000115753
7 *694:D *426:112 7.59008e-05
8 *603:B1 *694:D 3.40041e-05
9 *607:B1 *694:D 4.13547e-05
10 *173:26 *694:D 0.000160486
*RES
1 *603:Y *694:D 43.921 
*END

*D_NET *206 0.00194966
*CONN
*I *695:D I *D sky130_fd_sc_hd__edfxtp_1
*I *596:Y O *D sky130_fd_sc_hd__a31oi_1
*CAP
1 *695:D 0.000536018
2 *596:Y 0.000536018
3 *695:D *593:B1_N 0.000246437
4 *695:D *594:A_N 7.26606e-05
5 *695:D *596:A3 1.58551e-05
6 *695:D *695:DE 0.000113524
7 *695:D *415:39 7.28567e-06
8 *695:D *420:106 0.000307388
9 *594:C *695:D 6.55312e-05
10 *596:A1 *695:D 4.89392e-05
*RES
1 *596:Y *695:D 40.8923 
*END

*D_NET *207 0.000674601
*CONN
*I *696:D I *D sky130_fd_sc_hd__edfxtp_1
*I *590:X O *D sky130_fd_sc_hd__a211o_1
*CAP
1 *696:D 0.000291669
2 *590:X 0.000291669
3 *696:D *590:A2 5.2737e-05
4 *696:D *696:DE 3.61138e-05
5 *862:A *696:D 2.41274e-06
*RES
1 *590:X *696:D 34.6285 
*END

*D_NET *208 0.00257802
*CONN
*I *697:D I *D sky130_fd_sc_hd__edfxtp_1
*I *686:Y O *D sky130_fd_sc_hd__o21ai_1
*CAP
1 *697:D 0.000803893
2 *686:Y 0.000803893
3 *697:D *566:B 0.00014815
4 *697:D *697:DE 0.000129182
5 *697:D *697:CLK 2.75239e-05
6 *697:D *469:18 0.000149816
7 *567:A *697:D 0.000170165
8 *686:B1 *697:D 1.43832e-05
9 *85:10 *697:D 0.000331014
*RES
1 *686:Y *697:D 44.5628 
*END

*D_NET *209 0.00107794
*CONN
*I *698:D I *D sky130_fd_sc_hd__edfxtp_1
*I *660:Y O *D sky130_fd_sc_hd__o21ai_1
*CAP
1 *698:D 0.000441207
2 *660:Y 0.000441207
3 *698:D *658:A0 0.000103213
4 *698:D *698:DE 8.5703e-05
5 *660:B1 *698:D 6.60481e-06
*RES
1 *660:Y *698:D 38.3685 
*END

*D_NET *210 0.00406262
*CONN
*I *699:D I *D sky130_fd_sc_hd__edfxtp_1
*I *657:Y O *D sky130_fd_sc_hd__o21ai_1
*CAP
1 *699:D 0
2 *657:Y 0.00129321
3 *210:14 0.00129321
4 *210:14 *655:A1 2.65667e-05
5 *210:14 *699:DE 0
6 *210:14 *699:CLK 0.000307535
7 *210:14 *700:D 0.000110297
8 *210:14 *812:A 0.000260792
9 *210:14 *277:24 0.000124568
10 *210:14 *336:18 2.52287e-06
11 *210:14 *357:79 0.000472804
12 *657:A2 *210:14 5.51742e-05
13 *155:12 *210:14 0.000115934
*RES
1 *657:Y *210:14 43.0781 
2 *210:14 *699:D 9.24915 
*END

*D_NET *211 0.00359198
*CONN
*I *700:D I *D sky130_fd_sc_hd__edfxtp_1
*I *654:Y O *D sky130_fd_sc_hd__o21ai_1
*CAP
1 *700:D 0.00118051
2 *654:Y 0.00118051
3 *700:D *652:A1 1.67988e-05
4 *700:D *699:CLK 3.0676e-05
5 *700:D *831:A 1.65872e-05
6 *700:D *277:24 0.000105783
7 *700:D *278:16 0.000217951
8 *700:D *336:67 5.91002e-06
9 *700:D *353:50 1.77584e-05
10 *700:D *353:96 2.05182e-05
11 *700:D *416:28 0.000196687
12 *700:D *449:16 3.82521e-05
13 *654:A2 *700:D 0.000453753
14 *880:A *700:D 0
15 *210:14 *700:D 0.000110297
*RES
1 *654:Y *700:D 48.9262 
*END

*D_NET *212 0.000700787
*CONN
*I *701:D I *D sky130_fd_sc_hd__edfxtp_1
*I *650:Y O *D sky130_fd_sc_hd__o21ai_1
*CAP
1 *701:D 0.00025892
2 *650:Y 0.00025892
3 *701:D *701:DE 6.64392e-05
4 *180:6 *701:D 0.000116507
*RES
1 *650:Y *701:D 34.6285 
*END

*D_NET *213 0.00127771
*CONN
*I *702:D I *D sky130_fd_sc_hd__edfxtp_1
*I *647:Y O *D sky130_fd_sc_hd__o21ai_1
*CAP
1 *702:D 0.000306069
2 *647:Y 0.000306069
3 *702:D *647:A1 6.95572e-05
4 *702:D *648:A1 9.43255e-05
5 *702:D *853:A 5.71992e-05
6 *702:D *336:67 0.000157158
7 *702:D *353:108 0.000120505
8 *702:D *357:169 4.69737e-05
9 *702:D *357:175 3.20264e-05
10 *647:A2 *702:D 6.64392e-05
11 *197:26 *702:D 2.1389e-05
*RES
1 *647:Y *702:D 36.749 
*END

*D_NET *214 0.000941284
*CONN
*I *703:D I *D sky130_fd_sc_hd__edfxtp_1
*I *644:Y O *D sky130_fd_sc_hd__o21ai_1
*CAP
1 *703:D 0.000305669
2 *644:Y 0.000305669
3 *703:D *518:A1 0.000168289
4 *703:D *703:DE 3.44641e-05
5 *703:D *357:175 0.000127194
6 *182:18 *703:D 0
*RES
1 *644:Y *703:D 36.8469 
*END

*D_NET *215 0.00100966
*CONN
*I *704:D I *D sky130_fd_sc_hd__edfxtp_1
*I *638:Y O *D sky130_fd_sc_hd__o21ai_1
*CAP
1 *704:D 0.000283042
2 *638:Y 0.000283042
3 *704:D *637:A 0.000214815
4 *704:D *637:B 2.16355e-05
5 *704:D *704:DE 7.33201e-05
6 *704:D *704:CLK 8.92568e-06
7 *704:D *357:193 0.000117421
8 *638:A1 *704:D 5.04423e-06
9 *644:A2 *704:D 2.41274e-06
*RES
1 *638:Y *704:D 33.6157 
*END

*D_NET *216 0.000498533
*CONN
*I *705:D I *D sky130_fd_sc_hd__edfxtp_1
*I *633:Y O *D sky130_fd_sc_hd__o21ai_1
*CAP
1 *705:D 0.000134645
2 *633:Y 0.000134645
3 *705:D *631:A2 9.98296e-05
4 *705:D *705:CLK 2.60014e-05
5 *705:D *823:A 0.000103412
*RES
1 *633:Y *705:D 31.4281 
*END

*D_NET *217 0.000975331
*CONN
*I *706:D I *D sky130_fd_sc_hd__edfxtp_1
*I *628:Y O *D sky130_fd_sc_hd__o21ai_1
*CAP
1 *706:D 0.000298732
2 *628:Y 0.000298732
3 *706:D *706:CLK 0.000172729
4 *706:D *284:12 0.000158002
5 *185:10 *706:D 4.71357e-05
*RES
1 *628:Y *706:D 34.5856 
*END

*D_NET *218 0.00108836
*CONN
*I *707:D I *D sky130_fd_sc_hd__edfxtp_1
*I *524:X O *D sky130_fd_sc_hd__mux2_4
*CAP
1 *707:D 0.000231261
2 *524:X 0.000231261
3 *707:D *524:A0 0.000326398
4 *707:D *524:A1 0.000148144
5 *707:D *707:DE 3.86761e-05
6 *707:D *707:CLK 4.75641e-05
7 *476:A *707:D 6.50586e-05
*RES
1 *524:X *707:D 35.7671 
*END

*D_NET *219 0.000695575
*CONN
*I *708:D I *D sky130_fd_sc_hd__edfxtp_1
*I *512:Y O *D sky130_fd_sc_hd__o21ai_2
*CAP
1 *708:D 0.000175415
2 *512:Y 0.000175415
3 *708:D *708:DE 8.84687e-05
4 *708:D *803:A 4.77834e-05
5 *708:D *804:A 0.000163359
6 *708:D *426:61 4.51339e-05
*RES
1 *512:Y *708:D 33.4413 
*END

*D_NET *220 0.00550664
*CONN
*I *709:D I *D sky130_fd_sc_hd__edfxtp_1
*I *509:Y O *D sky130_fd_sc_hd__o21ai_2
*CAP
1 *709:D 0.000866761
2 *509:Y 0.000895855
3 *220:14 0.00176262
4 *709:D *508:A 7.46787e-05
5 *709:D *591:A 6.4674e-06
6 *709:D *599:A 6.33233e-05
7 *709:D *686:A1 1.2819e-05
8 *709:D *709:CLK 5.04829e-06
9 *709:D *976:A 0.000308314
10 *709:D *339:10 0.000107729
11 *709:D *406:20 0.000112393
12 *709:D *418:73 5.45125e-05
13 *709:D *426:8 0.000227006
14 *220:14 *565:A2 6.11359e-06
15 *220:14 *675:C 5.33945e-05
16 *220:14 *697:DE 0
17 *220:14 *363:16 7.38619e-05
18 *220:14 *406:20 1.4091e-06
19 *509:B1 *220:14 4.89469e-06
20 *558:A *709:D 0.000142306
21 *565:A1 *709:D 2.35634e-05
22 *565:A1 *220:14 6.36999e-05
23 *565:B1 *709:D 2.53322e-05
24 *58:20 *709:D 6.40849e-05
25 *59:10 *709:D 0.000248174
26 *75:12 *220:14 0.000262434
27 *85:10 *220:14 0
28 *86:47 *709:D 3.98472e-05
*RES
1 *509:Y *220:14 38.746 
2 *220:14 *709:D 40.2395 
*END

*D_NET *221 0.000508973
*CONN
*I *710:D I *D sky130_fd_sc_hd__edfxtp_1
*I *506:X O *D sky130_fd_sc_hd__mux2_4
*CAP
1 *710:D 0.000207104
2 *506:X 0.000207104
3 *710:D *506:A0 3.00829e-05
4 *710:D *506:A1 0
5 *710:D *710:DE 6.46815e-05
*RES
1 *506:X *710:D 32.4395 
*END

*D_NET *222 0.00105455
*CONN
*I *711:D I *D sky130_fd_sc_hd__edfxtp_1
*I *505:X O *D sky130_fd_sc_hd__mux2_4
*CAP
1 *711:D 0.00028559
2 *505:X 0.00028559
3 *711:D *505:S 0.000161956
4 *711:D *506:S 0
5 *711:D *711:DE 8.37933e-05
6 *711:D *420:106 0.000237616
*RES
1 *505:X *711:D 35.7643 
*END

*D_NET *223 0.000790134
*CONN
*I *712:D I *D sky130_fd_sc_hd__edfxtp_1
*I *503:Y O *D sky130_fd_sc_hd__o21ai_1
*CAP
1 *712:D 0.0003256
2 *503:Y 0.0003256
3 *712:D *712:DE 8.11133e-05
4 *712:D *448:10 5.54078e-05
5 *564:B *712:D 2.41274e-06
6 *77:31 *712:D 0
*RES
1 *503:Y *712:D 35.1831 
*END

*D_NET *224 0.00176393
*CONN
*I *713:D I *D sky130_fd_sc_hd__edfxtp_1
*I *687:X O *D sky130_fd_sc_hd__mux2_4
*CAP
1 *713:D 0.000742063
2 *687:X 0.000742063
3 *713:D *687:A0 3.76783e-05
4 *713:D *687:S 1.43698e-05
5 *713:D *713:CLK 0.000187576
6 *713:D *451:28 4.01825e-05
*RES
1 *687:X *713:D 33.1109 
*END

*D_NET *225 0.00173143
*CONN
*I *714:D I *D sky130_fd_sc_hd__edfxtp_1
*I *523:X O *D sky130_fd_sc_hd__mux2_4
*CAP
1 *714:D 0.000417143
2 *523:X 0.000417143
3 *714:D *496:A 6.87335e-05
4 *714:D *523:A0 1.66825e-05
5 *714:D *523:S 0.000148159
6 *714:D *245:14 0.000159251
7 *714:D *417:31 4.96348e-05
8 *714:D *419:50 6.84546e-05
9 *714:D *419:69 8.37933e-05
10 *475:B *714:D 0.000217951
11 *497:B *714:D 8.44848e-05
*RES
1 *523:X *714:D 42.1324 
*END

*D_NET *226 0.00104461
*CONN
*I *715:D I *D sky130_fd_sc_hd__edfxtp_1
*I *522:X O *D sky130_fd_sc_hd__mux2_4
*CAP
1 *715:D 0.000222994
2 *522:X 0.000222994
3 *715:D *522:A0 0.000362878
4 *715:D *715:DE 7.52398e-05
5 *715:D *715:CLK 7.52398e-05
6 *715:D *808:A 5.3971e-05
7 *715:D *357:71 2.57986e-05
8 *657:B1 *715:D 5.49079e-06
*RES
1 *522:X *715:D 35.4161 
*END

*D_NET *227 0.000696458
*CONN
*I *716:D I *D sky130_fd_sc_hd__edfxtp_1
*I *521:X O *D sky130_fd_sc_hd__mux2_4
*CAP
1 *716:D 0.00026116
2 *521:X 0.00026116
3 *716:D *521:A1 8.36586e-06
4 *716:D *703:DE 3.79647e-05
5 *716:D *716:DE 3.42041e-05
6 *716:D *353:98 1.56426e-05
7 *716:D *449:44 7.79607e-05
*RES
1 *521:X *716:D 34.2104 
*END

*D_NET *228 0.00101331
*CONN
*I *717:D I *D sky130_fd_sc_hd__edfxtp_1
*I *520:X O *D sky130_fd_sc_hd__mux2_4
*CAP
1 *717:D 0.000383051
2 *520:X 0.000383051
3 *717:D *521:A1 5.80086e-05
4 *717:D *717:DE 3.39728e-05
5 *717:D *357:169 0
6 *181:12 *717:D 3.06126e-05
7 *196:12 *717:D 0.000124615
*RES
1 *520:X *717:D 37.538 
*END

*D_NET *229 0.00154556
*CONN
*I *718:D I *D sky130_fd_sc_hd__edfxtp_1
*I *519:X O *D sky130_fd_sc_hd__mux2_4
*CAP
1 *718:D 0.000567188
2 *519:X 0.000567188
3 *718:D *645:A0 3.89332e-06
4 *718:D *719:DE 2.86353e-06
5 *718:D *832:A 0.000148144
6 *718:D *853:A 9.84039e-05
7 *718:D *397:10 0
8 *718:D *397:24 5.49029e-06
9 *718:D *397:31 0
10 *718:D *419:128 8.81832e-05
11 *718:D *449:44 2.29386e-05
12 *195:14 *718:D 4.12684e-05
*RES
1 *519:X *718:D 42.4104 
*END

*D_NET *230 0.000865385
*CONN
*I *719:D I *D sky130_fd_sc_hd__edfxtp_1
*I *518:X O *D sky130_fd_sc_hd__mux2_4
*CAP
1 *719:D 0.00018124
2 *518:X 0.00018124
3 *719:D *473:A 0.00016195
4 *719:D *473:B 4.43331e-05
5 *719:D *719:DE 0.00016195
6 *198:22 *719:D 0.000134671
*RES
1 *518:X *719:D 33.1214 
*END

*D_NET *231 0.0057275
*CONN
*I *720:D I *D sky130_fd_sc_hd__edfxtp_1
*I *517:X O *D sky130_fd_sc_hd__mux2_4
*CAP
1 *720:D 0.000911362
2 *517:X 0.00100529
3 *231:14 0.00191665
4 *720:D *546:A1 0.000180606
5 *720:D *611:B_N 0.000212634
6 *720:D *614:A2 2.41483e-05
7 *720:D *614:A3 0.000324853
8 *720:D *721:DE 7.41997e-05
9 *720:D *420:72 6.57914e-05
10 *231:14 *721:D 7.41198e-05
11 *231:14 *721:DE 2.49441e-05
12 *231:14 *721:CLK 3.02534e-05
13 *547:C *720:D 0.000278309
14 *611:A *720:D 6.3657e-05
15 *614:B1 *720:D 3.75221e-05
16 *615:C1 *720:D 0.000321919
17 *635:A *720:D 0.000167076
18 *183:25 *231:14 0
19 *200:10 *231:14 1.4164e-05
*RES
1 *517:X *231:14 35.9179 
2 *231:14 *720:D 37.0637 
*END

*D_NET *232 0.000892976
*CONN
*I *721:D I *D sky130_fd_sc_hd__edfxtp_1
*I *516:Y O *D sky130_fd_sc_hd__o21ai_1
*CAP
1 *721:D 0.00024897
2 *516:Y 0.00024897
3 *721:D resp_msg[8] 0
4 *721:D *517:S 0.000114495
5 *721:D *721:DE 6.64392e-05
6 *514:A *721:D 0.000109989
7 *200:10 *721:D 2.99929e-05
8 *231:14 *721:D 7.41198e-05
*RES
1 *516:Y *721:D 34.2427 
*END

*D_NET *233 0.000627799
*CONN
*I *722:D I *D sky130_fd_sc_hd__edfxtp_1
*I *513:X O *D sky130_fd_sc_hd__mux2_4
*CAP
1 *722:D 0.000209824
2 *513:X 0.000209824
3 *722:D *513:S 7.72376e-05
4 *722:D *546:A1 4.21314e-05
5 *722:D *722:DE 5.32409e-05
6 *722:D *400:14 3.18342e-06
7 *722:D *462:48 1.32185e-05
8 *544:B *722:D 1.91391e-05
*RES
1 *513:X *722:D 32.9739 
*END

*D_NET *234 0.00128419
*CONN
*I *524:A1 I *D sky130_fd_sc_hd__mux2_4
*I *601:X O *D sky130_fd_sc_hd__clkdlybuf4s50_1
*CAP
1 *524:A1 0.000505433
2 *601:X 0.000505433
3 *524:A1 *524:S 5.22654e-06
4 *524:A1 *707:DE 9.34681e-05
5 *524:A1 *707:CLK 0
6 *601:A *524:A1 2.64901e-05
7 *707:D *524:A1 0.000148144
*RES
1 *601:X *524:A1 37.6732 
*END

*D_NET *243 0.000368674
*CONN
*I *656:A I *D sky130_fd_sc_hd__nand2_1
*I *795:X O *D sky130_fd_sc_hd__clkdlybuf4s50_1
*CAP
1 *656:A 0.000146579
2 *795:X 0.000146579
3 *656:A *656:B 6.13982e-05
4 *656:A *830:A 1.41181e-05
*RES
1 *795:X *656:A 30.8842 
*END

*D_NET *244 0.00094321
*CONN
*I *653:A I *D sky130_fd_sc_hd__nand2_1
*I *796:X O *D sky130_fd_sc_hd__clkdlybuf4s50_1
*CAP
1 *653:A 0.000144247
2 *796:X 0.000144247
3 *653:A *796:A 6.08167e-05
4 *653:A *799:A 0.000593901
*RES
1 *796:X *653:A 25.3464 
*END

*D_NET *245 0.00300115
*CONN
*I *523:A1 I *D sky130_fd_sc_hd__mux2_4
*I *797:X O *D sky130_fd_sc_hd__clkdlybuf4s50_1
*CAP
1 *523:A1 0
2 *797:X 0.00090662
3 *245:14 0.00090662
4 *245:14 resp_msg[1] 7.50722e-05
5 *245:14 *522:A1 8.10372e-05
6 *245:14 *522:S 8.41306e-05
7 *245:14 *523:A0 2.65667e-05
8 *245:14 *523:S 0
9 *245:14 *808:A 0
10 *245:14 *829:A 7.89173e-05
11 *245:14 *419:69 0
12 *475:B *245:14 1.34424e-05
13 *497:B *245:14 0.000367588
14 *663:A *245:14 0
15 *677:B1 *245:14 0
16 *714:D *245:14 0.000159251
17 *881:A *245:14 0.000263959
18 *7:10 *245:14 3.22732e-05
19 *192:34 *245:14 5.66868e-06
*RES
1 *797:X *245:14 45.3341 
2 *245:14 *523:A1 9.24915 
*END

*D_NET *246 0.000970188
*CONN
*I *649:A I *D sky130_fd_sc_hd__nand2_1
*I *798:X O *D sky130_fd_sc_hd__clkdlybuf4s50_1
*CAP
1 *649:A 0.000218757
2 *798:X 0.000218757
3 *649:A *646:A 1.61631e-05
4 *649:A *646:B 7.93324e-05
5 *649:A *702:CLK 5.22654e-06
6 *649:A *357:128 5.22654e-06
7 *647:B1 *649:A 0.000426726
*RES
1 *798:X *649:A 35.1817 
*END

*D_NET *247 0.000307711
*CONN
*I *646:A I *D sky130_fd_sc_hd__nand2_1
*I *799:X O *D sky130_fd_sc_hd__clkdlybuf4s50_1
*CAP
1 *646:A 0.0001337
2 *799:X 0.0001337
3 *647:B1 *646:A 2.41483e-05
4 *649:A *646:A 1.61631e-05
*RES
1 *799:X *646:A 22.0188 
*END

*D_NET *419 0.0224576
*CONN
*I *719:DE I *D sky130_fd_sc_hd__edfxtp_1
*I *718:DE I *D sky130_fd_sc_hd__edfxtp_1
*I *716:DE I *D sky130_fd_sc_hd__edfxtp_1
*I *717:DE I *D sky130_fd_sc_hd__edfxtp_1
*I *715:DE I *D sky130_fd_sc_hd__edfxtp_1
*I *714:DE I *D sky130_fd_sc_hd__edfxtp_1
*I *713:DE I *D sky130_fd_sc_hd__edfxtp_1
*I *707:DE I *D sky130_fd_sc_hd__edfxtp_1
*I *925:X O *D sky130_fd_sc_hd__buf_12
*CAP
1 *719:DE 0.00097304
2 *718:DE 0
3 *716:DE 1.67259e-05
4 *717:DE 1.71478e-05
5 *715:DE 0.000178525
6 *714:DE 0
7 *713:DE 1.67127e-05
8 *707:DE 0.000382831
9 *925:X 0.00115223
10 *419:128 0.00116613
11 *419:107 0.00063052
12 *419:88 0.00275405
13 *419:69 0.00367182
14 *419:50 0.00259145
15 *419:10 0.000481621
16 *419:8 0.00264866
17 *707:DE *524:S 0
18 *719:DE *518:S 4.1877e-05
19 *719:DE *449:44 5.17704e-05
20 *419:8 *821:A 0
21 *419:8 *451:28 0
22 *419:50 *524:S 0.000127685
23 *419:69 *522:S 0
24 *419:69 *658:A1 0
25 *419:88 *522:S 0
26 *419:88 *673:D 0
27 *419:88 *449:16 0
28 *419:107 *520:S 1.77302e-05
29 *419:107 *449:29 2.14502e-05
30 *419:107 *449:44 1.30094e-05
31 *419:128 *449:44 1.83188e-05
32 req_rdy *419:8 0
33 resp_msg[1] *715:DE 0
34 resp_val *419:8 0
35 *473:A *719:DE 6.27472e-05
36 *483:B_N *419:107 0.000170541
37 *483:B_N *419:128 2.61647e-05
38 *485:B1_N *719:DE 9.45177e-05
39 *497:B *419:69 3.407e-05
40 *504:A *419:8 0
41 *520:A1 *419:107 8.01837e-05
42 *521:A1 *419:107 4.3116e-06
43 *524:A1 *707:DE 9.34681e-05
44 *537:A1 *419:107 0.000193478
45 *537:A1 *419:128 7.44696e-05
46 *590:A1 *419:8 0.000161054
47 *654:B1 *419:88 0.000128104
48 *654:B1 *419:107 0.000161966
49 *657:B1 *715:DE 3.37073e-06
50 *660:A1 *419:50 0.000398947
51 *664:B1 *419:69 0.000305765
52 *669:B2 *419:8 0.000114259
53 *669:C1 *419:8 0
54 *670:A *419:8 3.89804e-05
55 *687:A1 *419:8 0.00012136
56 *691:DE *419:69 0
57 *703:DE *719:DE 0.000714825
58 *703:DE *419:128 7.27101e-06
59 *707:D *707:DE 3.86761e-05
60 *713:CLK *713:DE 3.42041e-05
61 *713:CLK *419:50 0.000151444
62 *714:D *419:50 6.84546e-05
63 *714:D *419:69 8.37933e-05
64 *715:D *715:DE 7.52398e-05
65 *715:CLK *715:DE 0
66 *716:D *716:DE 3.42041e-05
67 *717:D *717:DE 3.39728e-05
68 *718:D *719:DE 2.86353e-06
69 *718:D *419:128 8.81832e-05
70 *719:D *719:DE 0.00016195
71 *819:A *419:8 7.86825e-06
72 *820:A *419:8 0
73 *829:A *419:69 0.000249119
74 *919:A *419:8 0
75 *925:A *419:8 5.49686e-05
76 *167:10 *419:8 0.000154075
77 *180:17 *419:88 2.57465e-06
78 *192:30 *419:50 1.88972e-05
79 *195:14 *419:128 0.000251264
80 *198:22 *719:DE 3.59042e-05
81 *245:14 *419:69 0
82 *304:31 *715:DE 6.66231e-05
83 *353:33 *419:69 0
84 *353:96 *419:107 0.000307039
85 *357:39 *419:50 0.000140978
86 *357:175 *719:DE 9.43419e-05
87 *416:18 *419:88 0.000115889
88 *416:18 *419:107 0.000165481
89 *417:31 *419:50 2.15513e-05
90 *417:33 *419:50 1.83827e-06
91 *417:37 *419:50 3.30656e-05
*RES
1 *925:X *419:8 46.3098 
2 *419:8 *419:10 1.832 
3 *419:10 *707:DE 23.9481 
4 *419:10 *713:DE 14.153 
5 *419:8 *419:50 38.2268 
6 *419:50 *714:DE 9.24915 
7 *419:50 *419:69 18.9647 
8 *419:69 *715:DE 22.053 
9 *419:69 *419:88 10.157 
10 *419:88 *717:DE 14.153 
11 *419:88 *419:107 22.941 
12 *419:107 *716:DE 14.153 
13 *419:107 *419:128 9.85973 
14 *419:128 *718:DE 13.7491 
15 *419:128 *719:DE 45.9704 
*END

*D_NET *420 0.0241406
*CONN
*I *710:DE I *D sky130_fd_sc_hd__edfxtp_1
*I *711:DE I *D sky130_fd_sc_hd__edfxtp_1
*I *721:DE I *D sky130_fd_sc_hd__edfxtp_1
*I *720:DE I *D sky130_fd_sc_hd__edfxtp_1
*I *722:DE I *D sky130_fd_sc_hd__edfxtp_1
*I *708:DE I *D sky130_fd_sc_hd__edfxtp_1
*I *709:DE I *D sky130_fd_sc_hd__edfxtp_1
*I *712:DE I *D sky130_fd_sc_hd__edfxtp_1
*I *926:X O *D sky130_fd_sc_hd__buf_12
*CAP
1 *710:DE 0.000569706
2 *711:DE 3.47795e-05
3 *721:DE 0.00142111
4 *720:DE 0
5 *722:DE 7.42414e-05
6 *708:DE 0.000650191
7 *709:DE 2.01464e-05
8 *712:DE 4.0137e-05
9 *926:X 0.000442548
10 *420:106 0.00128015
11 *420:72 0.0019563
12 *420:44 0.00167571
13 *420:27 0.000988066
14 *420:25 0.0032244
15 *420:19 0.00351749
16 *420:8 0.000651954
17 *708:DE *426:46 2.97009e-05
18 *708:DE *462:12 3.46922e-05
19 *721:DE *615:A3 0.000272209
20 *721:DE *704:DE 1.20291e-05
21 *722:DE *462:18 2.44599e-05
22 *722:DE *462:48 1.04265e-05
23 *420:8 *696:DE 0
24 *420:8 *448:10 0
25 *420:19 *696:DE 0
26 *420:27 *426:8 5.38612e-06
27 *420:44 *426:8 3.69203e-05
28 *420:44 *462:18 6.91826e-06
29 *420:72 *426:8 5.7596e-05
30 *420:106 *594:B 2.0801e-05
31 *420:106 *696:DE 8.76347e-05
32 *420:106 *448:31 0
33 *420:106 *458:40 6.63267e-05
34 *502:B *420:8 0.000196638
35 *502:B *420:19 0.000361377
36 *505:A0 *420:106 0
37 *505:A1 *420:106 2.34182e-05
38 *506:A1 *710:DE 0.00016227
39 *509:B1 *420:25 0
40 *513:S *708:DE 2.35849e-05
41 *517:S *721:DE 0
42 *545:B *420:44 4.89392e-05
43 *547:A *420:72 8.19079e-05
44 *547:B *420:72 2.16355e-05
45 *547:C *420:72 5.94119e-05
46 *548:B1 *420:72 8.9031e-06
47 *564:C *420:25 0
48 *572:A *420:25 0
49 *572:B *420:27 2.57465e-06
50 *572:B *420:44 7.34495e-05
51 *572:B *420:72 0.000189612
52 *582:A *710:DE 0.000510984
53 *587:B1 *420:25 2.4985e-05
54 *590:A1 *420:8 9.96892e-05
55 *593:B1_N *420:106 8.18934e-05
56 *594:A_N *420:106 3.66868e-05
57 *594:C *420:106 9.25678e-05
58 *595:A *420:19 9.89271e-05
59 *674:D *721:DE 1.00996e-05
60 *692:D *708:DE 2.82537e-05
61 *693:DE *420:25 0.000207944
62 *695:D *420:106 0.000307388
63 *696:CLK *420:8 0
64 *708:D *708:DE 8.84687e-05
65 *708:CLK *708:DE 0.000533727
66 *710:D *710:DE 6.46815e-05
67 *710:CLK *710:DE 0.000295619
68 *711:D *711:DE 8.37933e-05
69 *711:D *420:106 0.000237616
70 *712:D *712:DE 8.11133e-05
71 *720:D *721:DE 7.41997e-05
72 *720:D *420:72 6.57914e-05
73 *720:CLK *721:DE 2.0916e-05
74 *721:D *721:DE 6.64392e-05
75 *722:D *722:DE 5.32409e-05
76 *804:A *708:DE 0.000139684
77 *919:A *420:8 0.000150238
78 *41:20 *721:DE 0.0008212
79 *53:10 *721:DE 4.51619e-05
80 *117:22 *708:DE 0.000194045
81 *166:47 *721:DE 8.78565e-06
82 *172:20 *420:44 2.80044e-05
83 *231:14 *721:DE 2.49441e-05
84 *341:20 *708:DE 0
85 *406:20 *420:72 0.000153225
86 *414:31 *708:DE 1.03594e-05
87 *414:40 *708:DE 0.000250425
88 *414:53 *708:DE 0.000249293
89 *414:66 *708:DE 5.92342e-05
90 *414:94 *721:DE 0.000312337
91 *415:72 *420:106 0
92 *418:73 *721:DE 4.35313e-05
93 *418:73 *420:25 0
94 *418:93 *721:DE 1.93857e-05
*RES
1 *926:X *420:8 27.2082 
2 *420:8 *712:DE 14.7076 
3 *420:8 *420:19 6.6074 
4 *420:19 *420:25 11.8358 
5 *420:25 *420:27 0.378612 
6 *420:27 *709:DE 14.153 
7 *420:27 *420:44 19.1361 
8 *420:44 *708:DE 39.9444 
9 *420:44 *722:DE 11.2566 
10 *420:25 *420:72 19.4961 
11 *420:72 *720:DE 9.24915 
12 *420:72 *721:DE 33.6359 
13 *420:19 *420:106 21.2145 
14 *420:106 *711:DE 14.7076 
15 *420:106 *710:DE 30.8622 
*END

*D_NET *334 0.000358387
*CONN
*I *587:A1 I *D sky130_fd_sc_hd__o2111ai_2
*I *840:X O *D sky130_fd_sc_hd__buf_4
*CAP
1 *587:A1 7.71414e-05
2 *840:X 7.71414e-05
3 *587:A1 *840:A 6.64162e-05
4 *587:A1 *359:29 5.18528e-05
5 *89:20 *587:A1 8.58353e-05
*RES
1 *840:X *587:A1 21.633 
*END

*D_NET *335 0.000657714
*CONN
*I *592:B I *D sky130_fd_sc_hd__xor2_2
*I *841:X O *D sky130_fd_sc_hd__buf_6
*CAP
1 *592:B 0.000205867
2 *841:X 0.000205867
3 *592:B *592:A 3.27437e-05
4 *592:B *593:B1_N 2.54908e-05
5 *592:B *594:A_N 4.46057e-05
6 *569:A *592:B 0.00014314
*RES
1 *841:X *592:B 25.0642 
*END

*D_NET *336 0.0151983
*CONN
*I *658:S I *D sky130_fd_sc_hd__mux2i_1
*I *661:B I *D sky130_fd_sc_hd__nand2_1
*I *645:S I *D sky130_fd_sc_hd__mux2i_1
*I *648:S I *D sky130_fd_sc_hd__mux2i_1
*I *972:A I *D sky130_fd_sc_hd__buf_4
*I *651:B I *D sky130_fd_sc_hd__nor2_4
*I *655:S I *D sky130_fd_sc_hd__mux2i_1
*I *842:X O *D sky130_fd_sc_hd__buf_8
*CAP
1 *658:S 0
2 *661:B 0.000358563
3 *645:S 0.000173248
4 *648:S 0.000205646
5 *972:A 0
6 *651:B 0.000120388
7 *655:S 3.40224e-05
8 *842:X 0.000233402
9 *336:67 0.001195
10 *336:42 0.000894584
11 *336:29 0.0010202
12 *336:18 0.00260322
13 *336:12 0.0022682
14 *336:10 0.00039518
15 *645:S *876:A 7.57062e-05
16 *648:S *650:A1 0.000165459
17 *651:B *651:A 0
18 *651:B *653:B 5.47232e-06
19 *651:B *654:A1 5.96291e-05
20 *661:B *399:6 3.79253e-05
21 *336:10 *698:DE 6.27782e-05
22 *336:10 *353:8 7.28994e-06
23 *336:10 *353:33 9.46729e-05
24 *336:10 *357:18 0.000131521
25 *336:10 *454:36 0.000110458
26 *336:12 *498:A 1.55462e-05
27 *336:12 *658:A1 8.04923e-05
28 *336:12 *691:DE 2.47808e-05
29 *336:12 *353:33 1.53954e-05
30 *336:12 *357:39 0.000135197
31 *336:18 *498:A 2.99929e-05
32 *336:18 *691:DE 2.652e-05
33 *336:29 *416:28 0.000231298
34 *336:67 *520:S 6.08467e-05
35 *336:67 *652:A1 4.58003e-05
36 *336:67 *654:A1 0.000161243
37 *336:67 *702:DE 3.6783e-05
38 *336:67 *353:96 0.000756756
39 *647:B1 *645:S 6.55832e-05
40 *647:B1 *648:S 9.17389e-05
41 *650:A2 *648:S 1.92172e-05
42 *650:B1 *648:S 0.000217053
43 *652:B1 *651:B 0.000196638
44 *652:B1 *336:42 0.000129309
45 *654:A2 *336:67 1.92337e-05
46 *654:B1 *336:67 4.2372e-05
47 *655:A1 *655:S 0
48 *655:A1 *336:18 1.43848e-05
49 *657:A2 *336:18 0.00109929
50 *660:B1 *661:B 0.000137124
51 *691:D *661:B 0.000160617
52 *700:D *336:67 5.91002e-06
53 *702:D *336:67 0.000157158
54 *170:14 *336:18 0.000210967
55 *179:12 *651:B 3.20069e-06
56 *179:12 *336:42 5.33266e-05
57 *181:12 *336:67 0.000296607
58 *186:12 *661:B 0
59 *197:12 *645:S 0.000193358
60 *210:14 *336:18 2.52287e-06
61 *277:24 *655:S 1.05106e-05
62 *277:24 *336:18 4.94961e-05
63 *277:24 *336:29 7.98085e-05
64 *304:31 *336:18 6.96206e-05
*RES
1 *842:X *336:10 21.0117 
2 *336:10 *336:12 4.73876 
3 *336:12 *336:18 33.2611 
4 *336:18 *655:S 10.2378 
5 *336:18 *336:29 17.4247 
6 *336:29 *651:B 18.0727 
7 *336:29 *336:42 7.1625 
8 *336:42 *972:A 9.24915 
9 *336:42 *336:67 30.9616 
10 *336:67 *648:S 20.4599 
11 *336:67 *645:S 20.1489 
12 *336:12 *661:B 29.4627 
13 *336:10 *658:S 13.7491 
*END

*D_NET *423 0.00196295
*CONN
*I *593:A2 I *D sky130_fd_sc_hd__a21bo_1
*I *594:B I *D sky130_fd_sc_hd__nand3b_1
*I *929:X O *D sky130_fd_sc_hd__buf_4
*CAP
1 *593:A2 0.00013845
2 *594:B 0.000217938
3 *929:X 0
4 *423:4 0.000356388
5 *593:A2 *696:DE 1.5221e-05
6 *593:A2 *448:27 5.37082e-05
7 *593:A2 *448:31 1.78514e-05
8 *594:B *696:DE 0.000195318
9 *594:B *929:A 0.000110458
10 *593:A1 *593:A2 0.000346318
11 *593:A1 *594:B 1.65872e-05
12 *594:C *594:B 0.000224339
13 *596:A1 *593:A2 0.000127746
14 *392:16 *594:B 5.90501e-05
15 *415:39 *594:B 6.27782e-05
16 *420:106 *594:B 2.0801e-05
*RES
1 *929:X *423:4 9.24915 
2 *423:4 *594:B 26.179 
3 *423:4 *593:A2 25.0642 
*END

*D_NET *338 0.00453853
*CONN
*I *586:D I *D sky130_fd_sc_hd__or4_4
*I *579:A2 I *D sky130_fd_sc_hd__o2111ai_1
*I *844:X O *D sky130_fd_sc_hd__buf_4
*CAP
1 *586:D 0.000499305
2 *579:A2 9.7643e-05
3 *844:X 0.00039037
4 *338:18 0.000987317
5 *579:A2 *435:43 7.66026e-05
6 *586:D *435:43 4.24837e-05
7 *338:18 *580:B1 0.000107496
8 *338:18 *407:31 6.36477e-05
9 *571:A2 *338:18 5.04829e-06
10 *586:B *586:D 1.62644e-05
11 *587:A2 *338:18 0.000169513
12 *587:B1 *579:A2 3.75608e-05
13 *587:C1 *586:D 5.03168e-05
14 *587:D1 *586:D 0.000250007
15 *844:A *338:18 3.40288e-05
16 *865:A *586:D 7.23354e-05
17 *866:A *586:D 0.000245738
18 *84:31 *579:A2 1.80747e-06
19 *89:10 *338:18 0
20 *89:20 *338:18 0.000247443
21 *94:14 *579:A2 7.40084e-05
22 *94:14 *586:D 0.00106959
*RES
1 *844:X *338:18 31.8887 
2 *338:18 *579:A2 16.9002 
3 *338:18 *586:D 33.3327 
*END

*D_NET *248 0.00137964
*CONN
*I *643:A I *D sky130_fd_sc_hd__nand2_1
*I *800:X O *D sky130_fd_sc_hd__clkdlybuf4s50_1
*CAP
1 *643:A 0.000486896
2 *800:X 0.000486896
3 *643:A *800:A 0
4 *643:A *834:A 0.00038006
5 *182:18 *643:A 2.57847e-05
*RES
1 *800:X *643:A 40.4462 
*END

*D_NET *340 0.00214977
*CONN
*I *631:A2 I *D sky130_fd_sc_hd__a21oi_2
*I *846:X O *D sky130_fd_sc_hd__buf_4
*CAP
1 *631:A2 0.000387857
2 *846:X 0.000387857
3 *631:A2 *628:A1 6.27782e-05
4 *631:A2 *630:A 5.04829e-06
5 *631:A2 *630:B 3.18202e-05
6 *631:A2 *706:DE 0.000361539
7 *628:A2 *631:A2 0.000350419
8 *631:A1 *631:A2 0.000115934
9 *633:A2 *631:A2 4.54077e-05
10 *705:D *631:A2 9.98296e-05
11 *823:A *631:A2 3.7615e-05
12 *846:A *631:A2 0.000167441
13 *284:12 *631:A2 9.62252e-05
*RES
1 *846:X *631:A2 42.694 
*END

*D_NET *341 0.00413447
*CONN
*I *616:B I *D sky130_fd_sc_hd__xnor2_2
*I *847:X O *D sky130_fd_sc_hd__buf_4
*CAP
1 *616:B 0
2 *847:X 0.000953879
3 *341:20 0.000953879
4 *341:20 *512:A2 2.16355e-05
5 *341:20 *544:A 2.58616e-05
6 *341:20 *708:DE 0
7 *341:20 *400:14 0.000427568
8 *341:20 *426:46 0
9 *512:A1 *341:20 0.000144652
10 *512:B1 *341:20 0.000120505
11 *513:A1 *341:20 0.000555982
12 *546:A2 *341:20 5.32434e-05
13 *619:A *341:20 7.7502e-05
14 *620:B1 *341:20 0.000303694
15 *847:A *341:20 0.00017407
16 *31:22 *341:20 0.000247097
17 *117:22 *341:20 7.48995e-05
*RES
1 *847:X *341:20 48.2126 
2 *341:20 *616:B 9.24915 
*END

*D_NET *342 0.00162524
*CONN
*I *599:A I *D sky130_fd_sc_hd__xnor2_4
*I *848:X O *D sky130_fd_sc_hd__buf_6
*CAP
1 *599:A 0.00044436
2 *848:X 0.00044436
3 *599:A *508:A 5.73329e-05
4 *599:A *709:CLK 0.000157107
5 *599:A *426:8 0.000212458
6 *607:A2 *599:A 2.65831e-05
7 *709:D *599:A 6.33233e-05
8 *827:A *599:A 0.000219718
*RES
1 *848:X *599:A 40.9094 
*END

*D_NET *343 0.00307591
*CONN
*I *683:A I *D sky130_fd_sc_hd__nand2_4
*I *567:B I *D sky130_fd_sc_hd__xnor2_2
*I *849:X O *D sky130_fd_sc_hd__buf_6
*CAP
1 *683:A 0.000397654
2 *567:B 0.000265474
3 *849:X 2.52522e-05
4 *343:8 0.00068838
5 *567:B *683:B 0.000346746
6 *567:B *697:CLK 0.000314979
7 *683:A *683:B 0.000423384
8 *683:A *686:A1 5.5493e-05
9 *683:A *363:16 5.69457e-05
10 *683:A *469:18 0
11 *343:8 *675:C 6.08467e-05
12 *577:B *567:B 5.15789e-05
13 *963:A *567:B 3.03152e-05
14 *59:10 *683:A 0.000294093
15 *75:12 *683:A 3.4368e-05
16 *86:47 *343:8 5.20546e-06
17 *176:12 *567:B 2.01653e-05
18 *275:18 *567:B 5.03545e-06
*RES
1 *849:X *343:8 14.4725 
2 *343:8 *567:B 23.4709 
3 *343:8 *683:A 25.7485 
*END

*D_NET *339 0.00434651
*CONN
*I *976:A I *D sky130_fd_sc_hd__buf_6
*I *565:A2 I *D sky130_fd_sc_hd__o21ai_4
*I *845:X O *D sky130_fd_sc_hd__buf_6
*CAP
1 *976:A 0.000345911
2 *565:A2 8.86719e-05
3 *845:X 0.000710938
4 *339:10 0.00114552
5 *565:A2 *406:20 0.000251655
6 *976:A *604:B 0.000154141
7 *976:A *386:39 0.000340612
8 *339:10 *683:B 0.000140664
9 *339:10 *686:A1 0
10 *478:A *339:10 9.04224e-05
11 *478:B_N *339:10 1.65872e-05
12 *565:A1 *565:A2 8.39059e-05
13 *565:A1 *976:A 0.000298405
14 *565:A1 *339:10 5.56367e-05
15 *567:A *339:10 4.59656e-05
16 *709:D *976:A 0.000308314
17 *709:D *339:10 0.000107729
18 *870:A *976:A 6.08467e-05
19 *86:47 *339:10 1.29348e-05
20 *164:12 *339:10 0
21 *220:14 *565:A2 6.11359e-06
22 *275:18 *339:10 8.15307e-05
*RES
1 *845:X *339:10 33.054 
2 *339:10 *565:A2 17.2697 
3 *339:10 *976:A 26.7506 
*END

*D_NET *346 0.00223565
*CONN
*I *614:A2 I *D sky130_fd_sc_hd__a32o_1
*I *634:B I *D sky130_fd_sc_hd__nand2_4
*I *852:X O *D sky130_fd_sc_hd__buf_4
*CAP
1 *614:A2 0.0004119
2 *634:B 0.000123455
3 *852:X 1.09219e-05
4 *346:8 0.000546277
5 *614:A2 *612:A 1.5714e-05
6 *614:A2 *614:A3 0.000111722
7 *614:A2 *888:A 0.000164842
8 *614:A2 *378:12 0.000184529
9 *634:B *623:A1 0
10 *634:B *888:A 0.000157652
11 *346:8 *380:50 6.36477e-05
12 *527:A *614:A2 0
13 *623:B1 *614:A2 4.36852e-05
14 *623:B1 *634:B 6.50586e-05
15 *720:D *614:A2 2.41483e-05
16 *33:20 *614:A2 0.00013286
17 *111:8 *346:8 6.36477e-05
18 *112:12 *614:A2 5.47387e-05
19 *122:12 *634:B 6.08467e-05
*RES
1 *852:X *346:8 14.4725 
2 *346:8 *634:B 17.5503 
3 *346:8 *614:A2 26.2975 
*END

*D_NET *337 0.000511824
*CONN
*I *645:A1 I *D sky130_fd_sc_hd__mux2i_1
*I *843:X O *D sky130_fd_sc_hd__buf_4
*CAP
1 *645:A1 0.000255912
2 *843:X 0.000255912
*RES
1 *843:X *645:A1 23.6826 
*END

*D_NET *424 0.00367085
*CONN
*I *639:A I *D sky130_fd_sc_hd__nand2_4
*I *610:A3 I *D sky130_fd_sc_hd__a31oi_4
*I *608:A I *D sky130_fd_sc_hd__nand2_2
*I *930:X O *D sky130_fd_sc_hd__buf_6
*CAP
1 *639:A 0.000468269
2 *610:A3 0.000118883
3 *608:A 0.000430882
4 *930:X 0.000659812
5 *424:10 0.000741308
6 *639:A *675:A 7.52283e-05
7 *539:A1 *608:A 3.61993e-05
8 *540:A1 *639:A 4.89251e-05
9 *540:B1 *639:A 4.89251e-05
10 *540:C1 *639:A 5.36868e-05
11 *541:A1 *608:A 3.99086e-06
12 *610:B1 *608:A 4.30017e-06
13 *641:A *639:A 5.41582e-05
14 *948:A *424:10 4.47179e-05
15 *973:A *610:A3 0.000135541
16 *973:A *424:10 2.47663e-05
17 *48:14 *424:10 8.33074e-05
18 *49:22 *610:A3 0.000304985
19 *49:22 *424:10 1.07248e-05
20 *51:22 *608:A 0.000207266
21 *182:22 *608:A 0
22 *182:28 *608:A 3.68808e-05
23 *386:39 *424:10 7.80913e-05
*RES
1 *930:X *424:10 19.7659 
2 *424:10 *608:A 21.5859 
3 *424:10 *610:A3 19.3184 
4 *930:X *639:A 30.2173 
*END

*D_NET *249 0.00162368
*CONN
*I *637:A I *D sky130_fd_sc_hd__nand2_1
*I *801:X O *D sky130_fd_sc_hd__clkdlybuf4s50_1
*CAP
1 *637:A 0.000615418
2 *801:X 0.000615418
3 *637:A *517:A1 0.000121926
4 *638:A1 *637:A 2.68529e-05
5 *638:B1 *637:A 2.92544e-05
6 *704:D *637:A 0.000214815
*RES
1 *801:X *637:A 35.2087 
*END

*D_NET *347 0.00112593
*CONN
*I *648:A1 I *D sky130_fd_sc_hd__mux2i_1
*I *853:X O *D sky130_fd_sc_hd__buf_4
*CAP
1 *648:A1 0.000293255
2 *853:X 0.000293255
3 *648:A1 *701:DE 4.24386e-05
4 *648:A1 *702:CLK 0.000152833
5 *648:A1 *353:108 0.000130621
6 *648:A1 *357:169 0
7 *648:A0 *648:A1 3.75603e-05
8 *650:A2 *648:A1 8.16459e-05
9 *702:D *648:A1 9.43255e-05
*RES
1 *853:X *648:A1 35.9652 
*END

*D_NET *348 0.00187412
*CONN
*I *596:A3 I *D sky130_fd_sc_hd__a31oi_1
*I *595:B I *D sky130_fd_sc_hd__nor2_1
*I *854:X O *D sky130_fd_sc_hd__buf_4
*CAP
1 *596:A3 0.000130528
2 *595:B 1.7842e-05
3 *854:X 0.000159598
4 *348:12 0.000307968
5 *595:B *502:A 0.000112367
6 *596:A3 *502:A 6.8401e-06
7 *596:A3 *415:39 0.00015607
8 *596:A3 *448:27 0.000149115
9 *348:12 *502:A 4.55145e-06
10 *348:12 *503:A1 0.000217937
11 *348:12 *448:27 0.000157226
12 *503:B1 *348:12 9.13603e-05
13 *596:A1 *596:A3 6.08467e-05
14 *596:B1 *596:A3 0.000118002
15 *695:D *596:A3 1.58551e-05
16 *841:A *595:B 0.000112367
17 *854:A *348:12 5.56461e-05
*RES
1 *854:X *348:12 19.7928 
2 *348:12 *595:B 15.0271 
3 *348:12 *596:A3 18.6595 
*END

*D_NET *349 0.002298
*CONN
*I *597:A I *D sky130_fd_sc_hd__xnor2_2
*I *855:X O *D sky130_fd_sc_hd__buf_4
*CAP
1 *597:A 0.00086761
2 *855:X 0.00086761
3 *597:A *840:A 5.49769e-05
4 *597:A *391:16 0.000147822
5 *947:A *597:A 1.03594e-05
6 *172:20 *597:A 0.000349627
*RES
1 *855:X *597:A 42.4103 
*END

*D_NET *350 0.000755862
*CONN
*I *599:B I *D sky130_fd_sc_hd__xnor2_4
*I *856:X O *D sky130_fd_sc_hd__buf_4
*CAP
1 *599:B 0.000127674
2 *856:X 0.000127674
3 *599:B *607:A1 2.09298e-05
4 *558:C *599:B 0.000111708
5 *607:A2 *599:B 6.55289e-05
6 *607:B1 *599:B 6.92705e-05
7 *943:A *599:B 0.000233076
*RES
1 *856:X *599:B 23.8514 
*END

*D_NET *351 0.00212534
*CONN
*I *540:B1 I *D sky130_fd_sc_hd__a211oi_2
*I *538:B1 I *D sky130_fd_sc_hd__a21oi_4
*I *857:X O *D sky130_fd_sc_hd__buf_4
*CAP
1 *540:B1 0.000182813
2 *538:B1 0.000425054
3 *857:X 1.41765e-05
4 *351:8 0.000622044
5 *538:B1 *481:A_N 0.000161367
6 *538:B1 *535:C 0
7 *540:B1 *639:A 4.89251e-05
8 *540:B1 *675:A 5.0715e-05
9 *351:8 *639:B 2.58757e-05
10 *482:B1 *538:B1 0.000204043
11 *540:A1 *540:B1 5.43353e-05
12 *13:8 *538:B1 0.000169041
13 *13:19 *538:B1 9.5549e-05
14 *13:19 *540:B1 8.62474e-06
15 *45:10 *540:B1 0
16 *47:16 *351:8 6.27782e-05
17 *50:8 *540:B1 0
*RES
1 *857:X *351:8 14.4725 
2 *351:8 *538:B1 24.8883 
3 *351:8 *540:B1 19.3507 
*END

*D_NET *352 0.001976
*CONN
*I *625:B I *D sky130_fd_sc_hd__xnor2_2
*I *858:X O *D sky130_fd_sc_hd__buf_4
*CAP
1 *625:B 0.000496915
2 *858:X 0.000496915
3 *625:B *624:C 0
4 *625:B *706:DE 1.53265e-05
5 *625:B *458:137 0
6 *513:A1 *625:B 0.000474871
7 *629:A *625:B 0.000216467
8 *846:A *625:B 0.000112367
9 *184:10 *625:B 6.16146e-05
10 *184:12 *625:B 5.25819e-05
11 *284:12 *625:B 4.89392e-05
*RES
1 *858:X *625:B 43.243 
*END

*D_NET *353 0.0327315
*CONN
*I *693:DE I *D sky130_fd_sc_hd__edfxtp_1
*I *703:DE I *D sky130_fd_sc_hd__edfxtp_1
*I *702:DE I *D sky130_fd_sc_hd__edfxtp_1
*I *701:DE I *D sky130_fd_sc_hd__edfxtp_1
*I *700:DE I *D sky130_fd_sc_hd__edfxtp_1
*I *699:DE I *D sky130_fd_sc_hd__edfxtp_1
*I *691:DE I *D sky130_fd_sc_hd__edfxtp_1
*I *698:DE I *D sky130_fd_sc_hd__edfxtp_1
*I *859:X O *D sky130_fd_sc_hd__buf_12
*CAP
1 *693:DE 0.00403645
2 *703:DE 0.0007222
3 *702:DE 7.25634e-05
4 *701:DE 0.000388435
5 *700:DE 1.65908e-05
6 *699:DE 0.00029575
7 *691:DE 0.000219872
8 *698:DE 0.000777764
9 *859:X 0
10 *353:108 0.00108099
11 *353:98 0.00146952
12 *353:96 0.00137266
13 *353:54 0.000536084
14 *353:50 0.00335627
15 *353:33 0.00245344
16 *353:8 0.00139131
17 *353:6 0.00430362
18 *691:DE *498:A 0
19 *691:DE *357:39 5.41377e-05
20 *691:DE *357:45 0.000228329
21 *691:DE *419:69 0
22 *693:DE *357:18 0
23 *693:DE *415:10 3.73224e-05
24 *693:DE *415:23 0.000133772
25 *693:DE *415:31 2.16355e-05
26 *693:DE *420:25 0.000207944
27 *698:DE *687:A0 0.000853756
28 *698:DE *454:36 1.37939e-05
29 *700:DE *416:28 3.44641e-05
30 *701:DE *702:CLK 0.000191541
31 *701:DE *416:53 1.06426e-05
32 *703:DE *473:A 0.000149656
33 *703:DE *719:DE 0.000714825
34 *703:DE *357:175 0
35 *703:DE *397:10 0.000163036
36 *703:DE *397:31 0.000122811
37 *703:DE *419:128 7.27101e-06
38 *703:DE *449:44 0
39 *703:DE *471:10 0
40 *353:8 *523:A0 0
41 *353:8 *523:S 0
42 *353:8 *357:18 0
43 *353:33 *496:A 7.62627e-06
44 *353:33 *357:39 2.69874e-05
45 *353:33 *419:69 0
46 *353:50 *497:A 7.6719e-06
47 *353:50 *655:A0 0.000160617
48 *353:50 *958:A 0.000187171
49 *353:50 *428:62 0.000772066
50 *353:96 *520:S 5.55735e-05
51 *353:96 *652:A1 3.76697e-05
52 *353:96 *419:107 0.000307039
53 *353:96 *449:16 0.000423908
54 *353:98 *397:10 2.1032e-05
55 *353:108 *357:169 1.1289e-05
56 *353:108 *357:175 5.23435e-05
57 *353:108 *397:10 2.58757e-05
58 resp_msg[2] *699:DE 0.000200206
59 *475:B *353:8 4.71926e-05
60 *477:B_N *353:50 2.41483e-05
61 *509:B1 *693:DE 0.00160609
62 *518:A1 *703:DE 4.14448e-05
63 *521:A1 *353:96 2.04806e-05
64 *521:A1 *353:98 0
65 *537:A1 *353:108 6.27782e-05
66 *558:C *693:DE 7.28994e-06
67 *558:D *693:DE 0.00014607
68 *647:A2 *353:108 3.00174e-06
69 *647:B1 *701:DE 0
70 *647:B1 *702:DE 3.09374e-06
71 *647:B1 *353:108 0
72 *648:A1 *701:DE 4.24386e-05
73 *648:A1 *353:108 0.000130621
74 *654:B1 *353:96 0.000110297
75 *677:B1 *693:DE 2.02035e-05
76 *677:B1 *353:8 0.000197492
77 *693:D *693:DE 0.000126739
78 *698:D *698:DE 8.5703e-05
79 *700:D *353:50 1.77584e-05
80 *700:D *353:96 2.05182e-05
81 *701:D *701:DE 6.64392e-05
82 *702:D *353:108 0.000120505
83 *703:D *703:DE 3.44641e-05
84 *716:D *703:DE 3.79647e-05
85 *716:D *353:98 1.56426e-05
86 *799:A *699:DE 0
87 *812:A *699:DE 6.2597e-05
88 *831:A *699:DE 0
89 *831:A *353:54 0
90 *853:A *353:108 1.43698e-05
91 *893:A *353:50 3.31745e-05
92 *7:10 *353:50 0.000523679
93 *15:10 *353:96 3.20999e-05
94 *170:14 *691:DE 8.75716e-05
95 *172:20 *693:DE 1.49482e-05
96 *177:10 *353:8 1.24817e-05
97 *177:10 *353:33 1.63652e-05
98 *178:16 *699:DE 0
99 *178:16 *353:54 0
100 *180:6 *701:DE 1.48504e-05
101 *181:12 *353:98 0.000119244
102 *195:14 *703:DE 1.5714e-05
103 *196:23 *353:96 0
104 *197:26 *353:108 1.13953e-05
105 *210:14 *699:DE 0
106 *277:24 *353:54 0
107 *304:31 *353:50 2.41483e-05
108 *336:10 *698:DE 6.27782e-05
109 *336:10 *353:8 7.28994e-06
110 *336:10 *353:33 9.46729e-05
111 *336:12 *691:DE 2.47808e-05
112 *336:12 *353:33 1.53954e-05
113 *336:18 *691:DE 2.652e-05
114 *336:67 *702:DE 3.6783e-05
115 *336:67 *353:96 0.000756756
*RES
1 *859:X *353:6 13.7491 
2 *353:6 *353:8 8.06078 
3 *353:8 *698:DE 36.9787 
4 *353:8 *353:33 8.96456 
5 *353:33 *691:DE 20.5945 
6 *353:33 *353:50 35.172 
7 *353:50 *353:54 9.65401 
8 *353:54 *699:DE 20.9681 
9 *353:54 *700:DE 14.153 
10 *353:50 *353:96 47.3542 
11 *353:96 *353:98 3.493 
12 *353:98 *353:108 20.6799 
13 *353:108 *701:DE 23.9588 
14 *353:108 *702:DE 15.2645 
15 *353:98 *703:DE 37.1629 
16 *353:6 *693:DE 34.9981 
*END

*D_NET *354 0.000571602
*CONN
*I *630:A I *D sky130_fd_sc_hd__nor2_2
*I *860:X O *D sky130_fd_sc_hd__buf_4
*CAP
1 *630:A 0.000154217
2 *860:X 0.000154217
3 *630:A *630:B 0.000187766
4 *630:A *414:116 0
5 *628:A2 *630:A 2.18145e-05
6 *631:A2 *630:A 5.04829e-06
7 *631:B1 *630:A 4.24529e-05
8 *633:A2 *630:A 6.08697e-06
*RES
1 *860:X *630:A 32.1569 
*END

*D_NET *355 0.00186395
*CONN
*I *680:A1 I *D sky130_fd_sc_hd__o21ai_2
*I *682:A1 I *D sky130_fd_sc_hd__o21bai_4
*I *861:X O *D sky130_fd_sc_hd__buf_4
*CAP
1 *680:A1 8.21156e-05
2 *682:A1 0.000141318
3 *861:X 0.000335402
4 *355:10 0.000558835
5 *682:A1 *681:A 0.000109421
6 *355:10 *589:A 0.000113644
7 *355:10 *413:12 0
8 *680:A2 *680:A1 0.000122588
9 *680:B1 *680:A1 2.15938e-05
10 *681:B_N *682:A1 7.26748e-05
11 *861:A *355:10 0.000118792
12 *166:16 *682:A1 8.70662e-06
13 *166:16 *355:10 0.000178858
*RES
1 *861:X *355:10 23.9212 
2 *355:10 *682:A1 16.8591 
3 *355:10 *680:A1 16.1605 
*END

*D_NET *250 0.00109291
*CONN
*I *632:A I *D sky130_fd_sc_hd__nand2_1
*I *802:X O *D sky130_fd_sc_hd__clkdlybuf4s50_1
*CAP
1 *632:A 0.00027493
2 *802:X 0.00027493
3 *632:A *627:A 0.000213449
4 *632:A *627:B 5.37008e-05
5 *632:A *803:A 0.000163165
6 *906:A *632:A 3.82887e-05
7 *185:10 *632:A 7.44417e-05
*RES
1 *802:X *632:A 27.0103 
*END

*D_NET *356 0.00190281
*CONN
*I *589:A I *D sky130_fd_sc_hd__nor3_1
*I *862:X O *D sky130_fd_sc_hd__buf_4
*CAP
1 *589:A 0.000735877
2 *862:X 0.000735877
3 *589:A *575:A 1.40978e-05
4 *589:A *589:B 2.41483e-05
5 *575:B *589:A 2.24789e-05
6 *590:B1 *589:A 0.000169041
7 *861:A *589:A 8.76469e-05
8 *355:10 *589:A 0.000113644
*RES
1 *862:X *589:A 31.1818 
*END

*D_NET *357 0.0356952
*CONN
*I *686:A1 I *D sky130_fd_sc_hd__o21ai_1
*I *590:A2 I *D sky130_fd_sc_hd__a211o_1
*I *589:B I *D sky130_fd_sc_hd__nor3_1
*I *664:A1 I *D sky130_fd_sc_hd__o21ai_1
*I *657:A1 I *D sky130_fd_sc_hd__o21ai_1
*I *656:B I *D sky130_fd_sc_hd__nand2_1
*I *647:A1 I *D sky130_fd_sc_hd__o21ai_1
*I *638:A2 I *D sky130_fd_sc_hd__o21ai_1
*I *637:B I *D sky130_fd_sc_hd__nand2_1
*I *643:B I *D sky130_fd_sc_hd__nand2_1
*I *644:A1 I *D sky130_fd_sc_hd__o21ai_1
*I *650:A1 I *D sky130_fd_sc_hd__o21ai_1
*I *649:B I *D sky130_fd_sc_hd__nand2_1
*I *646:B I *D sky130_fd_sc_hd__nand2_1
*I *654:A1 I *D sky130_fd_sc_hd__o21ai_1
*I *653:B I *D sky130_fd_sc_hd__nand2_1
*I *685:B I *D sky130_fd_sc_hd__nand2_1
*I *663:B I *D sky130_fd_sc_hd__nand2_1
*I *659:B I *D sky130_fd_sc_hd__nand2_1
*I *660:A1 I *D sky130_fd_sc_hd__o21ai_1
*I *863:X O *D sky130_fd_sc_hd__buf_4
*CAP
1 *686:A1 0.00063158
2 *590:A2 0.000437743
3 *589:B 2.46489e-05
4 *664:A1 0
5 *657:A1 0
6 *656:B 0.000162239
7 *647:A1 3.71068e-05
8 *638:A2 0.000115138
9 *637:B 2.09548e-05
10 *643:B 2.60554e-05
11 *644:A1 1.68076e-05
12 *650:A1 0.000162662
13 *649:B 0
14 *646:B 0.000141052
15 *654:A1 0.000194402
16 *653:B 0.000178308
17 *685:B 1.89579e-05
18 *663:B 1.81917e-05
19 *659:B 0.000302073
20 *660:A1 0.000112581
21 *863:X 2.85048e-05
22 *357:193 0.000390401
23 *357:177 4.2863e-05
24 *357:175 0.00112173
25 *357:169 0.00124831
26 *357:146 0.000576527
27 *357:128 0.000181989
28 *357:126 0.000976481
29 *357:98 0.00037271
30 *357:96 0.00138431
31 *357:92 0.00118852
32 *357:79 0.000721898
33 *357:71 0.000662192
34 *357:56 0.00052498
35 *357:45 0.000558769
36 *357:39 0.000377819
37 *357:18 0.00128049
38 *357:14 0.00112653
39 *357:12 0.00160131
40 *357:6 0.00172846
41 *589:B *575:A 5.56461e-05
42 *590:A2 *435:27 0.000109569
43 *656:B *699:CLK 0
44 *659:B *498:A 0.000118166
45 *660:A1 *658:A1 7.19887e-05
46 *660:A1 *417:33 1.90156e-05
47 *660:A1 *419:50 0.000398947
48 *686:A1 *683:B 2.16355e-05
49 *686:A1 *406:20 0.000165936
50 *357:12 *570:C 5.34635e-05
51 *357:12 *457:28 0.000154145
52 *357:14 *589:C 2.3939e-05
53 *357:14 *435:27 4.9e-05
54 *357:14 *436:14 0
55 *357:18 *574:A 6.42805e-05
56 *357:18 *658:A1 5.37077e-05
57 *357:18 *436:14 0
58 *357:39 *658:A1 2.16355e-05
59 *357:39 *673:C 0.000111708
60 *357:39 *417:33 7.98171e-06
61 *357:39 *419:50 0.000140978
62 *357:45 *498:A 0
63 *357:71 *522:A0 9.64697e-05
64 *357:71 *522:S 0
65 *357:92 *522:A0 3.072e-06
66 *357:92 *404:16 2.52287e-06
67 *357:126 *416:26 0.000302686
68 *357:126 *416:53 0.000838111
69 *357:128 *702:CLK 0
70 *357:146 *702:CLK 0
71 *357:169 *702:CLK 4.75746e-05
72 *357:175 *473:B 0.000347257
73 *357:175 *645:A0 0.000616239
74 *357:175 *719:DE 9.43419e-05
75 *357:193 *704:DE 1.67286e-05
76 resp_msg[1] *357:71 1.62073e-05
77 resp_msg[2] *357:96 1.9633e-05
78 resp_msg[3] *653:B 0.000143017
79 resp_msg[3] *357:96 1.10258e-05
80 *484:B_N *653:B 2.77419e-05
81 *484:B_N *654:A1 0.000225466
82 *486:A *357:175 0
83 *486:B *357:175 0
84 *520:A1 *357:96 0.000219753
85 *520:A1 *357:126 4.91096e-05
86 *521:A1 *646:B 0
87 *521:A1 *357:128 0
88 *521:A1 *357:146 0
89 *521:A1 *357:169 0
90 *564:A *590:A2 1.57187e-05
91 *567:A *686:A1 0.000190001
92 *568:A_N *357:18 0.000384408
93 *589:A *589:B 2.41483e-05
94 *590:A1 *590:A2 1.57187e-05
95 *590:B1 *589:B 0.00011818
96 *590:B1 *590:A2 0.000102553
97 *590:B1 *357:14 0.000259271
98 *590:B1 *357:18 2.95757e-05
99 *638:A1 *637:B 2.58616e-05
100 *642:A1 *357:193 0
101 *644:A2 *357:193 7.50722e-05
102 *644:B1 *643:B 0.000169728
103 *647:A2 *357:175 2.31359e-05
104 *648:A0 *650:A1 1.51406e-05
105 *648:A1 *357:169 0
106 *648:S *650:A1 0.000165459
107 *649:A *646:B 7.93324e-05
108 *649:A *357:128 5.22654e-06
109 *650:A2 *650:A1 0.000319208
110 *650:B1 *650:A1 0.000324682
111 *650:B1 *357:128 3.20069e-06
112 *650:B1 *357:146 3.00073e-05
113 *651:B *653:B 5.47232e-06
114 *651:B *654:A1 5.96291e-05
115 *652:B1 *357:96 6.92705e-05
116 *654:A2 *654:A1 6.53312e-05
117 *654:B1 *653:B 0
118 *656:A *656:B 6.13982e-05
119 *657:A2 *357:79 7.92757e-06
120 *657:B1 *357:71 2.8959e-05
121 *660:A2 *660:A1 4.36818e-05
122 *660:B1 *659:B 6.53364e-05
123 *660:B1 *660:A1 0.000110063
124 *664:B1 *357:45 7.95666e-05
125 *677:A1 *357:18 0.000272368
126 *677:B1 *357:18 0
127 *680:A2 *357:18 8.72115e-06
128 *683:A *686:A1 5.5493e-05
129 *684:B *686:A1 0.00015901
130 *685:A *685:B 5.25994e-05
131 *685:A *357:79 9.24241e-05
132 *685:A *357:92 2.65831e-05
133 *690:D *357:18 0.000148525
134 *691:DE *357:39 5.41377e-05
135 *691:DE *357:45 0.000228329
136 *693:DE *357:18 0
137 *696:D *590:A2 5.2737e-05
138 *702:D *647:A1 6.95572e-05
139 *702:D *357:169 4.69737e-05
140 *702:D *357:175 3.20264e-05
141 *703:D *357:175 0.000127194
142 *703:DE *357:175 0
143 *704:D *637:B 2.16355e-05
144 *704:D *357:193 0.000117421
145 *709:D *686:A1 1.2819e-05
146 *715:D *357:71 2.57986e-05
147 *717:D *357:169 0
148 *795:A *656:B 0.000200221
149 *796:A *653:B 5.56461e-05
150 *799:A *653:B 5.07314e-05
151 *808:A *357:71 8.68108e-05
152 *812:A *357:96 0.000213725
153 *822:A *659:B 3.51934e-05
154 *829:A *659:B 0.000122378
155 *829:A *663:B 1.09551e-05
156 *829:A *357:45 0
157 *829:A *357:56 7.72557e-05
158 *829:A *357:71 5.99527e-05
159 *830:A *656:B 5.1493e-06
160 *830:A *357:92 1.41689e-05
161 *830:A *357:96 0.00016553
162 *831:A *357:96 0.000476439
163 *834:A *643:B 0.00020444
164 *834:A *644:A1 0.000118166
165 *853:A *357:169 6.46815e-05
166 *853:A *357:175 5.34638e-05
167 *862:A *590:A2 0.00023761
168 *863:A *357:6 1.838e-05
169 *863:A *357:12 0.00108539
170 *880:A *656:B 2.69795e-05
171 *880:A *357:92 0.000557425
172 *945:A *590:A2 0.000112367
173 *7:10 *357:39 0.000107496
174 *15:10 *653:B 0
175 *59:10 *686:A1 8.21761e-06
176 *59:10 *357:12 7.40376e-06
177 *84:14 *589:B 1.00981e-05
178 *84:14 *357:14 0.000123326
179 *86:47 *686:A1 0.000149628
180 *163:12 *686:A1 0.000966173
181 *164:12 *357:92 7.02172e-06
182 *175:6 *590:A2 2.28502e-05
183 *178:16 *653:B 0
184 *179:12 *654:A1 0.000137936
185 *181:12 *357:169 0
186 *182:18 *643:B 1.92336e-05
187 *182:18 *644:A1 5.0715e-05
188 *182:18 *357:175 0
189 *182:18 *357:193 0
190 *183:10 *357:193 0
191 *194:12 *656:B 0
192 *196:12 *650:A1 4.152e-06
193 *196:23 *654:A1 0.000120334
194 *197:26 *647:A1 5.90836e-05
195 *197:26 *357:169 0.000176634
196 *210:14 *357:79 0.000472804
197 *266:19 *357:18 0.0001682
198 *280:12 *357:175 0
199 *292:15 *646:B 3.67528e-06
200 *304:31 *685:B 5.61969e-05
201 *304:31 *357:79 0.000461807
202 *336:10 *357:18 0.000131521
203 *336:12 *357:39 0.000135197
204 *336:67 *654:A1 0.000161243
205 *339:10 *686:A1 0
206 *353:8 *357:18 0
207 *353:33 *357:39 2.69874e-05
208 *353:108 *357:169 1.1289e-05
209 *353:108 *357:175 5.23435e-05
*RES
1 *863:X *357:6 10.2378 
2 *357:6 *357:12 22.4402 
3 *357:12 *357:14 4.73876 
4 *357:14 *357:18 34.9844 
5 *357:18 *660:A1 15.7115 
6 *357:18 *357:39 14.7731 
7 *357:39 *357:45 15.3998 
8 *357:45 *659:B 17.2065 
9 *357:45 *357:56 1.278 
10 *357:56 *663:B 9.82786 
11 *357:56 *357:71 20.1503 
12 *357:71 *357:79 13.7347 
13 *357:79 *685:B 14.7506 
14 *357:79 *357:92 12.9878 
15 *357:92 *357:96 16.2764 
16 *357:96 *357:98 4.5 
17 *357:98 *653:B 19.3507 
18 *357:98 *654:A1 21.9815 
19 *357:96 *357:126 19.6672 
20 *357:126 *357:128 1.00149 
21 *357:128 *646:B 17.6574 
22 *357:128 *649:B 13.7491 
23 *357:126 *357:146 1.832 
24 *357:146 *650:A1 21.3207 
25 *357:146 *357:169 14.4497 
26 *357:169 *357:175 31.4106 
27 *357:175 *357:177 4.5 
28 *357:177 *644:A1 10.5271 
29 *357:177 *643:B 11.6364 
30 *357:175 *357:193 6.81502 
31 *357:193 *637:B 14.4725 
32 *357:193 *638:A2 15.6056 
33 *357:169 *647:A1 11.0817 
34 *357:92 *656:B 22.9879 
35 *357:71 *657:A1 9.24915 
36 *357:39 *664:A1 9.24915 
37 *357:14 *589:B 15.5817 
38 *357:12 *590:A2 36.3872 
39 *357:6 *686:A1 40.6057 
*END

*D_NET *426 0.0124147
*CONN
*I *603:A1 I *D sky130_fd_sc_hd__o21ai_1
*I *602:B I *D sky130_fd_sc_hd__nand2_1
*I *606:B I *D sky130_fd_sc_hd__nand2_1
*I *628:A1 I *D sky130_fd_sc_hd__o21ai_1
*I *633:A1 I *D sky130_fd_sc_hd__o21ai_1
*I *632:B I *D sky130_fd_sc_hd__nand2_1
*I *627:B I *D sky130_fd_sc_hd__nand2_1
*I *619:B I *D sky130_fd_sc_hd__nand2_1
*I *620:A1 I *D sky130_fd_sc_hd__o21ai_1
*I *607:A1 I *D sky130_fd_sc_hd__o21ai_1
*I *932:X O *D sky130_fd_sc_hd__buf_4
*CAP
1 *603:A1 0.000130514
2 *602:B 0
3 *606:B 3.40616e-05
4 *628:A1 0.000102462
5 *633:A1 0
6 *632:B 0
7 *627:B 0.000105417
8 *619:B 0
9 *620:A1 0
10 *607:A1 0.000377537
11 *932:X 0.00053556
12 *426:112 0.000233734
13 *426:101 0.000370771
14 *426:87 0.000281459
15 *426:65 0.000153357
16 *426:61 0.00147537
17 *426:46 0.00151934
18 *426:33 0.000975979
19 *426:10 0.00108261
20 *426:8 0.00076905
21 *426:33 *600:S 0
22 *426:101 *694:DE 7.13655e-06
23 resp_msg[14] *603:A1 1.22289e-05
24 resp_msg[14] *426:112 1.94615e-05
25 *511:B *426:65 0
26 *511:B *426:87 0
27 *512:B1 *426:46 2.09501e-05
28 *512:B1 *426:61 5.57012e-05
29 *547:A *426:8 0
30 *547:A *426:101 0
31 *572:A *426:8 7.85226e-05
32 *572:B *426:8 4.56782e-05
33 *599:A *426:8 0.000212458
34 *599:B *607:A1 2.09298e-05
35 *603:B1 *603:A1 0.000199166
36 *606:A *426:101 1.03594e-05
37 *606:A *426:112 0.000161994
38 *607:A2 *607:A1 0.00046699
39 *607:A2 *426:8 0
40 *607:A2 *426:33 0.000205985
41 *618:B *426:33 0.000137444
42 *618:B *426:46 1.92172e-05
43 *619:A *426:61 4.45503e-05
44 *620:A2 *426:33 6.50727e-05
45 *620:A2 *426:46 6.92705e-05
46 *620:B1 *426:46 7.72336e-05
47 *627:A *627:B 6.91268e-05
48 *631:A2 *628:A1 6.27782e-05
49 *632:A *627:B 5.37008e-05
50 *633:A2 *426:87 7.73825e-05
51 *692:D *426:46 0.000144531
52 *694:D *603:A1 8.10282e-05
53 *694:D *426:112 7.59008e-05
54 *708:D *426:61 4.51339e-05
55 *708:DE *426:46 2.97009e-05
56 *709:D *426:8 0.000227006
57 *823:A *426:65 7.95319e-06
58 *823:A *426:87 3.42214e-05
59 *827:A *426:8 1.8906e-05
60 *827:A *426:101 6.72829e-05
61 *117:22 *426:46 4.44372e-05
62 *185:10 *627:B 0.00035638
63 *272:14 *426:33 0.000218567
64 *284:12 *628:A1 0.000105177
65 *341:20 *426:46 0
66 *398:6 *426:33 0.000176712
67 *398:6 *426:46 0.000106215
68 *398:14 *426:33 0.000113027
69 *406:20 *426:8 7.15593e-05
70 *414:53 *426:33 5.05252e-05
71 *420:27 *426:8 5.38612e-06
72 *420:44 *426:8 3.69203e-05
73 *420:72 *426:8 5.7596e-05
*RES
1 *932:X *426:8 30.9455 
2 *426:8 *426:10 4.5 
3 *426:10 *607:A1 16.3625 
4 *426:10 *426:33 24.3971 
5 *426:33 *620:A1 9.24915 
6 *426:33 *426:46 13.3258 
7 *426:46 *619:B 13.7491 
8 *426:46 *426:61 12.291 
9 *426:61 *426:65 5.29386 
10 *426:65 *627:B 14.4576 
11 *426:65 *632:B 9.24915 
12 *426:61 *426:87 8.51818 
13 *426:87 *633:A1 9.24915 
14 *426:87 *628:A1 12.191 
15 *426:8 *426:101 5.56926 
16 *426:101 *606:B 14.4819 
17 *426:101 *426:112 3.90826 
18 *426:112 *602:B 13.7491 
19 *426:112 *603:A1 18.1049 
*END

*D_NET *359 0.00452819
*CONN
*I *557:B I *D sky130_fd_sc_hd__nor2_1
*I *571:B1 I *D sky130_fd_sc_hd__a211oi_4
*I *584:A1 I *D sky130_fd_sc_hd__o2111ai_2
*I *865:X O *D sky130_fd_sc_hd__buf_4
*CAP
1 *557:B 8.15212e-05
2 *571:B1 0.00014701
3 *584:A1 0.000296287
4 *865:X 0.0001617
5 *359:29 0.00111445
6 *359:12 0.0013439
7 *571:B1 *361:12 0
8 *359:12 *579:A1 9.29919e-05
9 *359:12 *897:A 6.08467e-05
10 *359:12 *360:10 0.000203168
11 *359:29 *840:A 2.33514e-05
12 *359:29 *848:A 9.47414e-05
13 *359:29 *946:A 7.17845e-05
14 *558:C *557:B 0.000118017
15 *558:C *571:B1 0.000224803
16 *586:B *584:A1 0
17 *587:A1 *359:29 5.18528e-05
18 *587:D1 *584:A1 5.1584e-05
19 *89:20 *584:A1 5.16739e-05
20 *89:20 *359:29 3.25296e-05
21 *94:14 *359:12 0.000305977
*RES
1 *865:X *359:12 24.5418 
2 *359:12 *584:A1 22.7471 
3 *359:12 *359:29 17.9793 
4 *359:29 *571:B1 8.82351 
5 *359:29 *557:B 15.9964 
*END

*D_NET *360 0.00714592
*CONN
*I *586:A I *D sky130_fd_sc_hd__or4_4
*I *557:A I *D sky130_fd_sc_hd__nor2_1
*I *572:A I *D sky130_fd_sc_hd__nor2_2
*I *579:A1 I *D sky130_fd_sc_hd__o2111ai_1
*I *866:X O *D sky130_fd_sc_hd__buf_4
*CAP
1 *586:A 0.000294155
2 *557:A 0
3 *572:A 0.000506683
4 *579:A1 0.000209734
5 *866:X 4.17153e-05
6 *360:37 0.000819881
7 *360:10 0.000769389
8 *360:8 0.000582327
9 *572:A *415:23 1.37421e-05
10 *572:A *420:25 0
11 *572:A *426:8 7.85226e-05
12 *579:A1 *581:A 1.88856e-05
13 *586:A *552:B_N 0
14 *360:10 *552:B_N 0
15 *360:10 *840:A 0
16 *360:37 *597:B 0.00104147
17 *360:37 *415:31 0.000377452
18 *509:B1 *572:A 8.20833e-07
19 *558:C *572:A 0.000123453
20 *558:D *360:37 6.08467e-05
21 *562:B1 *586:A 4.22392e-05
22 *564:C *586:A 0.000118568
23 *564:C *360:10 0.000135648
24 *572:B *572:A 3.24254e-05
25 *587:A2 *579:A1 0.000158396
26 *587:B1 *579:A1 0.000158396
27 *587:D1 *586:A 2.20471e-05
28 *693:D *572:A 2.03049e-05
29 *844:A *579:A1 0
30 *947:A *579:A1 0
31 *947:A *360:37 0.000448805
32 *81:16 *572:A 0.000512142
33 *94:14 *579:A1 7.41706e-05
34 *94:14 *586:A 0.000158045
35 *94:14 *360:10 2.94936e-05
36 *172:35 *360:10 0
37 *359:12 *579:A1 9.29919e-05
38 *359:12 *360:10 0.000203168
*RES
1 *866:X *360:8 14.4725 
2 *360:8 *360:10 7.64553 
3 *360:10 *579:A1 20.6205 
4 *360:10 *360:37 20.6076 
5 *360:37 *572:A 29.9572 
6 *360:37 *557:A 9.24915 
7 *360:8 *586:A 22.3968 
*END

*D_NET *361 0.00223867
*CONN
*I *571:A1 I *D sky130_fd_sc_hd__a211oi_4
*I *580:A2 I *D sky130_fd_sc_hd__a21o_1
*I *867:X O *D sky130_fd_sc_hd__buf_4
*CAP
1 *571:A1 0
2 *580:A2 0.000158195
3 *867:X 0.000416046
4 *361:12 0.00057424
5 *580:A2 *571:C1 0.000115632
6 *580:A2 *580:B1 6.23875e-05
7 *361:12 *571:C1 2.41483e-05
8 *558:C *361:12 0
9 *571:A2 *580:A2 0.000274204
10 *571:B1 *361:12 0
11 *844:A *580:A2 0.000129801
12 *844:A *361:12 2.65667e-05
13 *902:A *361:12 0.00016809
14 *915:A *580:A2 0.000163982
15 *79:23 *580:A2 1.07248e-05
16 *172:20 *361:12 0.000114659
*RES
1 *867:X *361:12 29.1096 
2 *361:12 *580:A2 25.9325 
3 *361:12 *571:A1 9.24915 
*END

*D_NET *362 0.00302381
*CONN
*I *571:C1 I *D sky130_fd_sc_hd__a211oi_4
*I *580:B1 I *D sky130_fd_sc_hd__a21o_1
*I *868:X O *D sky130_fd_sc_hd__buf_4
*CAP
1 *571:C1 0.000371366
2 *580:B1 0.000284794
3 *868:X 0.000406505
4 *362:10 0.00106266
5 *580:B1 *407:14 8.62625e-06
6 *580:B1 *407:31 0.000113374
7 *571:A2 *580:B1 5.51483e-06
8 *580:A2 *571:C1 0.000115632
9 *580:A2 *580:B1 6.23875e-05
10 *844:A *571:C1 3.9125e-05
11 *902:A *362:10 0
12 *915:A *362:10 0.000225625
13 *89:10 *580:B1 0.000116971
14 *172:35 *362:10 1.37566e-05
15 *273:14 *362:10 6.58282e-05
16 *338:18 *580:B1 0.000107496
17 *361:12 *571:C1 2.41483e-05
*RES
1 *868:X *362:10 29.2167 
2 *362:10 *580:B1 23.9928 
3 *362:10 *571:C1 15.9526 
*END

*D_NET *363 0.00507647
*CONN
*I *591:A I *D sky130_fd_sc_hd__xnor2_1
*I *869:X O *D sky130_fd_sc_hd__buf_4
*CAP
1 *591:A 0.000634403
2 *869:X 0.000737413
3 *363:16 0.00137182
4 *591:A *508:A 0.000476713
5 *591:A *946:A 0.000375067
6 *591:A *391:16 1.19705e-05
7 *591:A *415:10 5.79479e-06
8 *591:A *415:23 6.2071e-05
9 *591:A *418:73 9.60509e-05
10 *591:A *455:26 6.57913e-05
11 *363:16 *683:B 8.36429e-06
12 *363:16 *406:20 0.000190292
13 *363:16 *455:26 4.01529e-05
14 *363:16 *469:18 3.10919e-05
15 *565:A1 *363:16 0.00016553
16 *565:B1 *591:A 6.2544e-05
17 *565:B1 *363:16 0
18 *591:B *591:A 6.08467e-05
19 *683:A *363:16 5.69457e-05
20 *684:B *363:16 4.31603e-05
21 *693:D *591:A 0.000197334
22 *709:D *591:A 6.4674e-06
23 *869:A *363:16 0.000259619
24 *188:27 *591:A 4.31703e-05
25 *220:14 *363:16 7.38619e-05
*RES
1 *869:X *363:16 34.6294 
2 *363:16 *591:A 34.9226 
*END

*D_NET *364 0.00196349
*CONN
*I *604:B I *D sky130_fd_sc_hd__xnor2_4
*I *870:X O *D sky130_fd_sc_hd__buf_4
*CAP
1 *604:B 0.000375579
2 *870:X 0.000375579
3 *604:B *604:A 6.36477e-05
4 *604:B *386:14 0
5 *604:B *386:39 6.74795e-05
6 *604:B *455:26 2.06277e-05
7 *558:D *604:B 3.00174e-06
8 *684:A *604:B 0.000165521
9 *870:A *604:B 6.08467e-05
10 *976:A *604:B 0.000154141
11 *58:20 *604:B 0.000497138
12 *74:8 *604:B 2.57847e-05
13 *163:12 *604:B 0.000154145
*RES
1 *870:X *604:B 39.9266 
*END

*D_NET *365 0.00280497
*CONN
*I *614:A3 I *D sky130_fd_sc_hd__a32o_1
*I *623:A1 I *D sky130_fd_sc_hd__a31oi_4
*I *871:X O *D sky130_fd_sc_hd__buf_4
*CAP
1 *614:A3 0.000478226
2 *623:A1 0.000261971
3 *871:X 0
4 *365:6 0.000740197
5 *614:A3 *611:B_N 9.87089e-05
6 *614:A3 *380:12 0.000253287
7 *623:A1 *380:12 0.000188517
8 *527:B_N *614:A3 0.000302835
9 *610:B1 *623:A1 0
10 *611:A *614:A3 1.33284e-05
11 *614:A2 *614:A3 0.000111722
12 *623:A2 *623:A1 0
13 *634:B *623:A1 0
14 *720:D *614:A3 0.000324853
15 *852:A *623:A1 0
16 *112:12 *614:A3 3.13218e-05
*RES
1 *871:X *365:6 13.7491 
2 *365:6 *623:A1 20.1489 
3 *365:6 *614:A3 28.1251 
*END

*D_NET *251 0.00112334
*CONN
*I *627:A I *D sky130_fd_sc_hd__nand2_1
*I *803:X O *D sky130_fd_sc_hd__clkdlybuf4s50_1
*CAP
1 *627:A 0.000409911
2 *803:X 0.000409911
3 *627:A *627:B 6.91268e-05
4 *632:A *627:A 0.000213449
5 *185:10 *627:A 2.09463e-05
*RES
1 *803:X *627:A 25.7564 
*END

*D_NET *366 0.0011521
*CONN
*I *651:A I *D sky130_fd_sc_hd__nor2_4
*I *872:X O *D sky130_fd_sc_hd__buf_4
*CAP
1 *651:A 0.000410168
2 *872:X 0.000410168
3 *651:A *449:16 8.21388e-05
4 *651:B *651:A 0
5 *652:B1 *651:A 0
6 *178:16 *651:A 0.000206553
7 *278:16 *651:A 4.30748e-05
*RES
1 *872:X *651:A 38.0828 
*END

*D_NET *358 0.000824958
*CONN
*I *621:B I *D sky130_fd_sc_hd__xor2_1
*I *864:X O *D sky130_fd_sc_hd__buf_4
*CAP
1 *621:B 0.000237514
2 *864:X 0.000237514
3 *513:A1 *621:B 0.000118166
4 *631:A1 *621:B 0.000196653
5 *633:A2 *621:B 0
6 *185:31 *621:B 3.51113e-05
*RES
1 *864:X *621:B 34.7608 
*END

*D_NET *367 0.0012495
*CONN
*I *615:B1 I *D sky130_fd_sc_hd__o311a_1
*I *873:X O *D sky130_fd_sc_hd__buf_4
*CAP
1 *615:B1 0.000450541
2 *873:X 0.000450541
3 *615:B1 *615:A3 1.91246e-05
4 *615:B1 *622:A 9.99438e-06
5 *615:B1 *378:46 7.366e-06
6 *615:B1 *427:24 9.12416e-06
7 *529:A_N *615:B1 6.97183e-05
8 *531:B *615:B1 1.28513e-05
9 *33:14 *615:B1 0.000192188
10 *122:12 *615:B1 2.80468e-05
*RES
1 *873:X *615:B1 44.9073 
*END

*D_NET *427 0.00394529
*CONN
*I *615:A3 I *D sky130_fd_sc_hd__o311a_1
*I *613:B I *D sky130_fd_sc_hd__or3_1
*I *612:B I *D sky130_fd_sc_hd__or3_1
*I *933:X O *D sky130_fd_sc_hd__buf_4
*CAP
1 *615:A3 0.000193735
2 *613:B 0
3 *612:B 0.000194825
4 *933:X 6.3547e-05
5 *427:24 0.000681055
6 *427:8 0.000743512
7 *529:A_N *615:A3 4.31485e-06
8 *531:B *615:A3 4.69495e-06
9 *531:B *427:24 4.44921e-05
10 *543:A *612:B 6.08467e-05
11 *613:A *612:B 3.33861e-05
12 *613:A *427:24 0
13 *614:B1 *612:B 6.08467e-05
14 *614:B1 *427:24 3.52699e-05
15 *614:B2 *427:24 5.43494e-05
16 *615:B1 *615:A3 1.91246e-05
17 *615:B1 *427:24 9.12416e-06
18 *635:B *427:24 0.000182388
19 *721:DE *615:A3 0.000272209
20 *933:A *427:8 0.000113968
21 *33:14 *427:8 4.97617e-05
22 *33:20 *615:A3 4.57241e-06
23 *37:10 *427:24 2.37478e-05
24 *41:20 *427:24 9.91257e-05
25 *122:12 *427:24 6.84846e-05
26 *183:33 *612:B 1.4091e-06
27 *183:33 *427:24 3.01368e-06
28 *200:22 *427:8 0.000253916
29 *414:94 *615:A3 0.000669575
*RES
1 *933:X *427:8 16.691 
2 *427:8 *427:24 19.357 
3 *427:24 *612:B 12.191 
4 *427:24 *613:B 9.24915 
5 *427:8 *615:A3 22.1352 
*END

*D_NET *368 0.00103416
*CONN
*I *635:B I *D sky130_fd_sc_hd__xnor2_2
*I *874:X O *D sky130_fd_sc_hd__buf_4
*CAP
1 *635:B 0.000131008
2 *874:X 0.000131008
3 *635:B *526:A 0.000196836
4 *635:B *636:A1 5.03545e-06
5 *635:B *704:CLK 3.57378e-06
6 *635:B *427:24 0.000182388
7 *531:B *635:B 0.000138335
8 *874:A *635:B 0.000245973
9 *122:12 *635:B 0
*RES
1 *874:X *635:B 34.7286 
*END

*D_NET *369 0.000433209
*CONN
*I *629:B I *D sky130_fd_sc_hd__xnor2_4
*I *875:X O *D sky130_fd_sc_hd__buf_4
*CAP
1 *629:B 0.000165507
2 *875:X 0.000165507
3 *625:A *629:B 7.23716e-05
4 *283:8 *629:B 2.98223e-05
*RES
1 *875:X *629:B 32.2693 
*END

*D_NET *371 0.00289681
*CONN
*I *503:A1 I *D sky130_fd_sc_hd__o21ai_1
*I *579:C1 I *D sky130_fd_sc_hd__o2111ai_1
*I *877:X O *D sky130_fd_sc_hd__buf_4
*CAP
1 *503:A1 0.000682666
2 *579:C1 0
3 *877:X 0.00020613
4 *371:8 0.000888796
5 *503:A1 *581:A 0.00021498
6 *503:A1 *581:B 4.58907e-05
7 *503:A1 *435:43 6.9943e-05
8 *371:8 *390:8 0.000122083
9 *371:8 *390:27 4.42033e-05
10 *371:8 *435:27 5.33884e-05
11 *371:8 *435:43 0.000161085
12 *581:C *503:A1 2.65831e-05
13 *590:C1 *503:A1 1.32062e-05
14 *590:C1 *371:8 7.88135e-05
15 *854:A *503:A1 7.11018e-05
16 *348:12 *503:A1 0.000217937
*RES
1 *877:X *371:8 20.5642 
2 *371:8 *579:C1 13.7491 
3 *371:8 *503:A1 28.3358 
*END

*D_NET *372 0.00563614
*CONN
*I *534:B I *D sky130_fd_sc_hd__nand2_1
*I *533:C1 I *D sky130_fd_sc_hd__o221ai_1
*I *485:B1_N I *D sky130_fd_sc_hd__a21boi_2
*I *487:A I *D sky130_fd_sc_hd__nand2_1
*I *878:X O *D sky130_fd_sc_hd__buf_4
*CAP
1 *534:B 0
2 *533:C1 0.00022213
3 *485:B1_N 0.000226024
4 *487:A 2.1308e-05
5 *878:X 8.48285e-05
6 *372:44 0.00107778
7 *372:12 0.000307155
8 *372:8 0.0010003
9 *485:B1_N *518:S 0.000145171
10 *485:B1_N *519:S 1.03403e-05
11 *485:B1_N *719:DE 9.45177e-05
12 *485:B1_N *937:A 8.56367e-05
13 *485:B1_N *449:44 8.16827e-05
14 *533:C1 *672:A 0.000386139
15 *372:12 *487:B 6.3657e-05
16 *372:12 *937:A 4.58907e-05
17 *372:44 *937:A 0.000553764
18 *477:B_N *533:C1 0
19 *481:B *372:44 0.000275627
20 *483:A *372:44 0.000158451
21 *483:B_N *485:B1_N 0.000160617
22 *488:A *485:B1_N 0.000394092
23 *488:A *372:12 1.55025e-05
24 *535:D *372:44 0.000147622
25 *8:8 *533:C1 0
26 *14:14 *372:44 1.39717e-06
27 *197:39 *372:8 5.08824e-05
28 *197:39 *372:44 2.56232e-05
*RES
1 *878:X *372:8 15.9964 
2 *372:8 *372:12 6.3326 
3 *372:12 *487:A 9.82786 
4 *372:12 *485:B1_N 27.8722 
5 *372:8 *372:44 22.6513 
6 *372:44 *533:C1 25.0642 
7 *372:44 *534:B 9.24915 
*END

*D_NET *373 0.00529749
*CONN
*I *485:A2 I *D sky130_fd_sc_hd__a21boi_2
*I *535:C I *D sky130_fd_sc_hd__nand4b_1
*I *487:B I *D sky130_fd_sc_hd__nand2_1
*I *879:X O *D sky130_fd_sc_hd__buf_4
*CAP
1 *485:A2 0.000243971
2 *535:C 0.000501539
3 *487:B 0.000200468
4 *879:X 0
5 *373:10 0.000761499
6 *373:4 0.000303464
7 *485:A2 *485:A1 0.000116538
8 *485:A2 *719:CLK 0.000395421
9 *487:B *890:A 0.000162918
10 *487:B *937:A 0.000143461
11 *535:C *481:A_N 3.20069e-06
12 *535:C *937:A 4.31703e-05
13 *373:10 *890:A 4.06342e-05
14 *481:B *535:C 2.84682e-05
15 *483:A *487:B 6.64609e-05
16 *536:B *373:10 6.27782e-05
17 *538:B1 *535:C 0
18 *885:A *487:B 6.08467e-05
19 *980:A *485:A2 4.34012e-05
20 *14:14 *485:A2 0.000216458
21 *14:14 *373:10 9.71388e-05
22 *45:10 *535:C 0.000180726
23 *196:23 *487:B 2.95757e-05
24 *197:39 *487:B 2.39566e-05
25 *197:39 *373:10 1.75816e-05
26 *198:22 *485:A2 0.000785197
27 *198:22 *535:C 0.000545043
28 *198:22 *373:10 0.000159917
29 *372:12 *487:B 6.3657e-05
*RES
1 *879:X *373:4 9.24915 
2 *373:4 *373:10 7.33409 
3 *373:10 *487:B 20.5162 
4 *373:10 *535:C 32.9591 
5 *373:4 *485:A2 22.5596 
*END

*D_NET *374 0.0024391
*CONN
*I *494:C I *D sky130_fd_sc_hd__or3_1
*I *493:A2 I *D sky130_fd_sc_hd__o21ai_0
*I *880:X O *D sky130_fd_sc_hd__buf_4
*CAP
1 *494:C 0.000111126
2 *493:A2 5.59112e-05
3 *880:X 0.000340615
4 *374:8 0.000507652
5 *493:A2 *493:A1 2.58616e-05
6 *494:C *404:16 0.000114824
7 *374:8 *673:D 0.000278655
8 *374:8 *404:16 0.000186455
9 resp_msg[15] *374:8 0.000504703
10 *479:A2 *494:C 0.000106105
11 *479:A2 *374:8 0.000186142
12 *6:10 *494:C 2.10465e-05
*RES
1 *880:X *374:8 27.6235 
2 *374:8 *493:A2 15.0271 
3 *374:8 *494:C 17.7307 
*END

*D_NET *252 0.000555739
*CONN
*I *619:A I *D sky130_fd_sc_hd__nand2_1
*I *804:X O *D sky130_fd_sc_hd__clkdlybuf4s50_1
*CAP
1 *619:A 0.000135547
2 *804:X 0.000135547
3 *619:A *512:A2 6.27782e-05
4 *619:A *802:A 2.58757e-05
5 *619:A *341:20 7.7502e-05
6 *619:A *400:14 2.15946e-05
7 *619:A *426:61 4.45503e-05
8 *512:B1 *619:A 5.23435e-05
*RES
1 *804:X *619:A 31.7147 
*END

*D_NET *375 0.00513067
*CONN
*I *492:A2 I *D sky130_fd_sc_hd__a21oi_1
*I *497:A I *D sky130_fd_sc_hd__xnor2_1
*I *881:X O *D sky130_fd_sc_hd__buf_6
*CAP
1 *492:A2 0.000130266
2 *497:A 0.000648524
3 *881:X 0.000200095
4 *375:10 0.000978885
5 *492:A2 *417:12 6.27782e-05
6 *497:A *673:A 0.000233714
7 *497:A *673:B 6.38519e-05
8 *497:A *673:C 0.00061888
9 *497:A *715:CLK 4.98265e-05
10 *497:A *417:31 4.77168e-06
11 *497:A *428:62 1.15389e-05
12 *375:10 *673:A 0.000184156
13 *375:10 *697:CLK 0.000165481
14 resp_msg[15] *497:A 0.000110458
15 *475:A_N *375:10 6.50727e-05
16 *475:B *375:10 0.000411711
17 *479:A1 *497:A 0.000313103
18 *492:B1 *492:A2 0.000160047
19 *953:A *497:A 0.000120288
20 *7:10 *497:A 0.000157391
21 *20:6 *492:A2 3.85659e-05
22 *193:14 *497:A 1.0406e-05
23 *275:18 *497:A 0.000109899
24 *275:18 *375:10 0
25 *304:31 *497:A 0.00027329
26 *353:50 *497:A 7.6719e-06
*RES
1 *881:X *375:10 21.8478 
2 *375:10 *497:A 46.6432 
3 *375:10 *492:A2 17.8002 
*END

*D_NET *377 0.00761481
*CONN
*I *626:A0 I *D sky130_fd_sc_hd__mux2i_1
*I *674:B I *D sky130_fd_sc_hd__nor4_4
*I *544:A I *D sky130_fd_sc_hd__nand2_1
*I *545:A I *D sky130_fd_sc_hd__nor2_1
*I *883:X O *D sky130_fd_sc_hd__buf_4
*CAP
1 *626:A0 0.000289074
2 *674:B 0.000327377
3 *544:A 0.000262791
4 *545:A 0
5 *883:X 0
6 *377:18 0.000431225
7 *377:12 0.00096879
8 *377:4 0.000762054
9 *544:A *513:A0 0.00041423
10 *544:A *513:S 6.77815e-05
11 *544:A *414:31 1.03594e-05
12 *544:A *414:40 0.000151093
13 *544:A *462:18 2.25099e-05
14 *626:A0 *622:A 7.28994e-06
15 *626:A0 *462:63 2.16355e-05
16 *674:B *674:A 1.90951e-05
17 *674:B *720:CLK 0.000153415
18 *674:B *414:31 0.000107259
19 *674:B *462:12 0.000608091
20 *377:12 *406:59 0.000160783
21 *377:12 *458:124 0.000326526
22 *377:18 *414:31 0.00011815
23 *513:A1 *544:A 4.54659e-05
24 *529:A_N *626:A0 3.00174e-06
25 *531:D *626:A0 0.00034589
26 *531:D *377:12 6.27718e-05
27 *546:A2 *544:A 6.27718e-05
28 *628:A2 *626:A0 5.04829e-06
29 *883:A *377:12 0.000457428
30 *40:10 *626:A0 0.000174126
31 *55:22 *377:12 0.000604838
32 *55:22 *377:18 0.000221482
33 *166:47 *674:B 4.60375e-07
34 *185:31 *626:A0 0.000376135
35 *341:20 *544:A 2.58616e-05
*RES
1 *883:X *377:4 9.24915 
2 *377:4 *377:12 15.9147 
3 *377:12 *377:18 8.57985 
4 *377:18 *545:A 13.7491 
5 *377:18 *544:A 23.868 
6 *377:12 *674:B 29.6319 
7 *377:4 *626:A0 28.6943 
*END

*D_NET *378 0.00393939
*CONN
*I *615:A2 I *D sky130_fd_sc_hd__o311a_1
*I *622:A I *D sky130_fd_sc_hd__inv_1
*I *612:A I *D sky130_fd_sc_hd__or3_1
*I *674:C I *D sky130_fd_sc_hd__nor4_4
*I *884:X O *D sky130_fd_sc_hd__buf_6
*CAP
1 *615:A2 2.77495e-05
2 *622:A 0.000210197
3 *612:A 0.000124374
4 *674:C 0.000671531
5 *884:X 3.55569e-05
6 *378:46 0.000342143
7 *378:12 0.00107445
8 *378:8 0.000418301
9 *674:C *674:D 0.00015489
10 *674:C *462:12 6.68963e-06
11 *527:A *622:A 2.6874e-05
12 *527:A *378:12 0
13 *527:A *378:46 0
14 *528:A_N *622:A 9.55569e-06
15 *529:A_N *622:A 0
16 *531:D *622:A 0.000134976
17 *543:A *612:A 1.65872e-05
18 *611:A *378:12 0
19 *612:C *612:A 6.27782e-05
20 *613:A *612:A 1.41976e-05
21 *614:A2 *612:A 1.5714e-05
22 *614:A2 *378:12 0.000184529
23 *615:B1 *622:A 9.99438e-06
24 *615:B1 *378:46 7.366e-06
25 *623:B1 *612:A 2.57465e-06
26 *626:A0 *622:A 7.28994e-06
27 *33:20 *378:12 4.85348e-05
28 *33:20 *378:46 9.39578e-06
29 *41:20 *612:A 1.44572e-05
30 *41:20 *674:C 7.26112e-05
31 *112:12 *612:A 7.09666e-06
32 *116:8 *622:A 0.000114384
33 *200:22 *378:8 0.000114584
*RES
1 *884:X *378:8 15.0271 
2 *378:8 *378:12 9.97618 
3 *378:12 *674:C 18.9233 
4 *378:12 *612:A 18.4228 
5 *378:8 *378:46 2.88234 
6 *378:46 *622:A 20.0532 
7 *378:46 *615:A2 14.4819 
*END

*D_NET *380 0.00618952
*CONN
*I *526:A I *D sky130_fd_sc_hd__xor2_1
*I *636:A0 I *D sky130_fd_sc_hd__mux2i_1
*I *611:B_N I *D sky130_fd_sc_hd__nor2b_1
*I *674:A I *D sky130_fd_sc_hd__nor4_4
*I *886:X O *D sky130_fd_sc_hd__buf_4
*CAP
1 *526:A 0.000240865
2 *636:A0 0
3 *611:B_N 0.00015836
4 *674:A 0.000537227
5 *886:X 0
6 *380:50 0.000776966
7 *380:12 0.000918989
8 *380:4 0.000759503
9 *526:A *636:A1 0.00010462
10 *611:B_N *462:12 0
11 *527:B_N *611:B_N 6.98648e-06
12 *543:A *674:A 0.000359191
13 *543:C *674:A 0.000109427
14 *547:C *611:B_N 6.50727e-05
15 *548:A1 *674:A 0.000207266
16 *614:A1 *380:50 6.27782e-05
17 *614:A3 *611:B_N 9.87089e-05
18 *614:A3 *380:12 0.000253287
19 *623:A1 *380:12 0.000188517
20 *635:B *526:A 0.000196836
21 *638:A1 *526:A 2.30636e-05
22 *674:B *674:A 1.90951e-05
23 *720:D *611:B_N 0.000212634
24 *871:A *380:12 0.000145903
25 *886:A *380:12 9.77232e-05
26 *41:20 *611:B_N 0
27 *111:8 *380:12 6.08467e-05
28 *111:8 *380:50 0.000245694
29 *122:12 *526:A 0.000111547
30 *166:47 *674:A 6.44185e-05
31 *199:10 *611:B_N 7.14746e-05
32 *199:10 *380:12 2.88703e-05
33 *346:8 *380:50 6.36477e-05
*RES
1 *886:X *380:4 9.24915 
2 *380:4 *380:12 14.017 
3 *380:12 *674:A 33.3771 
4 *380:12 *611:B_N 19.5169 
5 *380:4 *380:50 13.1417 
6 *380:50 *636:A0 9.24915 
7 *380:50 *526:A 26.8968 
*END

*D_NET *382 0.00286527
*CONN
*I *642:A0 I *D sky130_fd_sc_hd__mux2i_1
*I *640:B I *D sky130_fd_sc_hd__xnor2_1
*I *609:A I *D sky130_fd_sc_hd__nor2b_1
*I *888:X O *D sky130_fd_sc_hd__buf_4
*CAP
1 *642:A0 0.000346099
2 *640:B 0.000111717
3 *609:A 0.000516815
4 *888:X 0
5 *382:4 0.000974631
6 *609:A *402:10 0.000271736
7 *640:B *518:A0 3.6147e-05
8 *640:B *402:10 0.000137921
9 *640:B *471:10 3.45866e-05
10 *642:A0 *634:A 1.07248e-05
11 *642:A0 *704:CLK 0
12 *642:A0 *888:A 0
13 *635:A *642:A0 9.2346e-06
14 *641:A *642:A0 7.60465e-05
15 *642:A1 *642:A0 6.4628e-05
16 *908:A *609:A 0
17 *182:18 *609:A 4.24962e-05
18 *182:18 *642:A0 0.000124853
19 *182:22 *609:A 7.94847e-05
20 *182:28 *609:A 2.81515e-05
*RES
1 *888:X *382:4 9.24915 
2 *382:4 *609:A 18.7497 
3 *382:4 *640:B 21.3269 
4 *382:4 *642:A0 26.6237 
*END

*D_NET *381 0.000847709
*CONN
*I *672:B I *D sky130_fd_sc_hd__nor4_4
*I *887:X O *D sky130_fd_sc_hd__buf_4
*CAP
1 *672:B 0.00030428
2 *887:X 0.00030428
3 *672:B *672:A 9.47414e-05
4 *672:B *672:D 8.35605e-05
5 *887:A *672:B 6.08467e-05
*RES
1 *887:X *672:B 25.901 
*END

*D_NET *370 0.00275633
*CONN
*I *473:B I *D sky130_fd_sc_hd__xor2_1
*I *645:A0 I *D sky130_fd_sc_hd__mux2i_1
*I *876:X O *D sky130_fd_sc_hd__buf_4
*CAP
1 *473:B 0.000202218
2 *645:A0 0.000330219
3 *876:X 7.73193e-05
4 *370:10 0.000609756
5 *473:B *473:A 0
6 *645:A0 *473:A 0
7 *370:10 *876:A 4.31703e-05
8 *718:D *645:A0 3.89332e-06
9 *719:D *473:B 4.43331e-05
10 *832:A *645:A0 5.96936e-05
11 *853:A *645:A0 0.000391303
12 *195:14 *645:A0 3.09311e-05
13 *357:175 *473:B 0.000347257
14 *357:175 *645:A0 0.000616239
*RES
1 *876:X *370:10 15.6059 
2 *370:10 *645:A0 27.128 
3 *370:10 *473:B 20.1489 
*END

*D_NET *384 0.000941088
*CONN
*I *672:D I *D sky130_fd_sc_hd__nor4_4
*I *890:X O *D sky130_fd_sc_hd__buf_4
*CAP
1 *672:D 0.000162507
2 *890:X 0.000162507
3 *672:B *672:D 8.35605e-05
4 *887:A *672:D 6.08467e-05
5 *890:A *672:D 0.000114271
6 *198:22 *672:D 0.000357395
*RES
1 *890:X *672:D 24.7918 
*END

*D_NET *235 0.000913759
*CONN
*I *511:B I *D sky130_fd_sc_hd__nand2_4
*I *598:X O *D sky130_fd_sc_hd__clkdlybuf4s50_1
*CAP
1 *511:B 0.000371312
2 *598:X 0.000371312
3 *511:B *426:65 0
4 *511:B *426:87 0
5 *598:A *511:B 5.04829e-06
6 *185:31 *511:B 0.000166087
7 *187:14 *511:B 0
*RES
1 *598:X *511:B 35.3154 
*END

*D_NET *253 0.00236435
*CONN
*I *606:A I *D sky130_fd_sc_hd__nand2_1
*I *805:X O *D sky130_fd_sc_hd__clkdlybuf4s50_1
*CAP
1 *606:A 0.000209541
2 *805:X 0.000209541
3 *606:A resp_msg[14] 8.96342e-05
4 *606:A *600:S 0.000806937
5 *606:A *805:A 2.08274e-05
6 *606:A *272:14 0.000855518
7 *606:A *426:101 1.03594e-05
8 *606:A *426:112 0.000161994
*RES
1 *805:X *606:A 40.1731 
*END

*D_NET *385 0.00385323
*CONN
*I *490:B I *D sky130_fd_sc_hd__xnor2_1
*I *532:A I *D sky130_fd_sc_hd__inv_1
*I *672:A I *D sky130_fd_sc_hd__nor4_4
*I *891:X O *D sky130_fd_sc_hd__buf_4
*CAP
1 *490:B 0.00039481
2 *532:A 0
3 *672:A 0.000592875
4 *891:X 0.000688121
5 *385:28 0.000490056
6 *490:B *490:A 9.59097e-05
7 *672:A *466:23 0.000137594
8 *491:A *490:B 3.93995e-05
9 *491:B *490:B 0.000161956
10 *533:C1 *672:A 0.000386139
11 *534:A *672:A 0.00017419
12 *672:B *672:A 9.47414e-05
13 *676:C *672:A 1.83992e-05
14 *891:A *672:A 6.93477e-05
15 *968:A *672:A 7.66108e-05
16 *10:10 *672:A 6.41417e-05
17 *10:19 *672:A 8.77922e-05
18 *42:8 *490:B 3.28405e-05
19 *42:8 *385:28 3.46498e-05
20 *277:24 *672:A 5.04829e-06
21 *278:16 *490:B 0.000208606
*RES
1 *891:X *672:A 47.4197 
2 *891:X *385:28 11.2927 
3 *385:28 *532:A 9.24915 
4 *385:28 *490:B 20.3714 
*END

*D_NET *387 0.00361411
*CONN
*I *977:A I *D sky130_fd_sc_hd__buf_4
*I *474:A_N I *D sky130_fd_sc_hd__and2b_2
*I *655:A0 I *D sky130_fd_sc_hd__mux2i_1
*I *893:X O *D sky130_fd_sc_hd__buf_6
*CAP
1 *977:A 0.000141375
2 *474:A_N 0.000289916
3 *655:A0 0.000145495
4 *893:X 0
5 *387:29 0.000546502
6 *387:4 0.000260706
7 *977:A *493:A1 3.82228e-05
8 *977:A *673:D 0.000160135
9 *477:B_N *655:A0 0.000111722
10 *477:B_N *387:29 0.000116385
11 *479:A1 *474:A_N 0.000546968
12 *493:B1 *977:A 3.34118e-05
13 *495:B *977:A 0.000107496
14 *655:A1 *655:A0 1.64789e-05
15 *657:A2 *655:A0 6.08467e-05
16 *893:A *655:A0 6.08467e-05
17 *155:12 *655:A0 3.43397e-05
18 *155:12 *977:A 0.000219823
19 *155:12 *387:29 0.000116385
20 *164:12 *655:A0 0.000214604
21 *164:12 *977:A 1.12704e-05
22 *178:18 *474:A_N 1.58551e-05
23 *178:18 *387:29 1.82679e-05
24 *194:12 *655:A0 0.000186445
25 *353:50 *655:A0 0.000160617
*RES
1 *893:X *387:4 9.24915 
2 *387:4 *655:A0 25.2921 
3 *387:4 *387:29 12.5252 
4 *387:29 *474:A_N 16.6278 
5 *387:29 *977:A 23.8507 
*END

*D_NET *388 0.00167047
*CONN
*I *658:A0 I *D sky130_fd_sc_hd__mux2i_1
*I *496:B I *D sky130_fd_sc_hd__xnor2_2
*I *894:X O *D sky130_fd_sc_hd__buf_4
*CAP
1 *658:A0 0.000420946
2 *496:B 0.000663448
3 *894:X 0.000242502
4 *496:B *894:A 0.000112367
5 *497:B *496:B 6.08467e-05
6 *660:B1 *658:A0 9.89388e-06
7 *698:D *658:A0 0.000103213
8 *177:10 *658:A0 5.72516e-05
*RES
1 *894:X *496:B 24.406 
2 *496:B *658:A0 37.4706 
*END

*D_NET *389 0.0050418
*CONN
*I *673:A I *D sky130_fd_sc_hd__nor4_4
*I *566:B I *D sky130_fd_sc_hd__xor2_1
*I *895:X O *D sky130_fd_sc_hd__buf_6
*CAP
1 *673:A 0.000663916
2 *566:B 0.000263961
3 *895:X 0.000115667
4 *389:6 0.00104355
5 *566:B *566:A 0.000160047
6 *566:B *428:54 0
7 *566:B *454:36 0.00041069
8 *566:B *454:57 6.08467e-05
9 *566:B *469:18 3.31645e-05
10 *673:A *658:A1 0.000102032
11 *673:A *673:B 6.38655e-05
12 *673:A *697:CLK 6.49002e-05
13 *673:A *715:CLK 4.71444e-05
14 *673:A *417:12 0.000416431
15 *673:A *454:36 0.000140206
16 *673:A *469:18 6.50727e-05
17 *478:B_N *566:B 5.30145e-05
18 *478:B_N *673:A 1.65872e-05
19 *478:B_N *389:6 2.16355e-05
20 *497:A *673:A 0.000233714
21 *576:A *389:6 0.000136829
22 *697:D *566:B 0.00014815
23 *963:A *566:B 6.08467e-05
24 *85:10 *566:B 8.52844e-05
25 *85:10 *389:6 7.19016e-06
26 *158:10 *566:B 0.000442903
27 *193:31 *673:A 0
28 *375:10 *673:A 0.000184156
*RES
1 *895:X *389:6 12.191 
2 *389:6 *566:B 31.0549 
3 *389:6 *673:A 39.3784 
*END

*D_NET *390 0.00200713
*CONN
*I *579:D1 I *D sky130_fd_sc_hd__o2111ai_1
*I *581:B I *D sky130_fd_sc_hd__nor3_1
*I *585:B I *D sky130_fd_sc_hd__nand2_1
*I *896:X O *D sky130_fd_sc_hd__buf_4
*CAP
1 *579:D1 0
2 *581:B 4.83675e-05
3 *585:B 0.000253909
4 *896:X 5.03919e-05
5 *390:27 8.2184e-05
6 *390:8 0.000338118
7 *581:B *581:A 0.00021217
8 *585:B *581:A 7.20589e-05
9 *503:A1 *581:B 4.58907e-05
10 *587:A2 *585:B 4.76283e-05
11 *587:B1 *585:B 1.5714e-05
12 *590:C1 *390:8 0.000113096
13 *590:C1 *390:27 3.51582e-05
14 *854:A *581:B 0.000309756
15 *854:A *585:B 0.000107496
16 *84:31 *585:B 0.000108907
17 *371:8 *390:8 0.000122083
18 *371:8 *390:27 4.42033e-05
*RES
1 *896:X *390:8 15.9964 
2 *390:8 *585:B 27.2471 
3 *390:8 *390:27 5.50149 
4 *390:27 *581:B 12.7456 
5 *390:27 *579:D1 9.24915 
*END

*D_NET *386 0.00714091
*CONN
*I *672:C I *D sky130_fd_sc_hd__nor4_4
*I *573:A I *D sky130_fd_sc_hd__inv_1
*I *892:X O *D sky130_fd_sc_hd__buf_4
*CAP
1 *672:C 0
2 *573:A 0.00034216
3 *892:X 0.000295519
4 *386:39 0.00140764
5 *386:14 0.00204532
6 *573:A *396:10 0.000110458
7 *386:14 *396:10 7.26959e-06
8 *386:39 *604:A 0.000439451
9 *386:39 *675:D 0
10 *386:39 *396:10 6.08467e-05
11 *386:39 *424:10 7.80913e-05
12 *551:A *573:A 8.91036e-05
13 *558:C *386:14 0
14 *558:D *386:14 0
15 *604:B *386:14 0
16 *604:B *386:39 6.74795e-05
17 *676:B *386:39 0
18 *684:A *386:39 8.82765e-05
19 *869:A *386:14 4.00558e-06
20 *902:A *386:14 0.000338222
21 *968:A *386:39 4.52431e-05
22 *976:A *386:39 0.000340612
23 *49:22 *386:39 0.000669263
24 *51:22 *386:39 0.000534627
25 *58:20 *386:14 9.53874e-05
26 *58:20 *386:39 4.17962e-05
27 *82:6 *573:A 4.01378e-05
*RES
1 *892:X *386:14 26.3832 
2 *386:14 *573:A 17.3813 
3 *386:14 *386:39 47.3534 
4 *386:39 *672:C 13.7491 
*END

*D_NET *392 0.00396697
*CONN
*I *583:A_N I *D sky130_fd_sc_hd__nand2b_1
*I *593:B1_N I *D sky130_fd_sc_hd__a21bo_1
*I *594:A_N I *D sky130_fd_sc_hd__nand3b_1
*I *898:X O *D sky130_fd_sc_hd__buf_4
*CAP
1 *583:A_N 0.000276306
2 *593:B1_N 0.00026863
3 *594:A_N 6.25753e-05
4 *898:X 0
5 *392:16 0.000906552
6 *392:4 0.000851652
7 *583:A_N *898:A 1.50924e-05
8 *583:A_N *415:39 0.000298198
9 *593:B1_N *505:A0 5.66538e-05
10 *593:B1_N *592:A 0
11 *593:B1_N *695:DE 4.41474e-05
12 *593:B1_N *393:16 2.40943e-06
13 *593:B1_N *420:106 8.18934e-05
14 *594:A_N *420:106 3.66868e-05
15 *392:16 *502:A 0.000178849
16 *392:16 *594:B 5.90501e-05
17 *392:16 *898:A 0.000218848
18 *392:16 *929:A 2.35191e-05
19 *392:16 *393:16 8.09367e-06
20 *392:16 *415:39 4.54876e-05
21 *505:A1 *593:B1_N 2.44829e-05
22 *584:D1 *392:16 0.000114659
23 *586:B *583:A_N 0
24 *592:B *593:B1_N 2.54908e-05
25 *592:B *594:A_N 4.46057e-05
26 *593:A1 *392:16 3.99086e-06
27 *695:D *593:B1_N 0.000246437
28 *695:D *594:A_N 7.26606e-05
*RES
1 *898:X *392:4 9.24915 
2 *392:4 *392:16 24.4039 
3 *392:16 *594:A_N 16.4116 
4 *392:16 *593:B1_N 23.2273 
5 *392:4 *583:A_N 25.2386 
*END

*D_NET *391 0.00741143
*CONN
*I *675:D I *D sky130_fd_sc_hd__nor4_4
*I *897:X O *D sky130_fd_sc_hd__buf_4
*CAP
1 *675:D 0.000877589
2 *897:X 0.00112791
3 *391:16 0.0020055
4 *675:D *674:D 5.30684e-05
5 *675:D *394:62 7.33249e-05
6 *675:D *398:14 0.000710661
7 *543:B *675:D 0.000313876
8 *591:A *391:16 1.19705e-05
9 *591:B *391:16 5.89592e-05
10 *597:A *391:16 0.000147822
11 *607:A2 *391:16 1.22085e-05
12 *676:B *675:D 0.000465832
13 *676:D *675:D 2.54188e-05
14 *827:A *391:16 0.000159032
15 *867:A *391:16 6.08467e-05
16 *868:A *391:16 0.000167076
17 *49:22 *675:D 7.26606e-05
18 *51:22 *675:D 0
19 *53:10 *675:D 0
20 *172:20 *391:16 2.56816e-05
21 *188:14 *675:D 0.000380222
22 *188:14 *391:16 1.80042e-05
23 *188:27 *391:16 0.000534345
24 *271:18 *391:16 0.000109427
25 *386:39 *675:D 0
*RES
1 *897:X *391:16 37.8623 
2 *391:16 *675:D 44.2658 
*END

*D_NET *394 0.00892981
*CONN
*I *675:B I *D sky130_fd_sc_hd__nor4_4
*I *600:A0 I *D sky130_fd_sc_hd__mux2i_1
*I *553:A_N I *D sky130_fd_sc_hd__nand2b_1
*I *552:B_N I *D sky130_fd_sc_hd__nor2b_1
*I *562:A1 I *D sky130_fd_sc_hd__a21oi_1
*I *900:X O *D sky130_fd_sc_hd__buf_4
*CAP
1 *675:B 0
2 *600:A0 0.000148767
3 *553:A_N 2.3034e-05
4 *552:B_N 0.000134213
5 *562:A1 7.13527e-05
6 *900:X 0
7 *394:62 0.0010729
8 *394:58 0.00132623
9 *394:43 0.00056468
10 *394:16 0.000255321
11 *394:14 0.000557997
12 *394:4 0.000647796
13 *394:14 *553:B 5.22859e-06
14 *394:62 *604:A 0
15 *394:62 *674:D 0.000149495
16 *394:62 *675:A 1.77537e-06
17 *394:62 *398:14 0.000311949
18 resp_msg[14] *394:58 0.000149073
19 *508:B *394:14 0.000138523
20 *547:A *394:58 6.27782e-05
21 *547:A *394:62 0.000250678
22 *548:B1 *394:62 0.000147505
23 *559:B *394:14 0
24 *562:A2 *562:A1 5.0715e-05
25 *562:A2 *394:14 1.52711e-05
26 *562:A2 *394:16 3.8122e-05
27 *586:A *552:B_N 0
28 *607:B1 *394:58 6.27332e-05
29 *675:D *394:62 7.33249e-05
30 *676:B *394:62 0.00021378
31 *824:A *394:62 0.000601863
32 *827:A *394:58 0.000208599
33 *31:22 *394:58 6.27718e-05
34 *163:12 *394:62 0
35 *165:18 *394:62 0.000127399
36 *172:35 *552:B_N 0.000245753
37 *173:26 *394:14 0.000462643
38 *271:18 *394:62 0.000747547
39 *360:10 *552:B_N 0
*RES
1 *900:X *394:4 9.24915 
2 *394:4 *394:14 18.5106 
3 *394:14 *394:16 1.278 
4 *394:16 *562:A1 11.0817 
5 *394:16 *552:B_N 22.5727 
6 *394:14 *553:A_N 9.82786 
7 *394:4 *394:43 3.49641 
8 *394:43 *600:A0 21.7421 
9 *394:43 *394:58 12.9878 
10 *394:58 *394:62 44.9505 
11 *394:62 *675:B 9.24915 
*END

*D_NET *396 0.00578348
*CONN
*I *549:B I *D sky130_fd_sc_hd__xnor2_1
*I *570:C I *D sky130_fd_sc_hd__maj3_2
*I *675:C I *D sky130_fd_sc_hd__nor4_4
*I *902:X O *D sky130_fd_sc_hd__buf_4
*CAP
1 *549:B 0
2 *570:C 0.00017638
3 *675:C 0.00139465
4 *902:X 0.000168562
5 *396:25 0.00017638
6 *396:10 0.00156321
7 *570:C *549:A 6.08467e-05
8 *570:C *589:C 2.41274e-06
9 *570:C *457:28 6.27782e-05
10 *675:C *575:A 0
11 *675:C *675:A 3.82228e-05
12 *675:C *430:8 0
13 *675:C *457:28 0
14 *570:A *570:C 0.000197763
15 *570:B *570:C 0.000109421
16 *573:A *396:10 0.000110458
17 *577:A *675:C 1.41291e-05
18 *577:B *675:C 0.000555196
19 *577:C *675:C 6.12686e-06
20 *684:A *675:C 0
21 *863:A *570:C 0.000542082
22 *869:A *675:C 0.000162131
23 *869:A *396:10 0.000145171
24 *58:20 *675:C 8.61152e-06
25 *58:20 *396:10 2.9732e-05
26 *86:47 *675:C 2.33922e-05
27 *220:14 *675:C 5.33945e-05
28 *343:8 *675:C 6.08467e-05
29 *357:12 *570:C 5.34635e-05
30 *386:14 *396:10 7.26959e-06
31 *386:39 *396:10 6.08467e-05
*RES
1 *902:X *396:10 18.6595 
2 *396:10 *675:C 39.0509 
3 *396:10 *396:25 4.5 
4 *396:25 *570:C 17.737 
5 *396:25 *549:B 9.24915 
*END

*D_NET *254 0.000756605
*CONN
*I *602:A I *D sky130_fd_sc_hd__nand2_1
*I *806:X O *D sky130_fd_sc_hd__clkdlybuf4s50_1
*CAP
1 *602:A 0.000172065
2 *806:X 0.000172065
3 *602:A *600:S 4.19199e-05
4 *602:A *806:A 0.000307778
5 *603:A2 *602:A 6.27782e-05
*RES
1 *806:X *602:A 23.6826 
*END

*D_NET *398 0.0068486
*CONN
*I *618:A I *D sky130_fd_sc_hd__xor2_1
*I *547:B I *D sky130_fd_sc_hd__maj3_1
*I *674:D I *D sky130_fd_sc_hd__nor4_4
*I *904:X O *D sky130_fd_sc_hd__buf_4
*CAP
1 *618:A 2.06324e-05
2 *547:B 2.50285e-05
3 *674:D 0.000892966
4 *904:X 0.000282097
5 *398:14 0.0015822
6 *398:6 0.000966935
7 *547:B *420:72 2.16355e-05
8 *674:D *720:CLK 0.000636917
9 *674:D *721:DE 1.00996e-05
10 *674:D *418:73 3.94881e-05
11 *674:D *462:12 0
12 *398:6 *904:A 0.000154145
13 *398:6 *426:33 0.000176712
14 *398:6 *426:46 0.000106215
15 *398:14 *600:S 0
16 *398:14 *426:33 0.000113027
17 *548:B1 *547:B 2.16355e-05
18 *618:B *398:6 4.16492e-05
19 *620:B1 *398:6 5.56461e-05
20 *674:C *674:D 0.00015489
21 *675:D *674:D 5.30684e-05
22 *675:D *398:14 0.000710661
23 *824:A *398:14 0.000193748
24 *41:20 *674:D 6.62945e-05
25 *166:47 *674:D 2.93917e-05
26 *188:14 *398:14 3.20688e-05
27 *394:62 *674:D 0.000149495
28 *394:62 *398:14 0.000311949
*RES
1 *904:X *398:6 17.1824 
2 *398:6 *398:14 27.3134 
3 *398:14 *674:D 25.8834 
4 *398:14 *547:B 14.4725 
5 *398:6 *618:A 9.82786 
*END

*D_NET *399 0.00543066
*CONN
*I *662:A I *D sky130_fd_sc_hd__xor2_1
*I *673:C I *D sky130_fd_sc_hd__nor4_4
*I *498:A I *D sky130_fd_sc_hd__xor2_1
*I *905:X O *D sky130_fd_sc_hd__buf_4
*CAP
1 *662:A 0
2 *673:C 0.000465746
3 *498:A 0.000236864
4 *905:X 6.8855e-05
5 *399:10 0.000738258
6 *399:6 0.000104503
7 *498:A *498:B 3.1218e-05
8 *498:A *661:A 4.3116e-06
9 *673:C *673:B 0
10 *673:C *958:A 9.40969e-05
11 *673:C *428:62 8.00705e-05
12 resp_msg[15] *673:C 7.09395e-05
13 *497:A *673:C 0.00061888
14 *659:B *498:A 0.000118166
15 *661:B *399:6 3.79253e-05
16 *662:B *498:A 1.2693e-05
17 *685:A *673:C 0.000767462
18 *691:D *498:A 0.000191526
19 *691:D *673:C 0.000321214
20 *691:D *399:10 6.08467e-05
21 *691:DE *498:A 0
22 *822:A *498:A 3.25584e-05
23 *829:A *673:C 0.000217951
24 *953:A *673:C 0.000441182
25 *7:10 *673:C 0.000267259
26 *7:10 *399:6 0.000271674
27 *7:10 *399:10 1.92172e-05
28 *336:12 *498:A 1.55462e-05
29 *336:18 *498:A 2.99929e-05
30 *357:39 *673:C 0.000111708
31 *357:45 *498:A 0
*RES
1 *905:X *399:6 12.191 
2 *399:6 *399:10 1.30211 
3 *399:10 *498:A 25.9269 
4 *399:10 *673:C 43.3664 
5 *399:6 *662:A 9.24915 
*END

*D_NET *400 0.00508095
*CONN
*I *513:A0 I *D sky130_fd_sc_hd__mux2_4
*I *546:A1 I *D sky130_fd_sc_hd__a21oi_1
*I *906:X O *D sky130_fd_sc_hd__buf_4
*CAP
1 *513:A0 0.000416992
2 *546:A1 0.000705154
3 *906:X 0.000457498
4 *400:14 0.00157964
5 *513:A0 *939:A 3.00835e-06
6 *546:A1 *406:41 0
7 *546:A1 *456:8 0
8 *546:A1 *458:18 0.000111279
9 *546:A1 *462:12 0
10 *400:14 *512:A2 2.38092e-05
11 *400:14 *456:8 1.8e-05
12 *400:14 *458:18 8.20515e-05
13 resp_msg[9] *400:14 0
14 *544:A *513:A0 0.00041423
15 *544:B *400:14 1.51914e-05
16 *546:A2 *513:A0 6.27718e-05
17 *619:A *400:14 2.15946e-05
18 *720:D *546:A1 0.000180606
19 *722:D *546:A1 4.21314e-05
20 *722:D *400:14 3.18342e-06
21 *802:A *400:14 2.58757e-05
22 *906:A *400:14 6.27782e-05
23 *916:A *400:14 0.000127683
24 *55:22 *546:A1 0
25 *117:22 *400:14 0.000299901
26 *341:20 *400:14 0.000427568
*RES
1 *906:X *400:14 29.6659 
2 *400:14 *546:A1 29.183 
3 *400:14 *513:A0 21.0072 
*END

*D_NET *401 0.00189094
*CONN
*I *624:C I *D sky130_fd_sc_hd__maj3_2
*I *907:X O *D sky130_fd_sc_hd__buf_4
*CAP
1 *624:C 0.000645298
2 *907:X 0.000645298
3 *624:C *458:137 0.000330026
4 *625:A *624:C 0.000105163
5 *625:B *624:C 0
6 *629:A *624:C 0
7 *631:B1 *624:C 5.04829e-06
8 *850:A *624:C 9.50523e-05
9 *907:A *624:C 6.50586e-05
*RES
1 *907:X *624:C 44.3579 
*END

*D_NET *402 0.00148412
*CONN
*I *640:A I *D sky130_fd_sc_hd__xnor2_1
*I *518:A0 I *D sky130_fd_sc_hd__mux2_4
*I *908:X O *D sky130_fd_sc_hd__buf_4
*CAP
1 *640:A 0
2 *518:A0 0.000283604
3 *908:X 0.000130986
4 *402:10 0.00041459
5 *518:A0 *518:S 5.04829e-06
6 *518:A0 *471:10 4.63422e-05
7 *402:10 *888:A 6.92705e-05
8 *609:A *402:10 0.000271736
9 *640:B *518:A0 3.6147e-05
10 *640:B *402:10 0.000137921
11 *182:18 *402:10 8.84743e-05
*RES
1 *908:X *402:10 19.3535 
2 *402:10 *518:A0 20.7386 
3 *402:10 *640:A 13.7491 
*END

*D_NET *397 0.00683034
*CONN
*I *473:A I *D sky130_fd_sc_hd__xor2_1
*I *519:A0 I *D sky130_fd_sc_hd__mux2_4
*I *535:A_N I *D sky130_fd_sc_hd__nand4b_1
*I *903:X O *D sky130_fd_sc_hd__buf_4
*CAP
1 *473:A 0.000421911
2 *519:A0 7.91891e-05
3 *535:A_N 0
4 *903:X 0.00029996
5 *397:31 0.000678984
6 *397:24 0.00111897
7 *397:10 0.00159682
8 *473:A *485:A1 4.9e-05
9 *473:A *719:DE 6.27472e-05
10 *519:A0 *519:S 0.000200931
11 *397:24 *489:B 5.73014e-05
12 *397:24 *416:6 9.52683e-05
13 *397:24 *416:86 8.86088e-05
14 *397:24 *416:97 1.7096e-05
15 *473:B *473:A 0
16 *481:B *397:24 5.50458e-05
17 *519:A1 *519:A0 0.000159456
18 *533:A1 *397:24 0.000377259
19 *535:B *397:24 0.000164843
20 *537:B1_N *397:24 6.3657e-05
21 *645:A0 *473:A 0
22 *703:DE *473:A 0.000149656
23 *703:DE *397:10 0.000163036
24 *703:DE *397:31 0.000122811
25 *718:D *397:10 0
26 *718:D *397:24 5.49029e-06
27 *718:D *397:31 0
28 *719:D *473:A 0.00016195
29 *853:A *397:10 0
30 *47:16 *397:24 0.00021217
31 *48:10 *397:24 0.000122083
32 *195:35 *397:24 8.01741e-05
33 *197:26 *397:10 1.83992e-05
34 *353:98 *397:10 2.1032e-05
35 *353:108 *397:10 2.58757e-05
36 *395:12 *397:24 0.000160617
*RES
1 *903:X *397:10 22.1181 
2 *397:10 *397:24 40.9212 
3 *397:24 *535:A_N 9.24915 
4 *397:10 *397:31 5.15401 
5 *397:31 *519:A0 17.2938 
6 *397:31 *473:A 24.4758 
*END

*D_NET *403 0.00114528
*CONN
*I *521:A0 I *D sky130_fd_sc_hd__mux2_4
*I *490:A I *D sky130_fd_sc_hd__xnor2_1
*I *909:X O *D sky130_fd_sc_hd__buf_4
*CAP
1 *521:A0 0.000185435
2 *490:A 0.000242016
3 *909:X 0
4 *403:4 0.000427451
5 *490:B *490:A 9.59097e-05
6 *491:A *490:A 1.4091e-06
7 *196:23 *490:A 0.0001195
8 *197:26 *521:A0 7.35585e-05
*RES
1 *909:X *403:4 9.24915 
2 *403:4 *490:A 23.8964 
3 *403:4 *521:A0 13.8548 
*END

*D_NET *395 0.00254615
*CONN
*I *481:A_N I *D sky130_fd_sc_hd__nand2b_1
*I *533:A1 I *D sky130_fd_sc_hd__o221ai_1
*I *901:X O *D sky130_fd_sc_hd__buf_4
*CAP
1 *481:A_N 0.000274593
2 *533:A1 0.000142223
3 *901:X 0.000292619
4 *395:12 0.000709435
5 *533:A1 *397:24 0.000377259
6 *395:12 *397:24 0.000160617
7 *480:B *481:A_N 0.000144546
8 *480:B *395:12 8.78204e-05
9 *481:B *481:A_N 0
10 *533:B1 *533:A1 0
11 *535:B *481:A_N 0
12 *535:B *533:A1 2.41483e-05
13 *535:C *481:A_N 3.20069e-06
14 *538:B1 *481:A_N 0.000161367
15 *196:23 *395:12 0
16 *278:16 *395:12 0.000168319
*RES
1 *901:X *395:12 26.8968 
2 *395:12 *533:A1 14.4335 
3 *395:12 *481:A_N 25.5527 
*END

*D_NET *404 0.00571745
*CONN
*I *522:A0 I *D sky130_fd_sc_hd__mux2_4
*I *910:X O *D sky130_fd_sc_hd__buf_4
*CAP
1 *522:A0 0.000283136
2 *910:X 0.00084112
3 *404:16 0.00112426
4 *404:16 *673:D 0.000269094
5 resp_msg[15] *404:16 9.99386e-06
6 *494:C *404:16 0.000114824
7 *522:A1 *522:A0 0.000922271
8 *715:D *522:A0 0.000362878
9 *829:A *522:A0 0
10 *6:10 *404:16 1.26555e-05
11 *9:10 *404:16 5.96936e-05
12 *164:12 *404:16 0.0014247
13 *194:12 *404:16 4.3116e-06
14 *357:71 *522:A0 9.64697e-05
15 *357:92 *522:A0 3.072e-06
16 *357:92 *404:16 2.52287e-06
17 *374:8 *404:16 0.000186455
*RES
1 *910:X *404:16 45.0905 
2 *404:16 *522:A0 21.6433 
*END

*D_NET *405 0.00134018
*CONN
*I *523:A0 I *D sky130_fd_sc_hd__mux2_4
*I *496:A I *D sky130_fd_sc_hd__xnor2_2
*I *911:X O *D sky130_fd_sc_hd__buf_4
*CAP
1 *523:A0 0.000110743
2 *496:A 0.000114218
3 *911:X 2.10786e-05
4 *405:8 0.00024604
5 *523:A0 *523:S 0.000148129
6 *405:8 *454:36 0.000110458
7 *475:B *496:A 1.03594e-05
8 *475:B *523:A0 0.000224053
9 *714:D *496:A 6.87335e-05
10 *714:D *523:A0 1.66825e-05
11 *177:10 *496:A 0.000125036
12 *192:30 *405:8 0.000110458
13 *245:14 *523:A0 2.65667e-05
14 *353:8 *523:A0 0
15 *353:33 *496:A 7.62627e-06
*RES
1 *911:X *405:8 15.0271 
2 *405:8 *496:A 17.5503 
3 *405:8 *523:A0 18.5201 
*END

*D_NET *255 0.00124698
*CONN
*I *595:A I *D sky130_fd_sc_hd__nor2_1
*I *807:X O *D sky130_fd_sc_hd__clkdlybuf4s50_1
*CAP
1 *595:A 0.000282647
2 *807:X 0.000282647
3 *595:A *502:A 0.000255255
4 *595:A *696:DE 2.22991e-05
5 *595:A *420:19 9.89271e-05
6 *502:B *595:A 5.04829e-06
7 *503:B1 *595:A 0.000252308
8 *841:A *595:A 4.78464e-05
*RES
1 *807:X *595:A 36.2025 
*END

*D_NET *407 0.00253739
*CONN
*I *585:A I *D sky130_fd_sc_hd__nand2_1
*I *581:A I *D sky130_fd_sc_hd__nor3_1
*I *578:A I *D sky130_fd_sc_hd__nand4_1
*I *913:X O *D sky130_fd_sc_hd__buf_4
*CAP
1 *585:A 1.37466e-05
2 *581:A 0.000231396
3 *578:A 3.30527e-05
4 *913:X 0.000145209
5 *407:31 0.000412449
6 *407:14 0.000345569
7 *503:A1 *581:A 0.00021498
8 *579:A1 *581:A 1.88856e-05
9 *579:B1 *581:A 3.63629e-05
10 *580:B1 *407:14 8.62625e-06
11 *580:B1 *407:31 0.000113374
12 *581:B *581:A 0.00021217
13 *585:B *581:A 7.20589e-05
14 *587:A2 *407:31 2.0517e-05
15 *844:A *581:A 0
16 *844:A *585:A 4.80635e-06
17 *854:A *581:A 2.81262e-05
18 *932:A *578:A 6.08467e-05
19 *932:A *407:14 5.49127e-05
20 *932:A *407:31 2.09495e-05
21 *29:10 *407:14 0.000118485
22 *74:8 *407:14 6.08467e-05
23 *79:10 *407:14 5.8261e-05
24 *79:23 *407:14 5.71402e-06
25 *84:31 *581:A 7.70804e-05
26 *89:10 *578:A 6.08467e-05
27 *89:10 *407:14 7.77309e-06
28 *94:14 *581:A 1.59629e-05
29 *191:40 *578:A 2.07365e-05
30 *338:18 *407:31 6.36477e-05
*RES
1 *913:X *407:14 18.8693 
2 *407:14 *578:A 15.0271 
3 *407:14 *407:31 8.60396 
4 *407:31 *581:A 17.5682 
5 *407:31 *585:A 9.82786 
*END

*D_NET *393 0.00439003
*CONN
*I *583:B I *D sky130_fd_sc_hd__nand2b_1
*I *505:A0 I *D sky130_fd_sc_hd__mux2_4
*I *592:A I *D sky130_fd_sc_hd__xor2_2
*I *899:X O *D sky130_fd_sc_hd__buf_4
*CAP
1 *583:B 0.000326917
2 *505:A0 0.000227251
3 *592:A 9.12463e-05
4 *899:X 0.000111874
5 *393:16 0.000964321
6 *393:10 0.00108461
7 *505:A0 *695:DE 0.00010623
8 *505:A0 *415:72 0
9 *505:A0 *420:106 0
10 *583:B *502:A 2.77625e-06
11 *583:B *897:A 0.000151845
12 *393:10 *425:10 0.000325369
13 *393:10 *448:31 9.80229e-05
14 *393:16 *929:A 4.08328e-05
15 *393:16 *981:A 0.00011818
16 *393:16 *448:27 0.000107496
17 *505:A1 *505:A0 0.000127683
18 *569:A *505:A0 0.000156185
19 *569:A *592:A 8.8666e-05
20 *592:B *592:A 3.27437e-05
21 *593:A1 *393:16 0.000160617
22 *593:B1_N *505:A0 5.66538e-05
23 *593:B1_N *592:A 0
24 *593:B1_N *393:16 2.40943e-06
25 *392:16 *393:16 8.09367e-06
*RES
1 *899:X *393:10 23.8184 
2 *393:10 *393:16 14.3291 
3 *393:16 *592:A 16.6831 
4 *393:16 *505:A0 22.5794 
5 *393:10 *583:B 15.0182 
*END

*D_NET *408 0.00248148
*CONN
*I *553:B I *D sky130_fd_sc_hd__nand2b_1
*I *552:A I *D sky130_fd_sc_hd__nor2b_1
*I *506:A0 I *D sky130_fd_sc_hd__mux2_4
*I *914:X O *D sky130_fd_sc_hd__buf_4
*CAP
1 *553:B 4.80788e-06
2 *552:A 0.000118889
3 *506:A0 0.000552958
4 *914:X 0
5 *408:25 0.000237634
6 *408:4 0.000666895
7 *506:A0 *506:S 4.59704e-05
8 *506:A1 *506:A0 6.64392e-05
9 *559:B *408:25 6.27718e-05
10 *561:A1 *506:A0 6.27718e-05
11 *561:A1 *408:25 4.85806e-05
12 *562:A2 *553:B 1.47046e-05
13 *710:D *506:A0 3.00829e-05
14 *943:A *552:A 3.14978e-05
15 *172:35 *552:A 0.000101865
16 *172:35 *408:25 4.06006e-05
17 *173:26 *506:A0 6.27782e-05
18 *173:26 *408:25 0.000224903
19 *273:14 *552:A 9.59495e-05
20 *273:14 *408:25 6.1578e-06
21 *394:14 *553:B 5.22859e-06
*RES
1 *914:X *408:4 9.24915 
2 *408:4 *506:A0 32.4779 
3 *408:4 *408:25 8.4405 
4 *408:25 *552:A 18.3808 
5 *408:25 *553:B 13.924 
*END

*D_NET *409 0.00238609
*CONN
*I *507:A I *D sky130_fd_sc_hd__inv_1
*I *549:A I *D sky130_fd_sc_hd__xnor2_1
*I *915:X O *D sky130_fd_sc_hd__buf_4
*CAP
1 *507:A 9.59482e-05
2 *549:A 0.000328735
3 *915:X 0
4 *409:4 0.000424683
5 *551:B *549:A 0.000161535
6 *558:B *549:A 6.1729e-05
7 *570:A *549:A 6.27718e-05
8 *570:C *549:A 6.08467e-05
9 *869:A *549:A 0.000246343
10 *892:A *507:A 0.000167076
11 *902:A *549:A 6.16567e-05
12 *927:A *507:A 0.000359134
13 *932:A *507:A 0.000355626
14 *79:10 *549:A 0
*RES
1 *915:X *409:4 9.24915 
2 *409:4 *549:A 29.1096 
3 *409:4 *507:A 15.9225 
*END

*D_NET *410 0.000462078
*CONN
*I *510:A I *D sky130_fd_sc_hd__inv_1
*I *916:X O *D sky130_fd_sc_hd__buf_4
*CAP
1 *510:A 9.27851e-05
2 *916:X 9.27851e-05
3 *512:A1 *510:A 5.82259e-05
4 *512:B1 *510:A 0.000218282
*RES
1 *916:X *510:A 21.8802 
*END

*D_NET *411 0.000944974
*CONN
*I *574:A I *D sky130_fd_sc_hd__inv_1
*I *917:X O *D sky130_fd_sc_hd__buf_4
*CAP
1 *574:A 0.000200468
2 *917:X 0.000200468
3 *574:A *575:A 7.32658e-06
4 *575:B *574:A 4.84772e-05
5 *590:B1 *574:A 0.000104731
6 *667:A *574:A 0.000258002
7 *861:A *574:A 6.12215e-05
8 *357:18 *574:A 6.42805e-05
*RES
1 *917:X *574:A 34.1963 
*END

*D_NET *412 0.00159663
*CONN
*I *677:A2 I *D sky130_fd_sc_hd__o21ai_4
*I *671:B1 I *D sky130_fd_sc_hd__o21ai_0
*I *918:X O *D sky130_fd_sc_hd__buf_4
*CAP
1 *677:A2 0.000253195
2 *671:B1 0.000130433
3 *918:X 8.24589e-05
4 *412:6 0.000466087
5 *671:B1 *417:87 0
6 *671:B1 *451:16 2.16355e-05
7 *677:A2 *678:B1 0.000171288
8 *669:A2 *671:B1 0
9 *671:A2 *671:B1 6.08467e-05
10 *677:A1 *677:A2 0.000117376
11 *678:A1 *671:B1 0.000165495
12 *678:A1 *677:A2 6.08467e-05
13 *678:A2 *677:A2 6.26673e-05
14 *678:A2 *412:6 4.30017e-06
*RES
1 *918:X *412:6 11.0817 
2 *412:6 *671:B1 22.0503 
3 *412:6 *677:A2 16.2661 
*END

*D_NET *428 0.0097902
*CONN
*I *959:A I *D sky130_fd_sc_hd__buf_6
*I *958:A I *D sky130_fd_sc_hd__buf_12
*I *962:A I *D sky130_fd_sc_hd__buf_6
*I *957:A I *D sky130_fd_sc_hd__buf_12
*I *682:B1_N I *D sky130_fd_sc_hd__o21bai_4
*I *821:A I *D sky130_fd_sc_hd__clkdlybuf4s15_1
*I *934:X O *D sky130_fd_sc_hd__buf_12
*CAP
1 *959:A 2.37097e-05
2 *958:A 0.000425571
3 *962:A 0
4 *957:A 0.000240599
5 *682:B1_N 0
6 *821:A 0.000357899
7 *934:X 0.00139919
8 *428:62 0.000949691
9 *428:54 0.000867422
10 *428:27 0.000341816
11 *428:14 0.00153872
12 *821:A *679:A 7.32961e-05
13 *821:A *451:28 0.000149643
14 *957:A *679:A 7.0179e-06
15 *959:A *523:S 1.88422e-05
16 *959:A *454:36 0.000110458
17 *428:14 *452:6 9.28161e-05
18 *428:27 *679:A 0.000106953
19 *428:54 *451:16 8.18438e-05
20 req_rdy *821:A 6.1096e-05
21 *477:B_N *958:A 6.70767e-05
22 *478:B_N *428:54 0
23 *497:A *428:62 1.15389e-05
24 *566:B *428:54 0
25 *669:C1 *821:A 6.58216e-05
26 *669:C1 *957:A 8.70458e-05
27 *669:C1 *428:27 0.000107358
28 *673:C *958:A 9.40969e-05
29 *673:C *428:62 8.00705e-05
30 *688:D *428:14 3.18826e-06
31 *690:CLK *428:14 9.71541e-05
32 *881:A *428:54 4.4462e-06
33 *881:A *428:62 0.000181914
34 *893:A *958:A 5.481e-05
35 *919:A *957:A 8.07939e-05
36 *953:A *428:62 0.000162677
37 *7:10 *428:62 2.98316e-05
38 *85:10 *428:54 0
39 *192:30 *959:A 6.27782e-05
40 *192:34 *428:54 0.000358619
41 *193:31 *428:54 0
42 *266:8 *428:14 2.72515e-05
43 *266:19 *428:14 9.87197e-05
44 *267:12 *957:A 8.48137e-05
45 *304:31 *428:62 0.000224381
46 *353:50 *958:A 0.000187171
47 *353:50 *428:62 0.000772066
48 *413:12 *957:A 0
49 *419:8 *821:A 0
*RES
1 *934:X *428:14 34.1007 
2 *428:14 *821:A 23.924 
3 *428:14 *428:27 4.32351 
4 *428:27 *682:B1_N 13.7491 
5 *428:27 *957:A 21.2876 
6 *934:X *428:54 23.8862 
7 *428:54 *428:62 22.8731 
8 *428:62 *962:A 9.24915 
9 *428:62 *958:A 20.9923 
10 *428:54 *959:A 15.0271 
*END

*D_NET *256 0.00225403
*CONN
*I *522:A1 I *D sky130_fd_sc_hd__mux2_4
*I *808:X O *D sky130_fd_sc_hd__clkdlybuf4s50_1
*CAP
1 *522:A1 0.000623583
2 *808:X 0.000623583
3 *522:A1 *522:A0 0.000922271
4 *522:A1 *522:S 3.5534e-06
5 *522:A1 *808:A 0
6 *245:14 *522:A1 8.10372e-05
*RES
1 *808:X *522:A1 39.0667 
*END

*D_NET *430 0.00155688
*CONN
*I *575:A I *D sky130_fd_sc_hd__nor2_1
*I *912:A I *D sky130_fd_sc_hd__buf_8
*I *936:X O *D sky130_fd_sc_hd__buf_6
*CAP
1 *575:A 0.000398502
2 *912:A 0
3 *936:X 0.000135378
4 *430:8 0.00053388
5 *575:A *457:28 9.98029e-06
6 *430:8 *457:28 5.66515e-05
7 *574:A *575:A 7.32658e-06
8 *575:B *575:A 4.80635e-06
9 *589:A *575:A 1.40978e-05
10 *589:B *575:A 5.56461e-05
11 *675:C *575:A 0
12 *675:C *430:8 0
13 *869:A *575:A 0.00032445
14 *84:14 *575:A 1.61631e-05
*RES
1 *936:X *430:8 17.2421 
2 *430:8 *912:A 13.7491 
3 *430:8 *575:A 22.3463 
*END

*D_NET *413 0.00382948
*CONN
*I *681:A I *D sky130_fd_sc_hd__nor2b_1
*I *678:B1 I *D sky130_fd_sc_hd__a21oi_2
*I *919:X O *D sky130_fd_sc_hd__buf_4
*CAP
1 *681:A 0.000358611
2 *678:B1 0.000436938
3 *919:X 0.000570557
4 *413:12 0.00136611
5 *681:A *436:14 1.4227e-05
6 *413:12 *679:A 0
7 *413:12 *957:A 0
8 *413:12 *448:10 0
9 *668:A *678:B1 0
10 *670:A *681:A 3.68716e-05
11 *670:A *413:12 0.000133113
12 *677:A2 *678:B1 0.000171288
13 *678:A1 *678:B1 6.85662e-05
14 *678:A2 *678:B1 7.97944e-05
15 *681:B_N *678:B1 1.37421e-05
16 *681:B_N *681:A 0.000250717
17 *682:A1 *681:A 0.000109421
18 *688:D *678:B1 0
19 *689:D *678:B1 5.41377e-05
20 *842:A *678:B1 0
21 *862:A *413:12 7.0263e-05
22 *919:A *413:12 0
23 *166:16 *678:B1 9.51302e-05
24 *166:16 *413:12 0
25 *355:10 *413:12 0
*RES
1 *919:X *413:12 32.295 
2 *413:12 *678:B1 30.634 
3 *413:12 *681:A 17.6647 
*END

*D_NET *432 0.00228106
*CONN
*I *673:B I *D sky130_fd_sc_hd__nor4_4
*I *894:A I *D sky130_fd_sc_hd__buf_4
*I *941:X O *D sky130_fd_sc_hd__buf_4
*CAP
1 *673:B 0.000608856
2 *894:A 0.000279816
3 *941:X 0
4 *432:4 0.000888671
5 *673:B *522:S 4.20184e-06
6 resp_msg[15] *673:B 2.4352e-05
7 *496:B *894:A 0.000112367
8 *497:A *673:B 6.38519e-05
9 *673:A *673:B 6.38655e-05
10 *673:C *673:B 0
11 *685:A *673:B 2.1558e-05
12 *941:A *894:A 6.08467e-05
13 *275:18 *673:B 0.0001195
14 *304:31 *673:B 3.31733e-05
*RES
1 *941:X *432:4 9.24915 
2 *432:4 *894:A 16.2661 
3 *432:4 *673:B 32.2318 
*END

*D_NET *433 0.00285327
*CONN
*I *485:A1 I *D sky130_fd_sc_hd__a21boi_2
*I *979:A I *D sky130_fd_sc_hd__buf_4
*I *942:X O *D sky130_fd_sc_hd__buf_6
*CAP
1 *485:A1 0.000515085
2 *979:A 0.000291018
3 *942:X 6.54158e-05
4 *433:8 0.000871518
5 *473:A *485:A1 4.9e-05
6 *483:B_N *979:A 6.74667e-05
7 *485:A2 *485:A1 0.000116538
8 *719:CLK *485:A1 0.000396254
9 *980:A *485:A1 1.41976e-05
10 *47:16 *979:A 0.000404472
11 *47:16 *433:8 6.23012e-05
12 *416:116 *979:A 0
*RES
1 *942:X *433:8 15.5811 
2 *433:8 *979:A 22.1181 
3 *433:8 *485:A1 31.6839 
*END

*D_NET *434 0.00127719
*CONN
*I *840:A I *D sky130_fd_sc_hd__buf_4
*I *943:X O *D sky130_fd_sc_hd__buf_4
*CAP
1 *840:A 0.00040849
2 *943:X 0.00040849
3 *587:A1 *840:A 6.64162e-05
4 *597:A *840:A 5.49769e-05
5 *915:A *840:A 0.000118115
6 *947:A *840:A 0.000150212
7 *172:35 *840:A 4.7134e-05
8 *359:29 *840:A 2.33514e-05
9 *360:10 *840:A 0
*RES
1 *943:X *840:A 39.4037 
*END

*D_NET *435 0.00649305
*CONN
*I *578:D I *D sky130_fd_sc_hd__nand4_1
*I *929:A I *D sky130_fd_sc_hd__buf_4
*I *584:C1 I *D sky130_fd_sc_hd__o2111ai_2
*I *589:C I *D sky130_fd_sc_hd__nor3_1
*I *944:X O *D sky130_fd_sc_hd__buf_4
*CAP
1 *578:D 0
2 *929:A 0.000260931
3 *584:C1 9.58752e-05
4 *589:C 0.000174253
5 *944:X 6.28656e-05
6 *435:43 0.0011367
7 *435:27 0.00105468
8 *435:6 0.000511908
9 *589:C *436:14 4.96637e-05
10 *589:C *457:28 2.77625e-06
11 *929:A *502:A 0.000135087
12 *929:A *981:A 8.71261e-05
13 *929:A *448:27 0.000111722
14 *435:6 *457:28 0.00015607
15 *503:A1 *435:43 6.9943e-05
16 *570:A *589:C 6.87678e-06
17 *570:C *589:C 2.41274e-06
18 *579:A2 *435:43 7.66026e-05
19 *584:B1 *435:43 0
20 *584:D1 *584:C1 0.000116255
21 *584:D1 *929:A 0.000168594
22 *586:B *584:C1 2.31921e-05
23 *586:B *929:A 2.51196e-05
24 *586:D *435:43 4.24837e-05
25 *587:B1 *435:43 4.36982e-06
26 *587:C1 *435:43 5.03168e-05
27 *587:D1 *435:43 0.000113104
28 *590:A2 *435:27 0.000109569
29 *590:B1 *435:27 5.29743e-05
30 *590:C1 *435:43 3.02775e-05
31 *593:A1 *929:A 6.50727e-05
32 *594:B *929:A 0.000110458
33 *841:A *584:C1 6.27782e-05
34 *898:A *929:A 0.000113295
35 *84:14 *589:C 7.04109e-05
36 *84:14 *435:27 0.000544573
37 *84:31 *435:43 3.52772e-05
38 *191:40 *435:43 0.000113968
39 *357:14 *589:C 2.3939e-05
40 *357:14 *435:27 4.9e-05
41 *371:8 *435:27 5.33884e-05
42 *371:8 *435:43 0.000161085
43 *392:16 *929:A 2.35191e-05
44 *393:16 *929:A 4.08328e-05
45 *415:39 *435:43 0.000293707
*RES
1 *944:X *435:6 11.0817 
2 *435:6 *589:C 22.6184 
3 *435:6 *435:27 19.137 
4 *435:27 *435:43 31.3971 
5 *435:43 *584:C1 16.7198 
6 *435:43 *929:A 23.4258 
7 *435:27 *578:D 9.24915 
*END

*D_NET *436 0.00359313
*CONN
*I *682:A2 I *D sky130_fd_sc_hd__o21bai_4
*I *945:X O *D sky130_fd_sc_hd__buf_6
*CAP
1 *682:A2 0
2 *945:X 0.000921806
3 *436:14 0.000921806
4 *436:14 *457:28 1.5714e-05
5 *509:A1 *436:14 1.28326e-05
6 *568:A_N *436:14 0.000115648
7 *578:B *436:14 5.21584e-05
8 *589:C *436:14 4.96637e-05
9 *670:A *436:14 0.000306461
10 *671:A2 *436:14 0.000284097
11 *677:B1 *436:14 0.000296396
12 *681:A *436:14 1.4227e-05
13 *681:B_N *436:14 0.000105998
14 *956:A *436:14 6.27782e-05
15 *77:10 *436:14 0.0001566
16 *77:23 *436:14 4.6447e-05
17 *84:14 *436:14 5.4427e-05
18 *158:10 *436:14 5.41574e-05
19 *169:23 *436:14 0.000116454
20 *266:19 *436:14 5.46384e-06
21 *357:14 *436:14 0
22 *357:18 *436:14 0
*RES
1 *945:X *436:14 47.2851 
2 *436:14 *682:A2 9.24915 
*END

*D_NET *257 0.0022202
*CONN
*I *590:A1 I *D sky130_fd_sc_hd__a211o_1
*I *809:X O *D sky130_fd_sc_hd__clkdlybuf4s50_1
*CAP
1 *590:A1 0.000757349
2 *809:X 0.000757349
3 *590:A1 *590:A2 1.57187e-05
4 *590:A1 *919:A 0.000148825
5 *590:A1 *419:8 0.000161054
6 *590:A1 *420:8 9.96892e-05
7 *502:B *590:A1 1.43698e-05
8 *550:A *590:A1 0
9 *564:A *590:A1 0.000184842
10 *564:B *590:A1 6.46815e-05
11 *590:B1 *590:A1 1.63255e-05
*RES
1 *809:X *590:A1 49.4721 
*END

*D_NET *422 0.00339994
*CONN
*I *950:A I *D sky130_fd_sc_hd__buf_6
*I *623:A3 I *D sky130_fd_sc_hd__a31oi_4
*I *928:X O *D sky130_fd_sc_hd__buf_6
*CAP
1 *950:A 0.000177101
2 *623:A3 0.000819083
3 *928:X 0
4 *422:6 0.000996185
5 *623:A3 *461:12 3.42853e-05
6 *614:A1 *950:A 6.33181e-05
7 *623:B1 *623:A3 9.54357e-06
8 *635:A *623:A3 9.89271e-05
9 *635:A *950:A 0.000243661
10 *852:A *623:A3 0.000372922
11 *37:10 *950:A 6.27782e-05
12 *122:12 *623:A3 0.000522138
*RES
1 *928:X *422:6 13.7491 
2 *422:6 *623:A3 28.9399 
3 *422:6 *950:A 19.9053 
*END

*D_NET *437 0.000375878
*CONN
*I *848:A I *D sky130_fd_sc_hd__buf_6
*I *946:X O *D sky130_fd_sc_hd__buf_6
*CAP
1 *848:A 3.23393e-05
2 *946:X 3.23393e-05
3 *946:A *848:A 0.000216458
4 *359:29 *848:A 9.47414e-05
*RES
1 *946:X *848:A 20.8855 
*END

*D_NET *438 0.00260246
*CONN
*I *597:B I *D sky130_fd_sc_hd__xnor2_2
*I *947:X O *D sky130_fd_sc_hd__buf_6
*CAP
1 *597:B 0.00074539
2 *947:X 0.00074539
3 *360:37 *597:B 0.00104147
4 *415:31 *597:B 7.02133e-05
*RES
1 *947:X *597:B 33.1591 
*END

*D_NET *258 0.00219312
*CONN
*I *685:A I *D sky130_fd_sc_hd__nand2_1
*I *810:X O *D sky130_fd_sc_hd__clkdlybuf4s50_1
*CAP
1 *685:A 0.00057234
2 *810:X 0.00057234
3 *685:A resp_msg[15] 3.58365e-05
4 *685:A *673:B 2.1558e-05
5 *685:A *673:C 0.000767462
6 *685:A *685:B 5.25994e-05
7 *685:A *304:31 2.04806e-05
8 *685:A *357:79 9.24241e-05
9 *685:A *357:92 2.65831e-05
10 *164:12 *685:A 3.14978e-05
*RES
1 *810:X *685:A 40.615 
*END

*D_NET *440 0.001047
*CONN
*I *636:A1 I *D sky130_fd_sc_hd__mux2i_1
*I *949:X O *D sky130_fd_sc_hd__buf_4
*CAP
1 *636:A1 0.000248029
2 *949:X 0.000248029
3 *636:A1 *636:S 5.04829e-06
4 *526:A *636:A1 0.00010462
5 *635:B *636:A1 5.03545e-06
6 *638:A1 *636:A1 0.000208621
7 *704:CLK *636:A1 0.000164842
8 *949:A *636:A1 6.27782e-05
*RES
1 *949:X *636:A1 35.3505 
*END

*D_NET *441 0.000786565
*CONN
*I *634:A I *D sky130_fd_sc_hd__nand2_4
*I *950:X O *D sky130_fd_sc_hd__buf_6
*CAP
1 *634:A 0.000132715
2 *950:X 0.000132715
3 *635:A *634:A 0.00036117
4 *642:A0 *634:A 1.07248e-05
5 *704:CLK *634:A 0
6 *122:12 *634:A 0.00014924
*RES
1 *950:X *634:A 33.8981 
*END

*D_NET *259 0.00170207
*CONN
*I *521:A1 I *D sky130_fd_sc_hd__mux2_4
*I *811:X O *D sky130_fd_sc_hd__clkdlybuf4s50_1
*CAP
1 *521:A1 0.000555338
2 *811:X 0.000555338
3 *521:A1 *520:A1 0
4 *521:A1 *520:S 9.84343e-05
5 *521:A1 *521:S 0.000159032
6 *521:A1 *646:B 0
7 *521:A1 *811:A 1.44467e-05
8 *521:A1 *353:96 2.04806e-05
9 *521:A1 *353:98 0
10 *521:A1 *357:128 0
11 *521:A1 *357:146 0
12 *521:A1 *357:169 0
13 *521:A1 *419:107 4.3116e-06
14 *521:A1 *449:29 6.0235e-05
15 *521:A1 *449:44 2.86829e-05
16 *537:A1 *521:A1 0.000109421
17 *716:D *521:A1 8.36586e-06
18 *717:D *521:A1 5.80086e-05
19 *181:12 *521:A1 0
20 *197:26 *521:A1 2.99747e-05
*RES
1 *811:X *521:A1 42.1257 
*END

*D_NET *443 0.000706032
*CONN
*I *843:A I *D sky130_fd_sc_hd__buf_4
*I *952:X O *D sky130_fd_sc_hd__buf_4
*CAP
1 *843:A 0.000148322
2 *952:X 0.000148322
3 *833:A *843:A 0.000147759
4 *876:A *843:A 0.000148002
5 *197:12 *843:A 5.27799e-05
6 *280:12 *843:A 6.08467e-05
*RES
1 *952:X *843:A 32.548 
*END

*D_NET *260 0.00250754
*CONN
*I *520:A1 I *D sky130_fd_sc_hd__mux2_4
*I *812:X O *D sky130_fd_sc_hd__clkdlybuf4s50_1
*CAP
1 *520:A1 0.00048032
2 *812:X 0.00048032
3 *520:A1 resp_msg[3] 0.000195605
4 *520:A1 *811:A 0.000175789
5 *520:A1 *357:96 0.000219753
6 *520:A1 *357:126 4.91096e-05
7 *520:A1 *416:26 0.000226356
8 *520:A1 *419:107 8.01837e-05
9 *483:B_N *520:A1 1.07248e-05
10 *484:A *520:A1 0.000105256
11 *521:A1 *520:A1 0
12 *15:10 *520:A1 6.36477e-05
13 *180:6 *520:A1 2.65831e-05
14 *180:17 *520:A1 0.000393892
*RES
1 *812:X *520:A1 48.0391 
*END

*D_NET *444 0.00293668
*CONN
*I *658:A1 I *D sky130_fd_sc_hd__mux2i_1
*I *953:X O *D sky130_fd_sc_hd__buf_4
*CAP
1 *658:A1 0.00116614
2 *953:X 0.00116614
3 *658:A1 *522:S 0.000147454
4 *660:A1 *658:A1 7.19887e-05
5 *673:A *658:A1 0.000102032
6 *715:CLK *658:A1 3.8503e-05
7 *336:12 *658:A1 8.04923e-05
8 *357:18 *658:A1 5.37077e-05
9 *357:39 *658:A1 2.16355e-05
10 *417:33 *658:A1 8.85759e-05
11 *419:69 *658:A1 0
*RES
1 *953:X *658:A1 42.4022 
*END

*D_NET *445 0.0014033
*CONN
*I *904:A I *D sky130_fd_sc_hd__buf_4
*I *954:X O *D sky130_fd_sc_hd__buf_4
*CAP
1 *904:A 0.000238699
2 *954:X 0.000238699
3 *904:A *462:63 0.00053077
4 *530:B *904:A 0.000100752
5 *618:B *904:A 7.13972e-05
6 *187:14 *904:A 6.88361e-05
7 *398:6 *904:A 0.000154145
*RES
1 *954:X *904:A 28.2883 
*END

*D_NET *446 0.00322292
*CONN
*I *661:A I *D sky130_fd_sc_hd__nand2_1
*I *498:B I *D sky130_fd_sc_hd__xor2_1
*I *524:A0 I *D sky130_fd_sc_hd__mux2_4
*I *955:X O *D sky130_fd_sc_hd__buf_6
*CAP
1 *661:A 2.65647e-05
2 *498:B 7.9339e-05
3 *524:A0 0.00075831
4 *955:X 1.98858e-05
5 *446:19 0.000273865
6 *446:6 0.000946158
7 *476:A *524:A0 0.000190573
8 *498:A *498:B 3.1218e-05
9 *498:A *661:A 4.3116e-06
10 *660:B1 *498:B 0.000133878
11 *660:B1 *661:A 4.2153e-05
12 *691:D *661:A 1.44611e-05
13 *707:D *524:A0 0.000326398
14 *170:14 *524:A0 0.000134104
15 *170:14 *446:6 1.05106e-05
16 *170:14 *446:19 0.000231191
*RES
1 *955:X *446:6 9.82786 
2 *446:6 *524:A0 22.6079 
3 *446:6 *446:19 7.44181 
4 *446:19 *498:B 16.4116 
5 *446:19 *661:A 14.7506 
*END

*D_NET *261 0.00377096
*CONN
*I *519:A1 I *D sky130_fd_sc_hd__mux2_4
*I *813:X O *D sky130_fd_sc_hd__clkdlybuf4s50_1
*CAP
1 *519:A1 0.00142537
2 *813:X 0.00142537
3 *519:A1 *519:A0 0.000159456
4 *519:A1 *832:A 0.000760769
*RES
1 *813:X *519:A1 42.298 
*END

*D_NET *447 0.000851889
*CONN
*I *936:A I *D sky130_fd_sc_hd__buf_6
*I *966:A I *D sky130_fd_sc_hd__buf_6
*I *956:X O *D sky130_fd_sc_hd__buf_6
*CAP
1 *936:A 8.06363e-05
2 *966:A 0
3 *956:X 0.000121997
4 *447:8 0.000202634
5 *936:A *457:28 0.000179271
6 *447:8 *457:28 1.07248e-05
7 *509:A1 *936:A 0.000168546
8 *509:A1 *447:8 3.27437e-05
9 *677:B1 *447:8 4.49959e-05
10 *86:8 *936:A 1.03403e-05
*RES
1 *956:X *447:8 17.2421 
2 *447:8 *966:A 13.7491 
3 *447:8 *936:A 17.5503 
*END

*D_NET *448 0.00719274
*CONN
*I *981:A I *D sky130_fd_sc_hd__buf_6
*I *506:S I *D sky130_fd_sc_hd__mux2_4
*I *505:S I *D sky130_fd_sc_hd__mux2_4
*I *503:A2 I *D sky130_fd_sc_hd__o21ai_1
*I *957:X O *D sky130_fd_sc_hd__buf_12
*CAP
1 *981:A 2.92631e-05
2 *506:S 0.000491694
3 *505:S 0.000249685
4 *503:A2 0
5 *957:X 0.00070567
6 *448:31 0.00100466
7 *448:27 0.000686139
8 *448:10 0.00109926
9 *448:10 *696:DE 0.000529
10 *448:27 *696:DE 0.000476833
11 *448:31 *458:40 0
12 *503:B1 *448:27 1.2693e-05
13 *506:A0 *506:S 4.59704e-05
14 *506:A1 *506:S 6.36477e-05
15 *564:B *448:10 6.63276e-05
16 *586:B *448:27 0
17 *593:A2 *448:27 5.37082e-05
18 *593:A2 *448:31 1.78514e-05
19 *596:A1 *448:27 0.000132371
20 *596:A1 *448:31 0.000294226
21 *596:A3 *448:27 0.000149115
22 *711:D *505:S 0.000161956
23 *711:D *506:S 0
24 *712:D *448:10 5.54078e-05
25 *897:A *981:A 0
26 *919:A *448:10 0
27 *929:A *981:A 8.71261e-05
28 *929:A *448:27 0.000111722
29 *77:31 *448:10 0
30 *77:31 *448:27 0
31 *190:10 *506:S 0.000121059
32 *190:16 *506:S 3.00174e-06
33 *190:16 *448:31 6.34204e-05
34 *348:12 *448:27 0.000157226
35 *393:10 *448:31 9.80229e-05
36 *393:16 *981:A 0.00011818
37 *393:16 *448:27 0.000107496
38 *413:12 *448:10 0
39 *420:8 *448:10 0
40 *420:106 *448:31 0
41 *425:10 *448:31 0
*RES
1 *957:X *448:10 34.715 
2 *448:10 *503:A2 13.7491 
3 *448:10 *448:27 18.2111 
4 *448:27 *448:31 13.8065 
5 *448:31 *505:S 20.0186 
6 *448:31 *506:S 26.9169 
7 *448:27 *981:A 11.1059 
*END

*D_NET *449 0.00686599
*CONN
*I *518:S I *D sky130_fd_sc_hd__mux2_4
*I *519:S I *D sky130_fd_sc_hd__mux2_4
*I *521:S I *D sky130_fd_sc_hd__mux2_4
*I *520:S I *D sky130_fd_sc_hd__mux2_4
*I *958:X O *D sky130_fd_sc_hd__buf_12
*CAP
1 *518:S 0.000259688
2 *519:S 0.000188347
3 *521:S 3.59406e-05
4 *520:S 8.64388e-05
5 *958:X 0.0010183
6 *449:44 0.000880815
7 *449:29 0.000503054
8 *449:16 0.00113907
9 *449:16 *652:A1 2.65831e-05
10 *485:B1_N *518:S 0.000145171
11 *485:B1_N *519:S 1.03403e-05
12 *485:B1_N *449:44 8.16827e-05
13 *488:A *449:44 0.000127164
14 *518:A0 *518:S 5.04829e-06
15 *519:A0 *519:S 0.000200931
16 *521:A1 *520:S 9.84343e-05
17 *521:A1 *521:S 0.000159032
18 *521:A1 *449:29 6.0235e-05
19 *521:A1 *449:44 2.86829e-05
20 *537:A1 *449:44 0.000269489
21 *651:A *449:16 8.21388e-05
22 *700:D *449:16 3.82521e-05
23 *703:DE *449:44 0
24 *703:CLK *518:S 0.00011815
25 *716:D *449:44 7.79607e-05
26 *718:D *449:44 2.29386e-05
27 *719:DE *518:S 4.1877e-05
28 *719:DE *449:44 5.17704e-05
29 *831:A *449:16 2.16355e-05
30 *195:14 *449:16 0
31 *197:26 *521:S 6.55312e-05
32 *278:16 *449:16 9.81054e-05
33 *336:67 *520:S 6.08467e-05
34 *353:96 *520:S 5.55735e-05
35 *353:96 *449:16 0.000423908
36 *416:97 *449:44 0.000223893
37 *416:116 *518:S 7.4002e-05
38 *416:116 *449:44 1.44611e-05
39 *419:88 *449:16 0
40 *419:107 *520:S 1.77302e-05
41 *419:107 *449:29 2.14502e-05
42 *419:107 *449:44 1.30094e-05
43 *419:128 *449:44 1.83188e-05
*RES
1 *958:X *449:16 28.4494 
2 *449:16 *520:S 16.5122 
3 *449:16 *449:29 1.20912 
4 *449:29 *521:S 15.5817 
5 *449:29 *449:44 15.1933 
6 *449:44 *519:S 18.9576 
7 *449:44 *518:S 21.7297 
*END

*D_NET *452 0.000851396
*CONN
*I *934:A I *D sky130_fd_sc_hd__buf_12
*I *960:A I *D sky130_fd_sc_hd__buf_12
*I *961:X O *D sky130_fd_sc_hd__buf_6
*CAP
1 *934:A 0
2 *960:A 0.000165291
3 *961:X 7.98779e-05
4 *452:6 0.000245169
5 *677:B1 *960:A 0.000173175
6 *158:10 *960:A 9.50664e-05
7 *428:14 *452:6 9.28161e-05
*RES
1 *961:X *452:6 11.6364 
2 *452:6 *960:A 23.7141 
3 *452:6 *934:A 9.24915 
*END

*D_NET *453 0.00249797
*CONN
*I *522:S I *D sky130_fd_sc_hd__mux2_4
*I *962:X O *D sky130_fd_sc_hd__buf_6
*CAP
1 *522:S 0.00112721
2 *962:X 0.00112721
3 resp_msg[15] *522:S 4.20184e-06
4 *522:A1 *522:S 3.5534e-06
5 *657:B1 *522:S 0
6 *658:A1 *522:S 0.000147454
7 *673:B *522:S 4.20184e-06
8 *715:CLK *522:S 0
9 *808:A *522:S 0
10 *245:14 *522:S 8.41306e-05
11 *304:31 *522:S 0
12 *357:71 *522:S 0
13 *418:31 *522:S 0
14 *419:69 *522:S 0
15 *419:88 *522:S 0
*RES
1 *962:X *522:S 42.3098 
*END

*D_NET *262 0.00259313
*CONN
*I *518:A1 I *D sky130_fd_sc_hd__mux2_4
*I *814:X O *D sky130_fd_sc_hd__clkdlybuf4s50_1
*CAP
1 *518:A1 0.00115441
2 *814:X 0.00115441
3 *518:A1 *703:DE 4.14448e-05
4 *518:A1 *703:CLK 6.34773e-05
5 *703:D *518:A1 0.000168289
6 *182:18 *518:A1 1.10946e-05
*RES
1 *814:X *518:A1 46.4131 
*END

*D_NET *455 0.0078857
*CONN
*I *508:A I *D sky130_fd_sc_hd__nand2_4
*I *509:A2 I *D sky130_fd_sc_hd__o21ai_2
*I *964:X O *D sky130_fd_sc_hd__buf_6
*CAP
1 *508:A 0.000476163
2 *509:A2 0
3 *964:X 0.000409237
4 *455:26 0.00124242
5 *455:8 0.00212782
6 *455:26 *697:DE 0.000110306
7 *455:26 *469:18 0.000443806
8 *509:B1 *508:A 0
9 *558:D *455:26 0.000455793
10 *572:B *455:8 0.000454408
11 *572:B *455:26 0.00020502
12 *591:A *508:A 0.000476713
13 *591:A *455:26 6.57913e-05
14 *599:A *508:A 5.73329e-05
15 *604:B *455:26 2.06277e-05
16 *607:B1 *508:A 0.00019238
17 *684:A *455:26 0.00048735
18 *693:D *508:A 4.87198e-05
19 *709:D *508:A 7.46787e-05
20 *827:A *508:A 0.000176196
21 *946:A *455:26 9.46009e-05
22 *85:10 *455:26 0.000154047
23 *363:16 *455:26 4.01529e-05
24 *406:35 *455:8 1.80122e-05
25 *415:10 *455:26 5.41227e-05
*RES
1 *964:X *455:8 16.5072 
2 *455:8 *455:26 42.0482 
3 *455:26 *509:A2 9.24915 
4 *455:8 *508:A 34.1997 
*END

*D_NET *456 0.00586339
*CONN
*I *511:A I *D sky130_fd_sc_hd__nand2_4
*I *512:A2 I *D sky130_fd_sc_hd__o21ai_2
*I *965:X O *D sky130_fd_sc_hd__buf_6
*CAP
1 *511:A 0.000277531
2 *512:A2 0.000624584
3 *965:X 0.000535527
4 *456:8 0.00143764
5 *456:8 *839:A 0.000271246
6 *456:8 *458:18 0.000183829
7 *456:8 *462:48 0.000143804
8 *456:8 *462:57 0.000109859
9 resp_msg[9] *511:A 3.77804e-05
10 *512:B1 *511:A 0.000660657
11 *530:A *456:8 1.45944e-05
12 *546:A1 *456:8 0
13 *618:B *456:8 0.000281756
14 *619:A *512:A2 6.27782e-05
15 *708:CLK *512:A2 0.000164708
16 *802:A *512:A2 7.50128e-05
17 *804:A *512:A2 2.58757e-05
18 *837:A *511:A 0.000256598
19 *906:A *512:A2 0.000217945
20 *916:A *456:8 5.3633e-05
21 *55:22 *456:8 0.000189981
22 *117:22 *512:A2 2.58616e-05
23 *201:10 *456:8 2.69701e-05
24 *272:14 *512:A2 5.65046e-05
25 *284:12 *511:A 6.52648e-05
26 *341:20 *512:A2 2.16355e-05
27 *400:14 *512:A2 2.38092e-05
28 *400:14 *456:8 1.8e-05
*RES
1 *965:X *456:8 33.8522 
2 *456:8 *512:A2 37.4783 
3 *456:8 *511:A 25.2123 
*END

*D_NET *457 0.00324345
*CONN
*I *667:B I *D sky130_fd_sc_hd__or2_4
*I *966:X O *D sky130_fd_sc_hd__buf_6
*CAP
1 *667:B 0
2 *966:X 0.000957889
3 *457:28 0.000957889
4 *509:A1 *457:28 0.000320883
5 *570:C *457:28 6.27782e-05
6 *575:A *457:28 9.98029e-06
7 *589:C *457:28 2.77625e-06
8 *667:A *457:28 0.000157253
9 *675:C *457:28 0
10 *869:A *457:28 0
11 *936:A *457:28 0.000179271
12 *944:A *457:28 2.57847e-05
13 *29:10 *457:28 1.13712e-05
14 *79:10 *457:28 8.0543e-05
15 *84:14 *457:28 1.85244e-05
16 *166:47 *457:28 6.5203e-05
17 *357:12 *457:28 0.000154145
18 *430:8 *457:28 5.66515e-05
19 *435:6 *457:28 0.00015607
20 *436:14 *457:28 1.5714e-05
21 *447:8 *457:28 1.07248e-05
*RES
1 *966:X *457:28 48.4201 
2 *457:28 *667:B 9.24915 
*END

*D_NET *458 0.0298339
*CONN
*I *706:DE I *D sky130_fd_sc_hd__edfxtp_1
*I *705:DE I *D sky130_fd_sc_hd__edfxtp_1
*I *704:DE I *D sky130_fd_sc_hd__edfxtp_1
*I *692:DE I *D sky130_fd_sc_hd__edfxtp_1
*I *694:DE I *D sky130_fd_sc_hd__edfxtp_1
*I *697:DE I *D sky130_fd_sc_hd__edfxtp_1
*I *695:DE I *D sky130_fd_sc_hd__edfxtp_1
*I *696:DE I *D sky130_fd_sc_hd__edfxtp_1
*I *967:X O *D sky130_fd_sc_hd__buf_16
*CAP
1 *706:DE 0.000632531
2 *705:DE 5.63974e-05
3 *704:DE 0.000646329
4 *692:DE 0
5 *694:DE 5.09482e-05
6 *697:DE 0.00251374
7 *695:DE 0.000331011
8 *696:DE 0.000836722
9 *967:X 0.00136122
10 *458:137 0.00101273
11 *458:124 0.00177238
12 *458:40 0.00318358
13 *458:34 0.00494934
14 *458:32 0.00139796
15 *458:18 0.00148624
16 *505:A0 *695:DE 0.00010623
17 *509:B1 *697:DE 0.00187669
18 *509:B1 *458:40 0
19 *516:B1 *704:DE 0
20 *517:S *704:DE 0
21 *531:C *458:124 2.2539e-05
22 *531:D *458:124 0.000546953
23 *546:A1 *458:18 0.000111279
24 *547:A *694:DE 2.33103e-06
25 *564:C *458:40 0
26 *593:A1 *696:DE 9.08209e-05
27 *593:A1 *458:40 3.58321e-05
28 *593:A2 *696:DE 1.5221e-05
29 *593:B1_N *695:DE 4.41474e-05
30 *594:B *696:DE 0.000195318
31 *594:C *696:DE 2.1778e-05
32 *595:A *696:DE 2.22991e-05
33 *618:B *458:18 0.000276659
34 *624:C *458:137 0.000330026
35 *625:B *706:DE 1.53265e-05
36 *625:B *458:137 0
37 *631:A2 *706:DE 0.000361539
38 *644:A2 *704:DE 1.80647e-05
39 *692:D *458:32 3.14375e-05
40 *694:CLK *458:32 9.37171e-06
41 *695:D *695:DE 0.000113524
42 *696:D *696:DE 3.61138e-05
43 *697:D *697:DE 0.000129182
44 *697:CLK *697:DE 1.38948e-05
45 *704:D *704:DE 7.33201e-05
46 *704:CLK *704:DE 0.000726812
47 *705:CLK *705:DE 9.93106e-06
48 *706:CLK *706:DE 0.000117249
49 *706:CLK *458:137 8.16827e-05
50 *721:DE *704:DE 1.20291e-05
51 *824:A *458:32 0
52 *846:A *706:DE 2.75163e-05
53 *916:A *458:18 2.65831e-05
54 *949:A *704:DE 0.000173175
55 *81:16 *458:34 0
56 *85:10 *697:DE 0.000154506
57 *117:22 *458:18 0.000344218
58 *117:22 *458:32 7.76482e-06
59 *165:18 *458:40 0
60 *173:26 *694:DE 9.48555e-05
61 *173:26 *458:32 0.000150025
62 *185:10 *706:DE 1.30969e-05
63 *200:22 *704:DE 0
64 *220:14 *697:DE 0
65 *282:8 *704:DE 0.000187753
66 *357:193 *704:DE 1.67286e-05
67 *377:12 *458:124 0.000326526
68 *400:14 *458:18 8.20515e-05
69 *406:59 *458:124 6.83504e-05
70 *414:96 *704:DE 0.000190858
71 *414:116 *704:DE 0.00021363
72 *414:116 *458:137 0.000616428
73 *420:8 *696:DE 0
74 *420:19 *696:DE 0
75 *420:106 *696:DE 8.76347e-05
76 *420:106 *458:40 6.63267e-05
77 *426:101 *694:DE 7.13655e-06
78 *448:10 *696:DE 0.000529
79 *448:27 *696:DE 0.000476833
80 *448:31 *458:40 0
81 *455:26 *697:DE 0.000110306
82 *456:8 *458:18 0.000183829
*RES
1 *967:X *458:18 36.7888 
2 *458:18 *458:32 18.333 
3 *458:32 *458:34 0.853032 
4 *458:34 *458:40 10.381 
5 *458:40 *696:DE 39.801 
6 *458:40 *695:DE 29.0361 
7 *458:34 *697:DE 29.8236 
8 *458:32 *694:DE 18.4972 
9 *458:18 *692:DE 9.24915 
10 *967:X *458:124 27.2284 
11 *458:124 *704:DE 36.2749 
12 *458:124 *458:137 12.6286 
13 *458:137 *705:DE 14.8523 
14 *458:137 *706:DE 35.7145 
*END

*D_NET *459 0.00274735
*CONN
*I *489:B I *D sky130_fd_sc_hd__nor2_4
*I *968:X O *D sky130_fd_sc_hd__buf_4
*CAP
1 *489:B 0.000520917
2 *968:X 0.000520917
3 *533:A2 *489:B 0.000137834
4 *872:A *489:B 0.000216146
5 *968:A *489:B 0.000520532
6 *10:10 *489:B 0.000317829
7 *10:19 *489:B 0.000229255
8 *48:10 *489:B 0.000201151
9 *178:16 *489:B 1.00901e-05
10 *195:35 *489:B 0
11 *277:24 *489:B 1.53822e-05
12 *397:24 *489:B 5.73014e-05
*RES
1 *968:X *489:B 48.6329 
*END

*D_NET *460 0.000821167
*CONN
*I *608:B I *D sky130_fd_sc_hd__nand2_2
*I *969:X O *D sky130_fd_sc_hd__buf_4
*CAP
1 *608:B 0.00014803
2 *969:X 0.00014803
3 *608:B *461:12 0.000164815
4 *610:B1 *608:B 4.70005e-05
5 *623:A2 *608:B 0
6 *969:A *608:B 0.00031329
*RES
1 *969:X *608:B 32.8239 
*END

*D_NET *461 0.00418946
*CONN
*I *636:S I *D sky130_fd_sc_hd__mux2i_1
*I *642:S I *D sky130_fd_sc_hd__mux2i_1
*I *970:X O *D sky130_fd_sc_hd__buf_6
*CAP
1 *636:S 0.00010744
2 *642:S 0.00010744
3 *970:X 0.00128731
4 *461:12 0.00128731
5 *461:12 *462:12 6.54859e-05
6 *608:B *461:12 0.000164815
7 *623:A3 *461:12 3.42853e-05
8 *623:B1 *461:12 0.000373548
9 *635:A *461:12 0.000175485
10 *636:A1 *636:S 5.04829e-06
11 *638:A1 *636:S 7.92757e-06
12 *644:A2 *461:12 0.00015565
13 *704:CLK *636:S 0.000125079
14 *852:A *461:12 9.79408e-05
15 *969:A *461:12 5.99691e-05
16 *971:A *461:12 6.23875e-05
17 *122:12 *636:S 0
18 *122:12 *461:12 7.23422e-05
*RES
1 *970:X *461:12 42.3566 
2 *461:12 *642:S 9.24915 
3 *642:S *636:S 30.4689 
*END

*D_NET *236 0.00078193
*CONN
*I *508:B I *D sky130_fd_sc_hd__nand2_4
*I *588:X O *D sky130_fd_sc_hd__clkdlybuf4s50_1
*CAP
1 *508:B 0.000321704
2 *588:X 0.000321704
3 *508:B *394:14 0.000138523
4 *559:B *508:B 0
5 *607:B1 *508:B 0
*RES
1 *588:X *508:B 34.3456 
*END

*D_NET *263 0.00129569
*CONN
*I *517:A1 I *D sky130_fd_sc_hd__mux2_4
*I *815:X O *D sky130_fd_sc_hd__clkdlybuf4s50_1
*CAP
1 *517:A1 0.000518937
2 *815:X 0.000518937
3 *637:A *517:A1 0.000121926
4 *183:10 *517:A1 0.000114495
5 *183:25 *517:A1 2.13992e-05
*RES
1 *815:X *517:A1 36.9848 
*END

*D_NET *462 0.0139693
*CONN
*I *839:A I *D sky130_fd_sc_hd__buf_4
*I *630:B I *D sky130_fd_sc_hd__nor2_2
*I *626:S I *D sky130_fd_sc_hd__mux2i_1
*I *617:A I *D sky130_fd_sc_hd__nand2_2
*I *600:S I *D sky130_fd_sc_hd__mux2i_1
*I *605:S I *D sky130_fd_sc_hd__mux2i_1
*I *971:X O *D sky130_fd_sc_hd__buf_6
*CAP
1 *839:A 0.000318832
2 *630:B 0.000300212
3 *626:S 0
4 *617:A 0
5 *600:S 0.000757791
6 *605:S 0.000129108
7 *971:X 0.000962742
8 *462:63 0.00100094
9 *462:57 0.00109807
10 *462:48 0.000607239
11 *462:18 0.00124469
12 *462:12 0.00184926
13 *462:12 *610:A1 0.000143309
14 *513:S *462:12 0.000248644
15 *530:A *839:A 0.000106165
16 *544:A *462:18 2.25099e-05
17 *544:B *462:18 0.000109062
18 *545:B *462:18 1.83992e-05
19 *546:A1 *462:12 0
20 *546:A2 *462:48 2.15326e-05
21 *602:A *600:S 4.19199e-05
22 *603:A2 *600:S 3.40042e-05
23 *606:A *600:S 0.000806937
24 *610:A2 *462:12 0.000150147
25 *610:B1 *462:12 0
26 *611:B_N *462:12 0
27 *621:A *462:57 0
28 *626:A0 *462:63 2.16355e-05
29 *626:A1 *462:63 1.43983e-05
30 *628:A2 *462:63 9.79796e-06
31 *630:A *630:B 0.000187766
32 *631:A1 *630:B 0.000169041
33 *631:A1 *462:63 6.49003e-05
34 *631:A2 *630:B 3.18202e-05
35 *631:B1 *630:B 1.80122e-05
36 *633:A2 *630:B 6.50727e-05
37 *674:B *462:12 0.000608091
38 *674:C *462:12 6.68963e-06
39 *674:D *462:12 0
40 *708:DE *462:12 3.46922e-05
41 *722:D *462:48 1.32185e-05
42 *722:DE *462:18 2.44599e-05
43 *722:DE *462:48 1.04265e-05
44 *805:A *600:S 0.000318331
45 *806:A *600:S 0.000309709
46 *824:A *600:S 0
47 *904:A *462:63 0.00053077
48 *916:A *839:A 4.58003e-05
49 *939:A *605:S 2.20457e-05
50 *940:A *462:12 2.81291e-05
51 *969:A *462:12 0.000111722
52 *40:10 *462:63 1.88653e-05
53 *41:20 *462:12 0.000127413
54 *116:8 *462:48 0
55 *116:8 *462:57 0
56 *171:6 *839:A 0.000149356
57 *272:14 *600:S 0.000213049
58 *398:14 *600:S 0
59 *406:41 *462:12 0.000221689
60 *414:31 *462:12 2.35619e-05
61 *414:40 *600:S 0
62 *414:53 *600:S 0
63 *420:44 *462:18 6.91826e-06
64 *426:33 *600:S 0
65 *456:8 *839:A 0.000271246
66 *456:8 *462:48 0.000143804
67 *456:8 *462:57 0.000109859
68 *461:12 *462:12 6.54859e-05
*RES
1 *971:X *462:12 47.2497 
2 *462:12 *462:18 10.7983 
3 *462:18 *605:S 16.691 
4 *462:18 *600:S 38.2636 
5 *462:12 *462:48 13.4319 
6 *462:48 *617:A 13.7491 
7 *462:48 *462:57 2.24725 
8 *462:57 *462:63 16.3396 
9 *462:63 *626:S 9.24915 
10 *462:63 *630:B 16.7001 
11 *462:57 *839:A 24.7573 
*END

*D_NET *264 0.00112366
*CONN
*I *515:B I *D sky130_fd_sc_hd__nand2_1
*I *816:X O *D sky130_fd_sc_hd__clkdlybuf4s50_1
*CAP
1 *515:B 0.000471542
2 *816:X 0.000471542
3 *515:B *406:59 5.05502e-05
4 *515:B *406:70 6.36477e-05
5 *531:A *515:B 7.92757e-06
6 *35:6 *515:B 5.84504e-05
*RES
1 *816:X *515:B 29.2287 
*END

*D_NET *333 0.00133411
*CONN
*I *631:A1 I *D sky130_fd_sc_hd__a21oi_2
*I *839:X O *D sky130_fd_sc_hd__buf_4
*CAP
1 *631:A1 0.000180504
2 *839:X 0.000180504
3 *631:A1 *621:B 0.000196653
4 *631:A1 *630:B 0.000169041
5 *631:A1 *631:A2 0.000115934
6 *631:A1 *462:63 6.49003e-05
7 *621:A *631:A1 0.000160617
8 *626:A1 *631:A1 0.000170592
9 *628:A2 *631:A1 8.41174e-05
10 *185:31 *631:A1 1.1246e-05
*RES
1 *839:X *631:A1 36.3203 
*END

*D_NET *463 0.000669212
*CONN
*I *652:A1 I *D sky130_fd_sc_hd__a21oi_2
*I *972:X O *D sky130_fd_sc_hd__buf_4
*CAP
1 *652:A1 0.000106054
2 *972:X 0.000106054
3 *654:A2 *652:A1 0.000211478
4 *700:D *652:A1 1.67988e-05
5 *278:16 *652:A1 0.000118775
6 *336:67 *652:A1 4.58003e-05
7 *353:96 *652:A1 3.76697e-05
8 *449:16 *652:A1 2.65831e-05
*RES
1 *972:X *652:A1 23.128 
*END

*D_NET *464 0.00057981
*CONN
*I *610:A1 I *D sky130_fd_sc_hd__a31oi_4
*I *973:X O *D sky130_fd_sc_hd__buf_4
*CAP
1 *610:A1 0.000114501
2 *973:X 0.000114501
3 *940:A *610:A1 0.000146652
4 *156:14 *610:A1 6.08467e-05
5 *462:12 *610:A1 0.000143309
*RES
1 *973:X *610:A1 31.8728 
*END

*D_NET *465 0.00104978
*CONN
*I *639:B I *D sky130_fd_sc_hd__nand2_4
*I *974:X O *D sky130_fd_sc_hd__buf_4
*CAP
1 *639:B 0.000362986
2 *974:X 0.000362986
3 *540:A1 *639:B 9.085e-06
4 *540:A2 *639:B 0.0001682
5 *951:A *639:B 6.08467e-05
6 *47:16 *639:B 5.98035e-05
7 *351:8 *639:B 2.58757e-05
*RES
1 *974:X *639:B 37.2607 
*END

*D_NET *466 0.00329865
*CONN
*I *493:A1 I *D sky130_fd_sc_hd__o21ai_0
*I *489:A I *D sky130_fd_sc_hd__nor2_4
*I *494:A I *D sky130_fd_sc_hd__or3_1
*I *975:X O *D sky130_fd_sc_hd__buf_6
*CAP
1 *493:A1 0.000357162
2 *489:A 0.000109089
3 *494:A 0.000389236
4 *975:X 1.64028e-05
5 *466:23 0.000716698
6 *466:6 0.000656087
7 *493:A1 *673:D 0.000252827
8 *479:C1 *489:A 0
9 *479:C1 *494:A 6.40814e-05
10 *479:C1 *466:23 0
11 *493:A2 *493:A1 2.58616e-05
12 *495:A *493:A1 2.74378e-05
13 *495:B *493:A1 0.000194519
14 *533:B1 *494:A 7.27437e-05
15 *533:B1 *466:23 3.92058e-05
16 *672:A *466:23 0.000137594
17 *891:A *493:A1 5.04829e-06
18 *977:A *493:A1 3.82228e-05
19 *10:10 *489:A 4.83617e-06
20 *10:10 *466:23 4.4196e-06
21 *277:24 *489:A 0.000138453
22 *277:24 *493:A1 4.87301e-05
*RES
1 *975:X *466:6 9.82786 
2 *466:6 *494:A 16.1214 
3 *466:6 *466:23 9.41035 
4 *466:23 *489:A 16.8269 
5 *466:23 *493:A1 25.2994 
*END

*D_NET *467 0.00373291
*CONN
*I *604:A I *D sky130_fd_sc_hd__xnor2_4
*I *976:X O *D sky130_fd_sc_hd__buf_6
*CAP
1 *604:A 0.000803052
2 *976:X 0.000803052
3 *558:A *604:A 0.000109421
4 *558:B *604:A 0.000709463
5 *558:C *604:A 4.37727e-05
6 *558:D *604:A 0.000210849
7 *604:B *604:A 6.36477e-05
8 *58:20 *604:A 0.000154145
9 *74:8 *604:A 8.64663e-05
10 *163:12 *604:A 0.00010167
11 *165:18 *604:A 2.04266e-06
12 *271:18 *604:A 2.34991e-05
13 *386:39 *604:A 0.000439451
14 *394:62 *604:A 0
15 *406:20 *604:A 0.000182379
*RES
1 *976:X *604:A 49.9496 
*END

*D_NET *468 0.00235355
*CONN
*I *673:D I *D sky130_fd_sc_hd__nor4_4
*I *977:X O *D sky130_fd_sc_hd__buf_4
*CAP
1 *673:D 0.000567115
2 *977:X 0.000567115
3 *493:A1 *673:D 0.000252827
4 *977:A *673:D 0.000160135
5 *155:12 *673:D 2.78372e-05
6 *164:12 *673:D 0.000230777
7 *374:8 *673:D 0.000278655
8 *404:16 *673:D 0.000269094
9 *418:31 *673:D 0
10 *419:88 *673:D 0
*RES
1 *977:X *673:D 47.9232 
*END

*D_NET *265 0.00670573
*CONN
*I *513:A1 I *D sky130_fd_sc_hd__mux2_4
*I *817:X O *D sky130_fd_sc_hd__clkdlybuf4s50_1
*CAP
1 *513:A1 0.00249837
2 *817:X 6.82933e-05
3 *265:10 0.00256667
4 *513:A1 *513:S 7.90978e-05
5 *513:A1 *544:A 4.54659e-05
6 *513:A1 *621:B 0.000118166
7 *513:A1 *625:B 0.000474871
8 *513:A1 *939:A 6.50586e-05
9 *513:A1 *341:20 0.000555982
10 *265:10 resp_msg[8] 0
11 *847:A *513:A1 0.000110583
12 *858:A *513:A1 0.000123176
*RES
1 *817:X *265:10 19.6659 
2 *265:10 *513:A1 49.0118 
*END

*D_NET *469 0.00307183
*CONN
*I *845:A I *D sky130_fd_sc_hd__buf_6
*I *978:X O *D sky130_fd_sc_hd__buf_4
*CAP
1 *845:A 0
2 *978:X 0.000701563
3 *469:18 0.000701563
4 *478:B_N *469:18 6.08467e-05
5 *566:B *469:18 3.31645e-05
6 *577:B *469:18 2.6953e-05
7 *673:A *469:18 6.50727e-05
8 *683:A *469:18 0
9 *697:D *469:18 0.000149816
10 *697:CLK *469:18 0.000158301
11 *863:A *469:18 2.99733e-05
12 *963:A *469:18 0.000106523
13 *59:10 *469:18 0.000156946
14 *75:12 *469:18 6.28022e-05
15 *85:10 *469:18 9.97045e-06
16 *363:16 *469:18 3.10919e-05
17 *454:36 *469:18 0.000333435
18 *455:26 *469:18 0.000443806
*RES
1 *978:X *469:18 41.9586 
2 *469:18 *845:A 9.24915 
*END

*D_NET *421 0.00199475
*CONN
*I *946:A I *D sky130_fd_sc_hd__buf_6
*I *927:X O *D sky130_fd_sc_hd__buf_4
*CAP
1 *946:A 0.000506749
2 *927:X 0.000506749
3 *946:A *848:A 0.000216458
4 *946:A *455:26 9.46009e-05
5 *591:A *946:A 0.000375067
6 *709:CLK *946:A 6.08467e-05
7 *359:29 *946:A 7.17845e-05
8 *415:10 *946:A 0.000162493
*RES
1 *927:X *946:A 43.3799 
*END

*D_NET *267 0.00130821
*CONN
*I *665:A I *D sky130_fd_sc_hd__inv_1
*I *679:B I *D sky130_fd_sc_hd__nand2_1
*I *818:X O *D sky130_fd_sc_hd__dlymetal6s2s_1
*CAP
1 *665:A 0.000108946
2 *679:B 0
3 *818:X 0.000216495
4 *267:12 0.000325441
5 *267:12 *670:A 0.000124057
6 *267:12 *679:A 0.000170954
7 *267:12 *957:A 8.48137e-05
8 *680:B1 *665:A 8.65068e-05
9 *167:10 *267:12 0.000190998
*RES
1 *818:X *267:12 26.9024 
2 *267:12 *679:B 9.24915 
3 *267:12 *665:A 12.7878 
*END

*D_NET *344 0.000650922
*CONN
*I *629:A I *D sky130_fd_sc_hd__xnor2_4
*I *850:X O *D sky130_fd_sc_hd__buf_6
*CAP
1 *629:A 0.000217227
2 *850:X 0.000217227
3 *629:A *624:C 0
4 *629:A *625:B 0.000216467
*RES
1 *850:X *629:A 33.3785 
*END

*D_NET *439 0.000348656
*CONN
*I *930:A I *D sky130_fd_sc_hd__buf_6
*I *948:X O *D sky130_fd_sc_hd__buf_4
*CAP
1 *930:A 6.57523e-05
2 *948:X 6.57523e-05
3 *948:A *930:A 0.000217151
*RES
1 *948:X *930:A 20.8855 
*END

*D_NET *268 0.00240737
*CONN
*I *919:A I *D sky130_fd_sc_hd__buf_4
*I *669:C1 I *D sky130_fd_sc_hd__a221o_1
*I *819:X O *D sky130_fd_sc_hd__clkdlybuf4s50_1
*CAP
1 *919:A 0.000464501
2 *669:C1 0.000305151
3 *819:X 3.58865e-05
4 *268:8 0.000805539
5 *669:C1 *669:B2 0.00011572
6 *669:C1 *670:A 4.04935e-05
7 *669:C1 *821:A 6.58216e-05
8 *669:C1 *957:A 8.70458e-05
9 *669:C1 *419:8 0
10 *669:C1 *428:27 0.000107358
11 *919:A *957:A 8.07939e-05
12 *919:A *413:12 0
13 *919:A *419:8 0
14 *919:A *420:8 0.000150238
15 *919:A *448:10 0
16 *590:A1 *919:A 0.000148825
*RES
1 *819:X *268:8 14.4725 
2 *268:8 *669:C1 24.3014 
3 *268:8 *919:A 27.5219 
*END

*D_NET *442 0.000223606
*CONN
*I *942:A I *D sky130_fd_sc_hd__buf_6
*I *951:X O *D sky130_fd_sc_hd__buf_4
*CAP
1 *942:A 6.23216e-05
2 *951:X 6.23216e-05
3 *47:16 *942:A 9.89624e-05
*RES
1 *951:X *942:A 20.8855 
*END

*D_NET *345 0.0013396
*CONN
*I *853:A I *D sky130_fd_sc_hd__buf_4
*I *851:X O *D sky130_fd_sc_hd__buf_4
*CAP
1 *853:A 0.000330089
2 *851:X 0.000330089
3 *853:A *645:A0 0.000391303
4 *853:A *353:108 1.43698e-05
5 *853:A *357:169 6.46815e-05
6 *853:A *357:175 5.34638e-05
7 *853:A *397:10 0
8 *702:D *853:A 5.71992e-05
9 *718:D *853:A 9.84039e-05
*RES
1 *851:X *853:A 39.0821 
*END

*D_NET *470 0.000336656
*CONN
*I *488:B I *D sky130_fd_sc_hd__xor2_2
*I *979:X O *D sky130_fd_sc_hd__buf_4
*CAP
1 *488:B 0.000168328
2 *979:X 0.000168328
*RES
1 *979:X *488:B 12.6853 
*END

*D_NET *431 0.00239437
*CONN
*I *888:A I *D sky130_fd_sc_hd__buf_4
*I *940:X O *D sky130_fd_sc_hd__buf_4
*CAP
1 *888:A 0.000829553
2 *940:X 0.000829553
3 *527:A *888:A 2.74378e-05
4 *527:B_N *888:A 7.61353e-05
5 *614:A2 *888:A 0.000164842
6 *623:B1 *888:A 0.000139104
7 *634:B *888:A 0.000157652
8 *642:A0 *888:A 0
9 *37:10 *888:A 3.57646e-05
10 *182:18 *888:A 6.50586e-05
11 *402:10 *888:A 6.92705e-05
*RES
1 *940:X *888:A 48.6738 
*END

*D_NET *425 0.00359237
*CONN
*I *897:A I *D sky130_fd_sc_hd__buf_4
*I *898:A I *D sky130_fd_sc_hd__buf_4
*I *931:X O *D sky130_fd_sc_hd__buf_6
*CAP
1 *897:A 0.000424447
2 *898:A 0.000257588
3 *931:X 0.000286412
4 *425:10 0.000968447
5 *897:A *502:A 9.90447e-05
6 *897:A *981:A 0
7 *898:A *929:A 0.000113295
8 *425:10 *448:31 0
9 *556:B_N *425:10 0.00026694
10 *583:A_N *898:A 1.50924e-05
11 *583:B *897:A 0.000151845
12 *584:D1 *897:A 7.90239e-05
13 *586:B *898:A 5.54518e-05
14 *586:B *425:10 0.000106992
15 *596:A1 *898:A 0
16 *190:16 *425:10 5.22672e-05
17 *359:12 *897:A 6.08467e-05
18 *392:16 *898:A 0.000218848
19 *393:10 *425:10 0.000325369
20 *415:39 *898:A 0.000110458
*RES
1 *931:X *425:10 24.3337 
2 *425:10 *898:A 21.6442 
3 *425:10 *897:A 25.9504 
*END

*D_NET *285 0.00242485
*CONN
*I *670:A I *D sky130_fd_sc_hd__inv_1
*I *669:B2 I *D sky130_fd_sc_hd__a221o_1
*I *820:X O *D sky130_fd_sc_hd__clkdlybuf4s50_1
*CAP
1 *670:A 0.000477501
2 *669:B2 0.000171693
3 *820:X 0
4 *285:6 0.000649194
5 *669:B2 *671:A1 0
6 *669:B2 *838:A 8.91853e-05
7 *669:B2 *419:8 0.000114259
8 *670:A *681:A 3.68716e-05
9 *670:A *413:12 0.000133113
10 *670:A *419:8 3.89804e-05
11 *670:A *436:14 0.000306461
12 *669:C1 *669:B2 0.00011572
13 *669:C1 *670:A 4.04935e-05
14 *681:B_N *670:A 0.000127322
15 *267:12 *670:A 0.000124057
*RES
1 *820:X *285:6 13.7491 
2 *285:6 *669:B2 20.6588 
3 *285:6 *670:A 28.4033 
*END

*D_NET *376 0.00233483
*CONN
*I *876:A I *D sky130_fd_sc_hd__buf_4
*I *882:X O *D sky130_fd_sc_hd__buf_4
*CAP
1 *876:A 0.000646935
2 *882:X 0.000646935
3 *876:A *843:A 0.000148002
4 resp_msg[5] *876:A 0
5 *486:B *876:A 5.0124e-05
6 *645:S *876:A 7.57062e-05
7 *813:A *876:A 2.37478e-05
8 *832:A *876:A 0.000614833
9 *197:12 *876:A 4.92017e-06
10 *280:12 *876:A 8.04542e-05
11 *370:10 *876:A 4.31703e-05
*RES
1 *882:X *876:A 47.3661 
*END

*D_NET *471 0.00593511
*CONN
*I *675:A I *D sky130_fd_sc_hd__nor4_4
*I *980:X O *D sky130_fd_sc_hd__buf_6
*CAP
1 *675:A 0.0017369
2 *980:X 0.000232115
3 *471:10 0.00196902
4 *518:A0 *471:10 4.63422e-05
5 *540:A1 *675:A 5.0715e-05
6 *540:B1 *675:A 5.0715e-05
7 *639:A *675:A 7.52283e-05
8 *640:B *471:10 3.45866e-05
9 *641:A *675:A 0.000542974
10 *641:A *471:10 4.3116e-06
11 *641:B *471:10 3.20069e-06
12 *675:C *675:A 3.82228e-05
13 *676:B *675:A 0
14 *703:DE *471:10 0
15 *703:CLK *471:10 0.000141399
16 *948:A *675:A 0.000742534
17 *163:12 *675:A 0.000122083
18 *176:12 *675:A 0.000132621
19 *394:62 *675:A 1.77537e-06
20 *416:116 *471:10 1.03594e-05
*RES
1 *980:X *471:10 25.4794 
2 *471:10 *675:A 48.5642 
*END

*D_NET *379 0.00129199
*CONN
*I *890:A I *D sky130_fd_sc_hd__buf_4
*I *885:X O *D sky130_fd_sc_hd__buf_4
*CAP
1 *890:A 0.000284444
2 *885:X 0.000284444
3 *890:A *672:D 0.000114271
4 *487:B *890:A 0.000162918
5 *536:A *890:A 2.9083e-05
6 *536:B *890:A 6.27718e-05
7 *538:A2 *890:A 7.97898e-05
8 *198:22 *890:A 0.000233634
9 *373:10 *890:A 4.06342e-05
*RES
1 *885:X *890:A 37.3143 
*END

*D_NET *472 0.00227253
*CONN
*I *502:A I *D sky130_fd_sc_hd__nand2_2
*I *981:X O *D sky130_fd_sc_hd__buf_6
*CAP
1 *502:A 0.000434264
2 *981:X 0.000434264
3 *583:B *502:A 2.77625e-06
4 *584:D1 *502:A 0.000366246
5 *586:B *502:A 0
6 *595:A *502:A 0.000255255
7 *595:B *502:A 0.000112367
8 *596:A1 *502:A 0.000143175
9 *596:A3 *502:A 6.8401e-06
10 *596:B1 *502:A 4.7798e-05
11 *841:A *502:A 5.20167e-05
12 *897:A *502:A 9.90447e-05
13 *929:A *502:A 0.000135087
14 *348:12 *502:A 4.55145e-06
15 *392:16 *502:A 0.000178849
*RES
1 *981:X *502:A 42.6029 
*END

*D_NET *450 0.00143011
*CONN
*I *523:S I *D sky130_fd_sc_hd__mux2_4
*I *959:X O *D sky130_fd_sc_hd__buf_6
*CAP
1 *523:S 0.000341633
2 *959:X 0.000341633
3 *523:S *454:36 6.73547e-05
4 *523:A0 *523:S 0.000148129
5 *714:D *523:S 0.000148159
6 *959:A *523:S 1.88422e-05
7 *192:30 *523:S 0.000364356
8 *245:14 *523:S 0
9 *353:8 *523:S 0
*RES
1 *959:X *523:S 37.9788 
*END

*D_NET *266 0.00193631
*CONN
*I *568:A_N I *D sky130_fd_sc_hd__nand2b_1
*I *956:A I *D sky130_fd_sc_hd__buf_6
*I *961:A I *D sky130_fd_sc_hd__buf_6
*I *688:Q O *D sky130_fd_sc_hd__dfxtp_2
*CAP
1 *568:A_N 0.000140802
2 *956:A 1.41765e-05
3 *961:A 0
4 *688:Q 0.000153458
5 *266:19 0.000370527
6 *266:8 0.000369007
7 *568:A_N *357:18 0.000384408
8 *568:A_N *436:14 0.000115648
9 *956:A *436:14 6.27782e-05
10 *266:8 *428:14 2.72515e-05
11 *266:19 *357:18 0.0001682
12 *266:19 *428:14 9.87197e-05
13 *266:19 *436:14 5.46384e-06
14 *158:10 *956:A 2.58757e-05
*RES
1 *688:Q *266:8 12.0704 
2 *266:8 *961:A 9.24915 
3 *266:8 *266:19 10.5196 
4 *266:19 *956:A 14.4725 
5 *266:19 *568:A_N 20.5642 
*END

*D_NET *451 0.00805366
*CONN
*I *671:A1 I *D sky130_fd_sc_hd__o21ai_0
*I *669:A1 I *D sky130_fd_sc_hd__a221o_1
*I *679:A I *D sky130_fd_sc_hd__nand2_1
*I *524:S I *D sky130_fd_sc_hd__mux2_4
*I *687:S I *D sky130_fd_sc_hd__mux2_4
*I *960:X O *D sky130_fd_sc_hd__buf_12
*CAP
1 *671:A1 2.23802e-05
2 *669:A1 0
3 *679:A 0.000337248
4 *524:S 0.000416023
5 *687:S 1.71389e-05
6 *960:X 0.0014554
7 *451:28 0.000787689
8 *451:20 0.000691776
9 *451:18 5.05104e-05
10 *451:16 0.00152829
11 *687:S *687:A0 6.27718e-05
12 *451:28 *687:A0 0.000160047
13 *476:A *524:S 0
14 *524:A1 *524:S 5.22654e-06
15 *668:A *671:A1 0
16 *668:A *451:16 0.000228315
17 *669:A2 *679:A 0.000218601
18 *669:A2 *451:18 4.17481e-05
19 *669:B2 *671:A1 0
20 *671:A2 *451:16 6.70291e-05
21 *671:B1 *451:16 2.16355e-05
22 *677:B1 *451:16 0
23 *687:A1 *524:S 3.44412e-06
24 *688:D *451:16 3.072e-06
25 *688:D *451:18 1.31657e-05
26 *707:DE *524:S 0
27 *707:CLK *524:S 0
28 *713:D *687:S 1.43698e-05
29 *713:D *451:28 4.01825e-05
30 *821:A *679:A 7.32961e-05
31 *821:A *451:28 0.000149643
32 *859:A *451:16 6.51811e-05
33 *918:A *451:28 0.000156823
34 *957:A *679:A 7.0179e-06
35 *192:34 *451:16 5.92342e-05
36 *267:12 *679:A 0.000170954
37 *286:8 *451:16 0.000248423
38 *286:8 *451:18 0.000222149
39 *413:12 *679:A 0
40 *417:63 *451:28 3.00174e-06
41 *417:72 *451:28 5.35029e-05
42 *417:87 *679:A 0.000248602
43 *417:87 *451:28 9.3294e-05
44 *419:8 *451:28 0
45 *419:50 *524:S 0.000127685
46 *428:27 *679:A 0.000106953
47 *428:54 *451:16 8.18438e-05
*RES
1 *960:X *451:16 46.0827 
2 *451:16 *451:18 2.38721 
3 *451:18 *451:20 4.5 
4 *451:20 *451:28 16.3719 
5 *451:28 *687:S 9.97254 
6 *451:28 *524:S 28.8014 
7 *451:20 *679:A 26.5243 
8 *451:18 *669:A1 9.24915 
9 *451:16 *671:A1 9.82786 
*END

*D_NET *454 0.00956258
*CONN
*I *566:A I *D sky130_fd_sc_hd__xor2_1
*I *683:B I *D sky130_fd_sc_hd__nand2_4
*I *687:A0 I *D sky130_fd_sc_hd__mux2_4
*I *963:X O *D sky130_fd_sc_hd__buf_4
*CAP
1 *566:A 7.20571e-05
2 *683:B 0.000372562
3 *687:A0 0.000564917
4 *963:X 0
5 *454:57 0.000486192
6 *454:36 0.00158842
7 *454:4 0.00106508
8 *454:36 *469:18 0.000333435
9 *478:B_N *454:36 0.000126537
10 *523:S *454:36 6.73547e-05
11 *565:A1 *683:B 9.2346e-06
12 *565:B1 *683:B 0.000156541
13 *566:B *566:A 0.000160047
14 *566:B *454:36 0.00041069
15 *566:B *454:57 6.08467e-05
16 *567:B *683:B 0.000346746
17 *666:A *687:A0 8.06286e-05
18 *673:A *454:36 0.000140206
19 *683:A *683:B 0.000423384
20 *686:A1 *683:B 2.16355e-05
21 *687:S *687:A0 6.27718e-05
22 *689:D *687:A0 0.000310724
23 *697:CLK *454:36 8.20492e-06
24 *698:DE *687:A0 0.000853756
25 *698:DE *454:36 1.37939e-05
26 *713:D *687:A0 3.76783e-05
27 *918:A *687:A0 2.8232e-05
28 *923:A *454:36 6.54543e-05
29 *959:A *454:36 0.000110458
30 *963:A *454:36 6.27782e-05
31 *158:10 *566:A 2.08274e-05
32 *192:30 *687:A0 0.00038807
33 *192:30 *454:36 0.000387855
34 *193:31 *454:36 6.77389e-05
35 *336:10 *454:36 0.000110458
36 *339:10 *683:B 0.000140664
37 *363:16 *683:B 8.36429e-06
38 *405:8 *454:36 0.000110458
39 *417:72 *687:A0 0.000119367
40 *417:87 *687:A0 8.36586e-06
41 *451:28 *687:A0 0.000160047
*RES
1 *963:X *454:4 9.24915 
2 *454:4 *454:36 42.6562 
3 *454:36 *687:A0 39.16 
4 *454:4 *454:57 1.30211 
5 *454:57 *683:B 32.4316 
6 *454:57 *566:A 11.6364 
*END

*D_NET *406 0.0134798
*CONN
*I *965:A I *D sky130_fd_sc_hd__buf_6
*I *513:S I *D sky130_fd_sc_hd__mux2_4
*I *516:A2 I *D sky130_fd_sc_hd__o21ai_1
*I *517:S I *D sky130_fd_sc_hd__mux2_4
*I *515:A I *D sky130_fd_sc_hd__nand2_1
*I *964:A I *D sky130_fd_sc_hd__buf_6
*I *912:X O *D sky130_fd_sc_hd__buf_8
*CAP
1 *965:A 3.42276e-05
2 *513:S 0.000281976
3 *516:A2 7.79559e-05
4 *517:S 0.000512839
5 *515:A 0
6 *964:A 0
7 *912:X 0.0011738
8 *406:70 0.000700038
9 *406:59 0.00102088
10 *406:41 0.00133665
11 *406:35 0.000727435
12 *406:20 0.00172398
13 *513:S *708:DE 2.35849e-05
14 *513:S *462:12 0.000248644
15 *517:S *704:DE 0
16 *517:S *721:DE 0
17 *965:A *414:8 1.41976e-05
18 *965:A *414:94 5.08751e-05
19 *406:20 *604:A 0.000182379
20 *406:20 *420:72 0.000153225
21 *406:20 *426:8 7.15593e-05
22 *406:35 *920:A 4.58003e-05
23 *406:35 *414:8 0.000207266
24 *406:35 *455:8 1.80122e-05
25 *406:41 *414:94 2.01653e-05
26 *406:41 *462:12 0.000221689
27 *406:59 *458:124 6.83504e-05
28 *513:A1 *513:S 7.90978e-05
29 *514:A *516:A2 1.17054e-05
30 *514:A *517:S 2.844e-05
31 *514:A *406:70 4.44057e-05
32 *515:B *406:59 5.05502e-05
33 *515:B *406:70 6.36477e-05
34 *516:B1 *517:S 3.06627e-05
35 *516:B1 *406:70 8.24328e-05
36 *517:A0 *517:S 1.03403e-05
37 *529:A_N *406:59 0.000161956
38 *529:B *406:59 1.47046e-05
39 *531:A *406:59 0.00057852
40 *531:A *406:70 1.88014e-05
41 *531:C *406:59 0.000150839
42 *531:D *406:59 9.34883e-05
43 *543:B *965:A 7.24449e-05
44 *543:B *406:35 0.000219298
45 *544:A *513:S 6.77815e-05
46 *544:B *513:S 4.58897e-06
47 *546:A1 *406:41 0
48 *547:A *406:20 8.92568e-06
49 *548:B1 *406:20 0
50 *558:A *406:20 0.000144464
51 *565:A1 *406:20 9.68716e-06
52 *565:A2 *406:20 0.000251655
53 *572:B *406:20 2.16355e-05
54 *572:B *406:35 2.65831e-05
55 *686:A1 *406:20 0.000165936
56 *709:D *406:20 0.000112393
57 *721:D *517:S 0.000114495
58 *722:D *513:S 7.72376e-05
59 *875:A *406:70 5.14448e-05
60 *883:A *406:59 0.000457428
61 *971:A *406:20 5.04829e-06
62 *55:22 *406:59 0.000501313
63 *59:10 *406:20 0.000244756
64 *163:12 *406:20 3.24708e-05
65 *183:25 *517:S 0.000138523
66 *200:10 *517:S 1.99596e-06
67 *200:22 *516:A2 4.45999e-05
68 *200:22 *517:S 1.53265e-05
69 *220:14 *406:20 1.4091e-06
70 *271:18 *406:20 2.14842e-06
71 *282:8 *517:S 0
72 *363:16 *406:20 0.000190292
73 *377:12 *406:59 0.000160783
*RES
1 *912:X *406:20 46.142 
2 *406:20 *964:A 9.24915 
3 *406:20 *406:35 15.2395 
4 *406:35 *406:41 8.98697 
5 *406:41 *406:59 35.0755 
6 *406:59 *515:A 9.24915 
7 *406:59 *406:70 8.30115 
8 *406:70 *517:S 25.7376 
9 *406:70 *516:A2 15.5817 
10 *406:41 *513:S 22.812 
11 *406:35 *965:A 11.0817 
*END

*D_NET *269 0.000748125
*CONN
*I *822:A I *D sky130_fd_sc_hd__buf_2
*I *498:X O *D sky130_fd_sc_hd__xor2_1
*CAP
1 *822:A 0.000324183
2 *498:X 0.000324183
3 *822:A *498:A 3.25584e-05
4 *822:A *659:B 3.51934e-05
5 *659:A *822:A 2.69587e-05
6 *660:B1 *822:A 5.04829e-06
*RES
1 *498:X *822:A 33.6572 
*END

*D_NET *270 0.00153332
*CONN
*I *823:A I *D sky130_fd_sc_hd__dlymetal6s2s_1
*I *621:X O *D sky130_fd_sc_hd__xor2_1
*CAP
1 *823:A 0.000421306
2 *621:X 0.000421306
3 *823:A resp_msg[10] 0.000118158
4 *823:A *631:A2 3.7615e-05
5 *823:A *426:65 7.95319e-06
6 *823:A *426:87 3.42214e-05
7 *633:A2 *823:A 0.000271346
8 *633:B1 *823:A 0.000118002
9 *705:D *823:A 0.000103412
*RES
1 *621:X *823:A 40.4378 
*END

*D_NET *271 0.00591148
*CONN
*I *605:A1 I *D sky130_fd_sc_hd__mux2i_1
*I *824:A I *D sky130_fd_sc_hd__buf_2
*I *604:Y O *D sky130_fd_sc_hd__xnor2_4
*CAP
1 *605:A1 0
2 *824:A 0.000640883
3 *604:Y 0.000827741
4 *271:18 0.00146862
5 *824:A resp_msg[11] 2.41274e-06
6 *824:A *600:S 0
7 *824:A *806:A 0.000164842
8 *824:A *394:62 0.000601863
9 *824:A *398:14 0.000193748
10 *824:A *458:32 0
11 *271:18 *604:A 2.34991e-05
12 *271:18 *391:16 0.000109427
13 *271:18 *394:62 0.000747547
14 *271:18 *406:20 2.14842e-06
15 *547:A *271:18 0.000705925
16 *548:A1 *271:18 0.000122378
17 *548:B1 *271:18 7.50872e-05
18 *558:A *271:18 2.22974e-05
19 *605:A0 *271:18 3.82228e-05
20 *74:8 *271:18 0.000164829
*RES
1 *604:Y *271:18 42.375 
2 *271:18 *824:A 36.7235 
3 *271:18 *605:A1 9.24915 
*END

*D_NET *237 0.000753176
*CONN
*I *506:A1 I *D sky130_fd_sc_hd__mux2_4
*I *582:X O *D sky130_fd_sc_hd__clkdlybuf4s50_1
*CAP
1 *506:A1 0.00023041
2 *582:X 0.00023041
3 *506:A1 *506:A0 6.64392e-05
4 *506:A1 *506:S 6.36477e-05
5 *506:A1 *710:DE 0.00016227
6 *710:D *506:A1 0
*RES
1 *582:X *506:A1 32.3015 
*END

*D_NET *272 0.00435031
*CONN
*I *825:A I *D sky130_fd_sc_hd__clkbuf_2
*I *600:A1 I *D sky130_fd_sc_hd__mux2i_1
*I *599:Y O *D sky130_fd_sc_hd__xnor2_4
*CAP
1 *825:A 0.000133985
2 *600:A1 0.000109374
3 *599:Y 0.00116842
4 *272:14 0.00141178
5 *272:14 *512:A2 5.65046e-05
6 *272:14 *600:S 0.000213049
7 *272:14 *708:CLK 4.63204e-05
8 *272:14 *802:A 6.24474e-06
9 *272:14 *414:53 1.47102e-05
10 *272:14 *414:66 1.65078e-05
11 *272:14 *426:33 0.000218567
12 *603:A2 *600:A1 7.29927e-06
13 *603:A2 *272:14 7.5426e-06
14 *606:A *272:14 0.000855518
15 *694:D *825:A 8.44848e-05
*RES
1 *599:Y *272:14 41.6218 
2 *272:14 *600:A1 11.1059 
3 *272:14 *825:A 22.1574 
*END

*D_NET *273 0.0027496
*CONN
*I *826:A I *D sky130_fd_sc_hd__clkbuf_2
*I *597:Y O *D sky130_fd_sc_hd__xnor2_2
*CAP
1 *826:A 0
2 *597:Y 0.000877432
3 *273:14 0.000877432
4 *273:14 *552:A 9.59495e-05
5 *273:14 *362:10 6.58282e-05
6 *273:14 *408:25 6.1578e-06
7 *560:B *273:14 5.86645e-05
8 *867:A *273:14 0.000146645
9 *868:A *273:14 0.000143047
10 *902:A *273:14 7.31596e-05
11 *63:8 *273:14 0.000193108
12 *172:35 *273:14 0
13 *173:26 *273:14 0.000134106
14 *188:38 *273:14 1.76124e-05
15 *189:12 *273:14 6.04569e-05
*RES
1 *597:Y *273:14 43.83 
2 *273:14 *826:A 9.24915 
*END

*D_NET *274 0.00202239
*CONN
*I *827:A I *D sky130_fd_sc_hd__buf_2
*I *591:Y O *D sky130_fd_sc_hd__xnor2_1
*CAP
1 *827:A 0.000436697
2 *591:Y 0.000436697
3 *827:A *508:A 0.000176196
4 *827:A *599:A 0.000219718
5 *827:A *391:16 0.000159032
6 *827:A *394:58 0.000208599
7 *827:A *426:8 1.8906e-05
8 *827:A *426:101 6.72829e-05
9 *607:B1 *827:A 0.000163827
10 *694:D *827:A 0.000115753
11 *188:27 *827:A 1.96819e-05
*RES
1 *591:Y *827:A 42.2704 
*END

*D_NET *275 0.00280734
*CONN
*I *828:A I *D sky130_fd_sc_hd__buf_2
*I *567:Y O *D sky130_fd_sc_hd__xnor2_2
*CAP
1 *828:A 0
2 *567:Y 0.000804343
3 *275:18 0.000804343
4 *275:18 resp_msg[15] 0.000255298
5 *275:18 *497:A 0.000109899
6 *275:18 *567:B 5.03545e-06
7 *275:18 *673:B 0.0001195
8 *275:18 *697:CLK 0.000158834
9 *275:18 *339:10 8.15307e-05
10 *275:18 *375:10 0
11 *275:18 *417:31 2.41274e-06
12 *478:A *275:18 0.000177787
13 *567:A *275:18 0.000159038
14 *178:29 *275:18 0.000129323
*RES
1 *567:Y *275:18 41.2354 
2 *275:18 *828:A 9.24915 
*END

*D_NET *276 0.003264
*CONN
*I *953:A I *D sky130_fd_sc_hd__buf_4
*I *829:A I *D sky130_fd_sc_hd__buf_2
*I *497:Y O *D sky130_fd_sc_hd__xnor2_1
*CAP
1 *953:A 0.000350177
2 *829:A 0.000407612
3 *497:Y 0
4 *276:4 0.000757789
5 *829:A resp_msg[1] 0.000110527
6 *829:A *522:A0 0
7 *829:A *659:B 0.000122378
8 *829:A *663:B 1.09551e-05
9 *829:A *673:C 0.000217951
10 *829:A *357:45 0
11 *829:A *357:56 7.72557e-05
12 *829:A *357:71 5.99527e-05
13 *829:A *419:69 0.000249119
14 *953:A *497:A 0.000120288
15 *953:A *673:C 0.000441182
16 *953:A *304:31 6.04335e-05
17 *953:A *428:62 0.000162677
18 *663:A *829:A 3.04443e-05
19 *664:B1 *829:A 6.34651e-06
20 *245:14 *829:A 7.89173e-05
*RES
1 *497:Y *276:4 9.24915 
2 *276:4 *829:A 31.4194 
3 *276:4 *953:A 26.1041 
*END

*D_NET *277 0.00285432
*CONN
*I *830:A I *D sky130_fd_sc_hd__buf_2
*I *655:A1 I *D sky130_fd_sc_hd__mux2i_1
*I *495:Y O *D sky130_fd_sc_hd__nand2_1
*CAP
1 *830:A 0.000188154
2 *655:A1 3.45205e-05
3 *495:Y 0.000610664
4 *277:24 0.000833339
5 *655:A1 *655:A0 1.64789e-05
6 *655:A1 *655:S 0
7 *655:A1 *336:18 1.43848e-05
8 *830:A *656:B 5.1493e-06
9 *830:A *795:A 6.50586e-05
10 *830:A *357:92 1.41689e-05
11 *830:A *357:96 0.00016553
12 *277:24 *489:A 0.000138453
13 *277:24 *489:B 1.53822e-05
14 *277:24 *493:A1 4.87301e-05
15 *277:24 *655:S 1.05106e-05
16 *277:24 *672:A 5.04829e-06
17 *277:24 *336:18 4.94961e-05
18 *277:24 *336:29 7.98085e-05
19 *277:24 *353:54 0
20 *277:24 *416:28 1.41976e-05
21 *656:A *830:A 1.41181e-05
22 *700:D *277:24 0.000105783
23 *880:A *830:A 0.000201911
24 *880:A *277:24 0
25 *891:A *277:24 2.77625e-06
26 *10:10 *277:24 3.21615e-05
27 *155:12 *830:A 1.44611e-05
28 *194:12 *830:A 2.28945e-05
29 *210:14 *655:A1 2.65667e-05
30 *210:14 *277:24 0.000124568
*RES
1 *495:Y *277:24 35.3934 
2 *277:24 *655:A1 10.5513 
3 *277:24 *830:A 24.2687 
*END

*D_NET *278 0.00352129
*CONN
*I *652:A2 I *D sky130_fd_sc_hd__a21oi_2
*I *831:A I *D sky130_fd_sc_hd__buf_2
*I *491:Y O *D sky130_fd_sc_hd__xnor2_2
*CAP
1 *652:A2 0
2 *831:A 0.000369166
3 *491:Y 0.000312507
4 *278:16 0.000681673
5 *831:A resp_msg[2] 6.23875e-05
6 *831:A resp_msg[3] 0.000112763
7 *831:A *699:DE 0
8 *831:A *812:A 0
9 *831:A *353:54 0
10 *831:A *357:96 0.000476439
11 *831:A *449:16 2.16355e-05
12 *278:16 *490:B 0.000208606
13 *278:16 *651:A 4.30748e-05
14 *278:16 *652:A1 0.000118775
15 *278:16 *395:12 0.000168319
16 *278:16 *449:16 9.81054e-05
17 *480:B *278:16 0.000193358
18 *491:A *278:16 5.05228e-05
19 *652:B1 *278:16 2.22342e-05
20 *700:D *831:A 1.65872e-05
21 *700:D *278:16 0.000217951
22 *178:16 *831:A 0.000347181
23 *179:12 *278:16 0
*RES
1 *491:Y *278:16 30.8326 
2 *278:16 *831:A 32.5822 
3 *278:16 *652:A2 9.24915 
*END

*D_NET *279 0.0021037
*CONN
*I *851:A I *D sky130_fd_sc_hd__buf_4
*I *832:A I *D sky130_fd_sc_hd__dlymetal6s2s_1
*I *488:X O *D sky130_fd_sc_hd__xor2_2
*CAP
1 *851:A 0
2 *832:A 0.0002216
3 *488:X 3.85324e-05
4 *279:6 0.000260132
5 *832:A *645:A0 5.96936e-05
6 *832:A *876:A 0.000614833
7 *519:A1 *832:A 0.000760769
8 *718:D *832:A 0.000148144
*RES
1 *488:X *279:6 9.97254 
2 *279:6 *832:A 29.9782 
3 *279:6 *851:A 9.24915 
*END

*D_NET *280 0.000826343
*CONN
*I *833:A I *D sky130_fd_sc_hd__buf_2
*I *952:A I *D sky130_fd_sc_hd__buf_4
*I *486:Y O *D sky130_fd_sc_hd__xnor2_1
*CAP
1 *833:A 0.000119308
2 *952:A 0
3 *486:Y 0.000149334
4 *280:12 0.000268642
5 *833:A *843:A 0.000147759
6 *280:12 *843:A 6.08467e-05
7 *280:12 *876:A 8.04542e-05
8 *280:12 *357:175 0
*RES
1 *486:Y *280:12 22.6049 
2 *280:12 *952:A 9.24915 
3 *280:12 *833:A 12.7456 
*END

*D_NET *281 0.00209078
*CONN
*I *834:A I *D sky130_fd_sc_hd__clkbuf_2
*I *642:A1 I *D sky130_fd_sc_hd__mux2i_1
*I *641:Y O *D sky130_fd_sc_hd__xnor2_2
*CAP
1 *834:A 0.000320286
2 *642:A1 0.000172331
3 *641:Y 0.000492617
4 *642:A1 *642:A0 6.4628e-05
5 *642:A1 *357:193 0
6 *834:A *643:B 0.00020444
7 *834:A *644:A1 0.000118166
8 *643:A *834:A 0.00038006
9 *644:A2 *642:A1 0
10 *644:B1 *834:A 2.29454e-05
11 *182:18 *642:A1 0.000277502
12 *182:18 *834:A 3.78018e-05
*RES
1 *641:Y *642:A1 33.1026 
2 *641:Y *834:A 28.0953 
*END

*D_NET *238 0.000619456
*CONN
*I *505:A1 I *D sky130_fd_sc_hd__mux2_4
*I *569:X O *D sky130_fd_sc_hd__clkdlybuf4s50_1
*CAP
1 *505:A1 0.000221936
2 *569:X 0.000221936
3 *505:A1 *505:A0 0.000127683
4 *505:A1 *593:B1_N 2.44829e-05
5 *505:A1 *420:106 2.34182e-05
*RES
1 *569:X *505:A1 32.1327 
*END

*D_NET *282 0.000987891
*CONN
*I *835:A I *D sky130_fd_sc_hd__buf_2
*I *949:A I *D sky130_fd_sc_hd__buf_4
*I *635:Y O *D sky130_fd_sc_hd__xnor2_2
*CAP
1 *835:A 2.43095e-05
2 *949:A 0.000105411
3 *635:Y 0.000105421
4 *282:8 0.000235142
5 *949:A resp_msg[7] 3.11227e-05
6 *949:A *636:A1 6.27782e-05
7 *949:A *704:DE 0.000173175
8 *282:8 *517:S 0
9 *282:8 *704:DE 0.000187753
10 *183:25 *835:A 6.27782e-05
*RES
1 *635:Y *282:8 17.2421 
2 *282:8 *949:A 17.5503 
3 *282:8 *835:A 14.4725 
*END

*D_NET *283 0.0020535
*CONN
*I *846:A I *D sky130_fd_sc_hd__buf_4
*I *836:A I *D sky130_fd_sc_hd__buf_2
*I *629:Y O *D sky130_fd_sc_hd__xnor2_4
*CAP
1 *846:A 0.000392786
2 *836:A 0
3 *629:Y 0.000219682
4 *283:8 0.000612468
5 *846:A *625:B 0.000112367
6 *846:A *631:A2 0.000167441
7 *846:A *706:DE 2.75163e-05
8 *846:A *284:12 0.00018839
9 *283:8 resp_msg[8] 0.000164754
10 *283:8 *629:B 2.98223e-05
11 *283:8 *817:A 0.000138271
12 *625:A *846:A 0
13 *625:A *283:8 0
*RES
1 *629:Y *283:8 21.3947 
2 *283:8 *836:A 13.7491 
3 *283:8 *846:A 25.0924 
*END

*D_NET *284 0.0038972
*CONN
*I *626:A1 I *D sky130_fd_sc_hd__mux2i_1
*I *837:A I *D sky130_fd_sc_hd__buf_2
*I *625:Y O *D sky130_fd_sc_hd__xnor2_2
*CAP
1 *626:A1 0.000194824
2 *837:A 0.000205886
3 *625:Y 0.000844848
4 *284:12 0.00124556
5 *626:A1 *631:A1 0.000170592
6 *626:A1 *462:63 1.43983e-05
7 *837:A resp_msg[9] 8.93845e-05
8 *837:A *511:A 0.000256598
9 *284:12 *511:A 6.52648e-05
10 *284:12 *625:B 4.89392e-05
11 *284:12 *628:A1 0.000105177
12 *284:12 *631:A2 9.62252e-05
13 *628:A2 *626:A1 6.08467e-05
14 *633:A2 *626:A1 0
15 *706:D *284:12 0.000158002
16 *846:A *284:12 0.00018839
17 *185:31 *626:A1 0.000152269
*RES
1 *625:Y *284:12 31.5297 
2 *284:12 *837:A 15.7115 
3 *284:12 *626:A1 24.9571 
*END

*D_NET *286 0.00177376
*CONN
*I *669:B1 I *D sky130_fd_sc_hd__a221o_1
*I *838:A I *D sky130_fd_sc_hd__buf_2
*I *668:Y O *D sky130_fd_sc_hd__nor2_4
*CAP
1 *669:B1 0
2 *838:A 0.000239549
3 *668:Y 0.000357814
4 *286:8 0.000597364
5 *838:A resp_val 1.92793e-05
6 *286:8 *451:16 0.000248423
7 *286:8 *451:18 0.000222149
8 *669:B2 *838:A 8.91853e-05
*RES
1 *668:Y *286:8 15.5427 
2 *286:8 *838:A 14.9881 
3 *286:8 *669:B1 9.24915 
*END

*D_NET *239 0.00141064
*CONN
*I *502:B I *D sky130_fd_sc_hd__nand2_2
*I *550:X O *D sky130_fd_sc_hd__clkdlybuf4s50_1
*CAP
1 *502:B 0.00036189
2 *550:X 0.00036189
3 *502:B *590:A1 1.43698e-05
4 *502:B *595:A 5.04829e-06
5 *502:B *696:CLK 0
6 *502:B *807:A 0
7 *502:B *415:41 0
8 *502:B *420:8 0.000196638
9 *502:B *420:19 0.000361377
10 *841:A *502:B 0.000109427
*RES
1 *550:X *502:B 39.2215 
*END

*D_NET *240 0.000455544
*CONN
*I *687:A1 I *D sky130_fd_sc_hd__mux2_4
*I *504:X O *D sky130_fd_sc_hd__clkdlybuf4s50_1
*CAP
1 *687:A1 0.00016537
2 *504:X 0.00016537
3 *687:A1 *524:S 3.44412e-06
4 *687:A1 *419:8 0.00012136
*RES
1 *504:X *687:A1 31.0235 
*END

*D_NET *241 0.00147689
*CONN
*I *663:A I *D sky130_fd_sc_hd__nand2_1
*I *501:X O *D sky130_fd_sc_hd__clkdlybuf4s50_1
*CAP
1 *663:A 0.000395355
2 *501:X 0.000395355
3 *663:A resp_msg[1] 0.000613352
4 *663:A *829:A 3.04443e-05
5 *663:A *245:14 0
6 *500:A *663:A 4.23874e-05
*RES
1 *501:X *663:A 38.5093 
*END

*D_NET *242 0.000369472
*CONN
*I *659:A I *D sky130_fd_sc_hd__nand2_1
*I *500:X O *D sky130_fd_sc_hd__clkdlybuf4s50_1
*CAP
1 *659:A 0.000158259
2 *500:X 0.000158259
3 *659:A *822:A 2.69587e-05
4 *500:A *659:A 1.27193e-05
5 *660:B1 *659:A 1.32772e-05
*RES
1 *500:X *659:A 30.8842 
*END

*D_NET *105 0.00273501
*CONN
*P req_msg[0] I
*I *601:A I *D sky130_fd_sc_hd__clkdlybuf4s50_1
*CAP
1 req_msg[0] 0.00109052
2 *601:A 0.00109052
3 *601:A *524:A1 2.64901e-05
4 *601:A *797:A 0
5 *500:A *601:A 0.000527467
*RES
1 req_msg[0] *601:A 33.8596 
*END

*D_NET *103 0.000591176
*CONN
*P req_msg[10] I
*I *598:A I *D sky130_fd_sc_hd__clkdlybuf4s50_1
*CAP
1 req_msg[10] 0.000293064
2 *598:A 0.000293064
3 *598:A resp_msg[10] 0
4 *598:A *511:B 5.04829e-06
*RES
1 req_msg[10] *598:A 20.9972 
*END

*D_NET *97 0.00109054
*CONN
*P req_msg[11] I
*I *588:A I *D sky130_fd_sc_hd__clkdlybuf4s50_1
*CAP
1 req_msg[11] 0.000485519
2 *588:A 0.000485519
3 *588:A resp_msg[13] 0
4 *588:A *189:12 0.0001195
*RES
1 req_msg[11] *588:A 26.2662 
*END

*D_NET *91 0.0015569
*CONN
*P req_msg[12] I
*I *582:A I *D sky130_fd_sc_hd__clkdlybuf4s50_1
*CAP
1 req_msg[12] 0.000292261
2 *582:A 0.000292261
3 *582:A *710:DE 0.000510984
4 *582:A *710:CLK 0.000461395
*RES
1 req_msg[12] *582:A 25.2287 
*END

*D_NET *78 0.00155571
*CONN
*P req_msg[13] I
*I *569:A I *D sky130_fd_sc_hd__clkdlybuf4s50_1
*CAP
1 req_msg[13] 0.000465471
2 *569:A 0.000465471
3 *569:A *505:A0 0.000156185
4 *569:A *592:A 8.8666e-05
5 *569:A *592:B 0.00014314
6 *569:A *807:A 0
7 *569:A *415:41 3.3443e-05
8 *569:A *415:63 0.000137468
9 *569:A *415:72 6.58661e-05
*RES
1 req_msg[13] *569:A 30.815 
*END

*D_NET *60 0.000558336
*CONN
*P req_msg[14] I
*I *550:A I *D sky130_fd_sc_hd__clkdlybuf4s50_1
*CAP
1 req_msg[14] 0.000256943
2 *550:A 0.000256943
3 *550:A *590:A1 0
4 *550:A *696:CLK 4.44489e-05
*RES
1 req_msg[14] *550:A 20.4337 
*END

*D_NET *28 0.000842067
*CONN
*P req_msg[15] I
*I *504:A I *D sky130_fd_sc_hd__clkdlybuf4s50_1
*CAP
1 req_msg[15] 0.000365995
2 *504:A 0.000365995
3 *504:A req_rdy 8.90253e-05
4 *504:A resp_val 2.1051e-05
5 *504:A *818:A 0
6 *504:A *820:A 0
7 *504:A *419:8 0
*RES
1 req_msg[15] *504:A 24.8485 
*END

*D_NET *26 0.000517006
*CONN
*P req_msg[16] I
*I *501:A I *D sky130_fd_sc_hd__clkdlybuf4s50_1
*CAP
1 req_msg[16] 0.000193444
2 *501:A 0.000193444
3 *501:A resp_msg[0] 0
4 *501:A resp_msg[1] 6.50586e-05
5 *501:A *808:A 0
6 *500:A *501:A 6.50586e-05
*RES
1 req_msg[16] *501:A 18.9182 
*END

*D_NET *25 0.00315157
*CONN
*P req_msg[17] I
*I *500:A I *D sky130_fd_sc_hd__clkdlybuf4s50_1
*CAP
1 req_msg[17] 0.00080608
2 *500:A 0.00080608
3 *500:A resp_msg[0] 0.000483474
4 *500:A resp_msg[1] 0.000327072
5 *500:A *501:A 6.50586e-05
6 *500:A *601:A 0.000527467
7 *500:A *659:A 1.27193e-05
8 *500:A *663:A 4.23874e-05
9 *500:A *715:CLK 1.61631e-05
10 *500:A *797:A 6.50727e-05
11 *500:A *304:31 0
*RES
1 req_msg[17] *500:A 40.32 
*END

*D_NET *289 0.0013364
*CONN
*P req_msg[18] I
*I *795:A I *D sky130_fd_sc_hd__clkdlybuf4s50_1
*CAP
1 req_msg[18] 0.000442638
2 *795:A 0.000442638
3 *795:A resp_msg[15] 0
4 *795:A *656:B 0.000200221
5 *795:A *812:A 0
6 *830:A *795:A 6.50586e-05
7 *880:A *795:A 0.00018584
8 *194:12 *795:A 0
*RES
1 req_msg[18] *795:A 27.2335 
*END

*D_NET *290 0.00191983
*CONN
*P req_msg[19] I
*I *796:A I *D sky130_fd_sc_hd__clkdlybuf4s50_1
*CAP
1 req_msg[19] 0.000772322
2 *796:A 0.000772322
3 *796:A resp_msg[2] 0
4 *796:A *653:B 5.56461e-05
5 *796:A *799:A 0.000253683
6 *653:A *796:A 6.08167e-05
7 *178:16 *796:A 5.04054e-06
*RES
1 req_msg[19] *796:A 28.5046 
*END

*D_NET *291 0.000517187
*CONN
*P req_msg[1] I
*I *797:A I *D sky130_fd_sc_hd__clkdlybuf4s50_1
*CAP
1 req_msg[1] 0.000177461
2 *797:A 0.000177461
3 *797:A resp_msg[0] 9.71912e-05
4 *500:A *797:A 6.50727e-05
5 *601:A *797:A 0
*RES
1 req_msg[1] *797:A 18.9182 
*END

*D_NET *292 0.00424711
*CONN
*P req_msg[20] I
*I *798:A I *D sky130_fd_sc_hd__clkdlybuf4s50_1
*CAP
1 req_msg[20] 0.00205103
2 *798:A 0
3 *292:15 0.00205103
4 *292:15 resp_msg[2] 6.8952e-05
5 *292:15 *646:B 3.67528e-06
6 *292:15 *812:A 7.24249e-05
*RES
1 req_msg[20] *292:15 45.461 
2 *292:15 *798:A 9.24915 
*END

*D_NET *293 0.00248723
*CONN
*P req_msg[21] I
*I *799:A I *D sky130_fd_sc_hd__clkdlybuf4s50_1
*CAP
1 req_msg[21] 0.000525734
2 *799:A 0.000525734
3 *799:A resp_msg[2] 0
4 *799:A resp_msg[3] 0
5 *799:A *653:B 5.07314e-05
6 *799:A *699:DE 0
7 *653:A *799:A 0.000593901
8 *654:B1 *799:A 0.0002817
9 *796:A *799:A 0.000253683
10 *178:16 *799:A 0.000255751
*RES
1 req_msg[21] *799:A 33.8201 
*END

*D_NET *294 0.00142463
*CONN
*P req_msg[22] I
*I *800:A I *D sky130_fd_sc_hd__clkdlybuf4s50_1
*CAP
1 req_msg[22] 0.000438499
2 *800:A 0.000438499
3 *800:A resp_msg[6] 0.000226327
4 *800:A *814:A 0.000321301
5 *800:A *815:A 0
6 *643:A *800:A 0
*RES
1 req_msg[22] *800:A 23.8759 
*END

*D_NET *295 0.000811743
*CONN
*P req_msg[23] I
*I *801:A I *D sky130_fd_sc_hd__clkdlybuf4s50_1
*CAP
1 req_msg[23] 0.000186848
2 *801:A 0.000186848
3 *801:A resp_msg[7] 0.000208071
4 *801:A *815:A 0.000229975
5 *183:25 *801:A 0
*RES
1 req_msg[23] *801:A 19.4939 
*END

*D_NET *296 0.00236544
*CONN
*P req_msg[24] I
*I *802:A I *D sky130_fd_sc_hd__clkdlybuf4s50_1
*CAP
1 req_msg[24] 0.000587049
2 *802:A 0.000587049
3 *802:A *512:A2 7.50128e-05
4 *802:A *803:A 0.000546047
5 *802:A *804:A 6.08467e-05
6 *802:A *805:A 0.000368938
7 *802:A *806:A 0
8 *802:A *400:14 2.58757e-05
9 *619:A *802:A 2.58757e-05
10 *906:A *802:A 8.24982e-05
11 *272:14 *802:A 6.24474e-06
*RES
1 req_msg[24] *802:A 32.9411 
*END

*D_NET *297 0.00254143
*CONN
*P req_msg[25] I
*I *803:A I *D sky130_fd_sc_hd__clkdlybuf4s50_1
*CAP
1 req_msg[25] 0.000738159
2 *803:A 0.000738159
3 *803:A *804:A 9.97399e-05
4 *632:A *803:A 0.000163165
5 *708:D *803:A 4.77834e-05
6 *802:A *803:A 0.000546047
7 *906:A *803:A 0.000208374
*RES
1 req_msg[25] *803:A 33.1046 
*END

*D_NET *298 0.0010005
*CONN
*P req_msg[26] I
*I *804:A I *D sky130_fd_sc_hd__clkdlybuf4s50_1
*CAP
1 req_msg[26] 0.000249382
2 *804:A 0.000249382
3 *804:A *512:A2 2.58757e-05
4 *804:A *708:DE 0.000139684
5 *804:A *708:CLK 1.22289e-05
6 *804:A *805:A 0
7 *708:D *804:A 0.000163359
8 *802:A *804:A 6.08467e-05
9 *803:A *804:A 9.97399e-05
*RES
1 req_msg[26] *804:A 23.144 
*END

*D_NET *299 0.00161198
*CONN
*P req_msg[27] I
*I *805:A I *D sky130_fd_sc_hd__clkdlybuf4s50_1
*CAP
1 req_msg[27] 0.00045194
2 *805:A 0.00045194
3 *805:A resp_msg[11] 0
4 *805:A *600:S 0.000318331
5 *805:A *806:A 0
6 *606:A *805:A 2.08274e-05
7 *802:A *805:A 0.000368938
8 *804:A *805:A 0
*RES
1 req_msg[27] *805:A 36.5714 
*END

*D_NET *300 0.00147684
*CONN
*P req_msg[28] I
*I *806:A I *D sky130_fd_sc_hd__clkdlybuf4s50_1
*CAP
1 req_msg[28] 0.000298655
2 *806:A 0.000298655
3 *806:A resp_msg[11] 9.72056e-05
4 *806:A resp_msg[14] 0
5 *806:A *600:S 0.000309709
6 *602:A *806:A 0.000307778
7 *802:A *806:A 0
8 *805:A *806:A 0
9 *824:A *806:A 0.000164842
*RES
1 req_msg[28] *806:A 25.0132 
*END

*D_NET *301 0.00054343
*CONN
*P req_msg[29] I
*I *807:A I *D sky130_fd_sc_hd__clkdlybuf4s50_1
*CAP
1 req_msg[29] 0.000247984
2 *807:A 0.000247984
3 *807:A *415:41 4.74616e-05
4 *502:B *807:A 0
5 *569:A *807:A 0
*RES
1 req_msg[29] *807:A 20.4337 
*END

*D_NET *302 0.0015296
*CONN
*P req_msg[2] I
*I *808:A I *D sky130_fd_sc_hd__clkdlybuf4s50_1
*CAP
1 req_msg[2] 0.000633832
2 *808:A 0.000633832
3 *808:A resp_msg[1] 0.000121159
4 *808:A *522:S 0
5 *808:A *715:CLK 0
6 *808:A *357:71 8.68108e-05
7 *501:A *808:A 0
8 *522:A1 *808:A 0
9 *657:B1 *808:A 0
10 *715:D *808:A 5.3971e-05
11 *245:14 *808:A 0
*RES
1 req_msg[2] *808:A 28.4041 
*END

*D_NET *303 0.000258091
*CONN
*P req_msg[30] I
*I *809:A I *D sky130_fd_sc_hd__clkdlybuf4s50_1
*CAP
1 req_msg[30] 7.70795e-05
2 *809:A 7.70795e-05
3 *809:A *819:A 7.2593e-05
4 *167:10 *809:A 3.13394e-05
*RES
1 req_msg[30] *809:A 18.5432 
*END

*D_NET *304 0.00339514
*CONN
*P req_msg[31] I
*I *810:A I *D sky130_fd_sc_hd__clkdlybuf4s50_1
*CAP
1 req_msg[31] 0.000828925
2 *810:A 0
3 *304:31 0.000828925
4 *304:31 resp_msg[15] 0
5 *304:31 resp_msg[1] 0
6 *304:31 *497:A 0.00027329
7 *304:31 *522:S 0
8 *304:31 *673:B 3.31733e-05
9 *304:31 *685:B 5.61969e-05
10 *304:31 *715:DE 6.66231e-05
11 *304:31 *715:CLK 0
12 *304:31 *336:18 6.96206e-05
13 *304:31 *353:50 2.41483e-05
14 *304:31 *357:79 0.000461807
15 *304:31 *428:62 0.000224381
16 *500:A *304:31 0
17 *657:A2 *304:31 0.000404747
18 *685:A *304:31 2.04806e-05
19 *953:A *304:31 6.04335e-05
20 *170:14 *304:31 4.23865e-05
*RES
1 req_msg[31] *304:31 41.3806 
2 *304:31 *810:A 9.24915 
*END

*D_NET *305 0.00128546
*CONN
*P req_msg[3] I
*I *811:A I *D sky130_fd_sc_hd__clkdlybuf4s50_1
*CAP
1 req_msg[3] 0.000396588
2 *811:A 0.000396588
3 *811:A *416:26 6.92705e-05
4 *811:A *416:53 0.000195315
5 *520:A1 *811:A 0.000175789
6 *521:A1 *811:A 1.44467e-05
7 *180:6 *811:A 2.42138e-05
8 *180:17 *811:A 1.32509e-05
*RES
1 req_msg[3] *811:A 24.8739 
*END

*D_NET *306 0.0017325
*CONN
*P req_msg[4] I
*I *812:A I *D sky130_fd_sc_hd__clkdlybuf4s50_1
*CAP
1 req_msg[4] 0.000508174
2 *812:A 0.000508174
3 *812:A resp_msg[2] 0.000106608
4 *812:A *699:DE 6.2597e-05
5 *812:A *357:96 0.000213725
6 *795:A *812:A 0
7 *831:A *812:A 0
8 *210:14 *812:A 0.000260792
9 *292:15 *812:A 7.24249e-05
*RES
1 req_msg[4] *812:A 36.6169 
*END

*D_NET *307 0.000773867
*CONN
*P req_msg[5] I
*I *813:A I *D sky130_fd_sc_hd__clkdlybuf4s50_1
*CAP
1 req_msg[5] 0.000343651
2 *813:A 0.000343651
3 *813:A resp_msg[4] 0
4 *813:A resp_msg[5] 6.28179e-05
5 *813:A *876:A 2.37478e-05
*RES
1 req_msg[5] *813:A 18.4776 
*END

*D_NET *308 0.00104773
*CONN
*P req_msg[6] I
*I *814:A I *D sky130_fd_sc_hd__clkdlybuf4s50_1
*CAP
1 req_msg[6] 0.000359576
2 *814:A 0.000359576
3 *814:A resp_msg[4] 0
4 *800:A *814:A 0.000321301
5 *182:18 *814:A 7.27864e-06
*RES
1 req_msg[6] *814:A 18.7071 
*END

*D_NET *309 0.000925295
*CONN
*P req_msg[7] I
*I *815:A I *D sky130_fd_sc_hd__clkdlybuf4s50_1
*CAP
1 req_msg[7] 0.000336034
2 *815:A 0.000336034
3 *815:A resp_msg[6] 0
4 *815:A resp_msg[7] 2.32501e-05
5 *800:A *815:A 0
6 *801:A *815:A 0.000229975
*RES
1 req_msg[7] *815:A 18.8929 
*END

*D_NET *310 0.000574888
*CONN
*P req_msg[8] I
*I *816:A I *D sky130_fd_sc_hd__clkdlybuf4s50_1
*CAP
1 req_msg[8] 0.000283881
2 *816:A 0.000283881
3 *816:A resp_msg[8] 7.12632e-06
*RES
1 req_msg[8] *816:A 18.2481 
*END

*D_NET *311 0.000862077
*CONN
*P req_msg[9] I
*I *817:A I *D sky130_fd_sc_hd__clkdlybuf4s50_1
*CAP
1 req_msg[9] 0.000340609
2 *817:A 0.000340609
3 *625:A *817:A 4.25884e-05
4 *283:8 *817:A 0.000138271
*RES
1 req_msg[9] *817:A 20.4009 
*END

*D_NET *315 0.000948165
*CONN
*P req_rdy O
*I *821:X O *D sky130_fd_sc_hd__clkdlybuf4s15_1
*CAP
1 req_rdy 0.000399022
2 *821:X 0.000399022
3 req_rdy *821:A 6.1096e-05
4 req_rdy *419:8 0
5 *504:A req_rdy 8.90253e-05
*RES
1 *821:X req_rdy 19.3081 
*END

*D_NET *312 0.000263004
*CONN
*P req_val I
*I *818:A I *D sky130_fd_sc_hd__dlymetal6s2s_1
*CAP
1 req_val 8.60966e-05
2 *818:A 8.60966e-05
3 *818:A *819:A 3.08307e-05
4 *818:A *820:A 5.99807e-05
5 *504:A *818:A 0
*RES
1 req_val *818:A 17.7892 
*END

*D_NET *313 0.000381778
*CONN
*P reset I
*I *819:A I *D sky130_fd_sc_hd__clkdlybuf4s50_1
*CAP
1 reset 0.000125141
2 *819:A 0.000125141
3 *819:A *419:8 7.86825e-06
4 *809:A *819:A 7.2593e-05
5 *818:A *819:A 3.08307e-05
6 *167:10 *819:A 2.02035e-05
*RES
1 reset *819:A 17.9422 
*END

*D_NET *316 0.00137292
*CONN
*P resp_msg[0] O
*I *822:X O *D sky130_fd_sc_hd__buf_2
*CAP
1 resp_msg[0] 0.000396128
2 *822:X 0.000396128
3 *500:A resp_msg[0] 0.000483474
4 *501:A resp_msg[0] 0
5 *797:A resp_msg[0] 9.71912e-05
*RES
1 *822:X resp_msg[0] 22.5245 
*END

*D_NET *317 0.000625975
*CONN
*P resp_msg[10] O
*I *823:X O *D sky130_fd_sc_hd__dlymetal6s2s_1
*CAP
1 resp_msg[10] 0.000253909
2 *823:X 0.000253909
3 *598:A resp_msg[10] 0
4 *823:A resp_msg[10] 0.000118158
*RES
1 *823:X resp_msg[10] 20.7918 
*END

*D_NET *318 0.000596227
*CONN
*P resp_msg[11] O
*I *824:X O *D sky130_fd_sc_hd__buf_2
*CAP
1 resp_msg[11] 0.000248304
2 *824:X 0.000248304
3 *805:A resp_msg[11] 0
4 *806:A resp_msg[11] 9.72056e-05
5 *824:A resp_msg[11] 2.41274e-06
*RES
1 *824:X resp_msg[11] 19.1969 
*END

*D_NET *319 0.00041568
*CONN
*P resp_msg[12] O
*I *825:X O *D sky130_fd_sc_hd__clkbuf_2
*CAP
1 resp_msg[12] 0.000161875
2 *825:X 0.000161875
3 resp_msg[12] resp_msg[13] 0
4 resp_msg[12] resp_msg[14] 8.24839e-05
5 *694:D resp_msg[12] 9.44631e-06
*RES
1 *825:X resp_msg[12] 18.5029 
*END

*D_NET *320 0.000490206
*CONN
*P resp_msg[13] O
*I *826:X O *D sky130_fd_sc_hd__clkbuf_2
*CAP
1 resp_msg[13] 0.000245103
2 *826:X 0.000245103
3 resp_msg[12] resp_msg[13] 0
4 *588:A resp_msg[13] 0
*RES
1 *826:X resp_msg[13] 19.6121 
*END

*D_NET *321 0.00187842
*CONN
*P resp_msg[14] O
*I *827:X O *D sky130_fd_sc_hd__buf_2
*CAP
1 resp_msg[14] 0.000625889
2 *827:X 0.000625889
3 resp_msg[14] *603:A1 1.22289e-05
4 resp_msg[14] *394:58 0.000149073
5 resp_msg[14] *426:112 1.94615e-05
6 resp_msg[12] resp_msg[14] 8.24839e-05
7 *603:A2 resp_msg[14] 0.000114659
8 *603:B1 resp_msg[14] 0.0001591
9 *606:A resp_msg[14] 8.96342e-05
10 *806:A resp_msg[14] 0
*RES
1 *827:X resp_msg[14] 28.9631 
*END

*D_NET *322 0.00303266
*CONN
*P resp_msg[15] O
*I *828:X O *D sky130_fd_sc_hd__buf_2
*CAP
1 resp_msg[15] 0.000891516
2 *828:X 0.000891516
3 resp_msg[15] *497:A 0.000110458
4 resp_msg[15] *522:S 4.20184e-06
5 resp_msg[15] *673:B 2.4352e-05
6 resp_msg[15] *673:C 7.09395e-05
7 resp_msg[15] *374:8 0.000504703
8 resp_msg[15] *404:16 9.99386e-06
9 *474:B resp_msg[15] 6.27718e-05
10 *479:A1 resp_msg[15] 0.000168075
11 *479:A2 resp_msg[15] 3.00174e-06
12 *685:A resp_msg[15] 3.58365e-05
13 *795:A resp_msg[15] 0
14 *194:12 resp_msg[15] 0
15 *275:18 resp_msg[15] 0.000255298
16 *304:31 resp_msg[15] 0
*RES
1 *828:X resp_msg[15] 40.1896 
*END

*D_NET *323 0.00238457
*CONN
*P resp_msg[1] O
*I *829:X O *D sky130_fd_sc_hd__buf_2
*CAP
1 resp_msg[1] 0.000526224
2 *829:X 0.000526224
3 resp_msg[1] *715:DE 0
4 resp_msg[1] *715:CLK 3.67528e-06
5 resp_msg[1] *357:71 1.62073e-05
6 *500:A resp_msg[1] 0.000327072
7 *501:A resp_msg[1] 6.50586e-05
8 *663:A resp_msg[1] 0.000613352
9 *808:A resp_msg[1] 0.000121159
10 *829:A resp_msg[1] 0.000110527
11 *245:14 resp_msg[1] 7.50722e-05
12 *304:31 resp_msg[1] 0
*RES
1 *829:X resp_msg[1] 40.3412 
*END

*D_NET *324 0.00115227
*CONN
*P resp_msg[2] O
*I *830:X O *D sky130_fd_sc_hd__buf_2
*CAP
1 resp_msg[2] 0.000314714
2 *830:X 0.000314714
3 resp_msg[2] resp_msg[3] 6.50586e-05
4 resp_msg[2] *699:DE 0.000200206
5 resp_msg[2] *357:96 1.9633e-05
6 *796:A resp_msg[2] 0
7 *799:A resp_msg[2] 0
8 *812:A resp_msg[2] 0.000106608
9 *831:A resp_msg[2] 6.23875e-05
10 *292:15 resp_msg[2] 6.8952e-05
*RES
1 *830:X resp_msg[2] 24.0434 
*END

*D_NET *325 0.00236622
*CONN
*P resp_msg[3] O
*I *831:X O *D sky130_fd_sc_hd__buf_2
*CAP
1 resp_msg[3] 0.000919374
2 *831:X 0.000919374
3 resp_msg[3] *653:B 0.000143017
4 resp_msg[3] *357:96 1.10258e-05
5 resp_msg[2] resp_msg[3] 6.50586e-05
6 *520:A1 resp_msg[3] 0.000195605
7 *799:A resp_msg[3] 0
8 *831:A resp_msg[3] 0.000112763
*RES
1 *831:X resp_msg[3] 31.7417 
*END

*D_NET *326 0.00067654
*CONN
*P resp_msg[4] O
*I *832:X O *D sky130_fd_sc_hd__dlymetal6s2s_1
*CAP
1 resp_msg[4] 0.00033827
2 *832:X 0.00033827
3 *486:B resp_msg[4] 0
4 *813:A resp_msg[4] 0
5 *814:A resp_msg[4] 0
*RES
1 *832:X resp_msg[4] 19.9092 
*END

*D_NET *327 0.000424413
*CONN
*P resp_msg[5] O
*I *833:X O *D sky130_fd_sc_hd__buf_2
*CAP
1 resp_msg[5] 0.000180798
2 *833:X 0.000180798
3 resp_msg[5] *876:A 0
4 *813:A resp_msg[5] 6.28179e-05
*RES
1 *833:X resp_msg[5] 19.1879 
*END

*D_NET *328 0.000613935
*CONN
*P resp_msg[6] O
*I *834:X O *D sky130_fd_sc_hd__clkbuf_2
*CAP
1 resp_msg[6] 0.000193804
2 *834:X 0.000193804
3 *800:A resp_msg[6] 0.000226327
4 *815:A resp_msg[6] 0
*RES
1 *834:X resp_msg[6] 18.2481 
*END

*D_NET *329 0.00171538
*CONN
*P resp_msg[7] O
*I *835:X O *D sky130_fd_sc_hd__buf_2
*CAP
1 resp_msg[7] 0.00072647
2 *835:X 0.00072647
3 resp_msg[7] resp_msg[8] 0
4 *801:A resp_msg[7] 0.000208071
5 *815:A resp_msg[7] 2.32501e-05
6 *949:A resp_msg[7] 3.11227e-05
7 *183:25 resp_msg[7] 0
*RES
1 *835:X resp_msg[7] 20.98 
*END

*D_NET *330 0.00203342
*CONN
*P resp_msg[8] O
*I *836:X O *D sky130_fd_sc_hd__buf_2
*CAP
1 resp_msg[8] 0.000930769
2 *836:X 0.000930769
3 resp_msg[7] resp_msg[8] 0
4 *525:B resp_msg[8] 0
5 *721:D resp_msg[8] 0
6 *816:A resp_msg[8] 7.12632e-06
7 *200:10 resp_msg[8] 0
8 *265:10 resp_msg[8] 0
9 *283:8 resp_msg[8] 0.000164754
*RES
1 *836:X resp_msg[8] 36.3663 
*END

*D_NET *331 0.00154116
*CONN
*P resp_msg[9] O
*I *837:X O *D sky130_fd_sc_hd__buf_2
*CAP
1 resp_msg[9] 0.000706995
2 *837:X 0.000706995
3 resp_msg[9] *511:A 3.77804e-05
4 resp_msg[9] *400:14 0
5 *837:A resp_msg[9] 8.93845e-05
6 *187:14 resp_msg[9] 0
*RES
1 *837:X resp_msg[9] 29.0264 
*END

*D_NET *314 0.00038344
*CONN
*P resp_rdy I
*I *820:A I *D sky130_fd_sc_hd__clkdlybuf4s50_1
*CAP
1 resp_rdy 0.000133031
2 *820:A 0.000133031
3 *820:A resp_val 5.73981e-05
4 *820:A *419:8 0
5 *504:A *820:A 0
6 *818:A *820:A 5.99807e-05
*RES
1 resp_rdy *820:A 19.3737 
*END

*D_NET *332 0.000834607
*CONN
*P resp_val O
*I *838:X O *D sky130_fd_sc_hd__buf_2
*CAP
1 resp_val 0.00036844
2 *838:X 0.00036844
3 resp_val *419:8 0
4 *504:A resp_val 2.1051e-05
5 *820:A resp_val 5.73981e-05
6 *838:A resp_val 1.92793e-05
*RES
1 *838:X resp_val 23.6241 
*END
